31
  Isotropic shielding for P: 221.023 ppm
  C     -3.787851   -0.721013   -0.472797
  P     -2.462332    0.284099   -1.241287
  O     -2.765046    0.686393   -2.653668
  C     -2.057812    1.656262   -0.065964
  C     -0.526135    1.581306    0.113758
  C     -0.089230    0.082611    0.170981
  C     -0.860774   -0.612419   -0.996884
  C     -0.508471   -0.532066    1.533577
  C      1.425775   -0.097926    0.025744
  C      1.955519   -1.344203   -0.353413
  C      3.334081   -1.549560   -0.445521
  C      4.221639   -0.507673   -0.155877
  C      3.712212    0.735331    0.227214
  C      2.329855    0.935551    0.318336
  H     -3.970913   -1.601726   -1.099737
  H     -3.519328   -1.044665    0.539904
  H     -4.708010   -0.125712   -0.433039
  H     -2.385542    2.607689   -0.498577
  H     -2.587199    1.517074    0.884951
  H     -0.039088    2.060691   -0.746093
  H     -0.206769    2.122514    1.012812
  H     -1.016192   -1.683737   -0.827401
  H     -0.315985   -0.497540   -1.942131
  H     -1.586188   -0.436861    1.715247
  H      0.018572   -0.030715    2.354864
  H     -0.253332   -1.598007    1.571187
  H      1.283768   -2.168641   -0.584667
  H      3.715125   -2.524136   -0.747229
  H      5.296459   -0.663557   -0.230093
  H      4.389998    1.556816    0.454909
  H      1.963293    1.913421    0.619490
