17
  Isotropic shielding for P: 91.874 ppm
  C      0.161994    2.247662   -0.031182
  Sn    -0.235489    0.110559    0.076195
  P      2.005555   -0.953416   -0.611954
  S      2.795032   -0.506232   -2.309475
  F      1.793790   -2.542041   -0.380021
  F      2.981991   -0.707842    0.656450
  C     -0.695322   -0.608295    2.082809
  C     -1.622287   -0.581143   -1.452381
  H      0.602151    2.476461   -1.006415
  H     -0.775130    2.801612    0.089010
  H      0.860180    2.532863    0.761623
  H     -1.634705   -0.160483    2.424689
  H      0.113562   -0.325949    2.763423
  H     -0.794916   -1.697820    2.064723
  H     -1.198976   -0.366464   -2.438244
  H     -1.778066   -1.659125   -1.347362
  H     -2.579366   -0.060247   -1.341889
