34
  Isotropic shielding for P: 251.099 ppm
  C      3.352505    0.302872   -1.407887
  S      3.219606   -0.573493    0.198151
  C      1.479345   -1.044280    0.358265
  N      1.065405   -1.738299    1.345895
  C      1.996158   -2.197284    2.374401
  P      0.312572   -0.589494   -1.033905
  C     -1.277681   -1.195042   -0.337387
  C     -1.568896   -2.558334   -0.518000
  C     -2.756799   -3.102693   -0.027502
  C     -3.681685   -2.284875    0.632661
  C     -3.407126   -0.924296    0.801063
  C     -2.209627   -0.381666    0.322996
  C      0.206954    1.234600   -0.782849
  C      0.453919    1.862698    0.449758
  C      0.366088    3.252870    0.566189
  C      0.019584    4.032055   -0.543864
  C     -0.235875    3.415737   -1.773626
  C     -0.134220    2.026358   -1.892372
  H      4.427944    0.433906   -1.569916
  H      2.934902   -0.298528   -2.220189
  H      2.867230    1.281391   -1.372195
  H      2.825188   -2.781436    1.939832
  H      1.457718   -2.825311    3.092047
  H      2.442877   -1.348016    2.918458
  H     -0.856394   -3.196583   -1.039347
  H     -2.964429   -4.162810   -0.165227
  H     -4.612906   -2.705882    1.008554
  H     -4.123839   -0.281581    1.310591
  H     -2.005104    0.675965    0.467393
  H      0.712112    1.262886    1.319180
  H      0.564676    3.728426    1.525623
  H     -0.048402    5.114799   -0.451018
  H     -0.505282    4.016296   -2.641085
  H     -0.316616    1.548945   -2.854689
