14
  Isotropic shielding for P: 146.251 ppm
  C      0.102090   -1.696936    0.104855
  N      0.550123   -0.306113    0.002700
  N      1.895781   -0.085390   -0.050031
  C      2.107662    1.223027   -0.138576
  P      0.670649    2.265958   -0.162870
  C     -0.261397    0.787772   -0.042667
  C     -1.753728    0.628348    0.010763
  H     -0.521710   -1.965914   -0.756699
  H     -0.475924   -1.849040    1.024843
  H      0.994349   -2.324727    0.123060
  H      3.142401    1.553455   -0.189245
  H     -2.079112    0.130573    0.936502
  H     -2.131972    0.030778   -0.832245
  H     -2.239313    1.608210   -0.030290
