44
  Isotropic shielding for P: 104.671 ppm
  C     -0.535659    2.196772    1.668159
  C     -1.103030    2.293013    0.242872
  N     -0.150893    1.900343   -0.818626
  P      0.000367    0.337549   -1.409523
  O      0.243849   -0.621138    0.030884
  C      1.464238   -0.810488    0.616181
  C      2.486532    0.069594    0.427935
  C      3.870665    0.087822    0.916435
  O      4.564180    1.085865    0.680478
  C      4.493921   -1.076495    1.685114
  C      1.428790   -2.056431    1.456960
  O     -1.601836   -0.074266   -1.495320
  C     -1.972215   -1.429874   -1.867940
  C     -3.212803   -1.859693   -1.078688
  C     -2.935132   -1.911397    0.433122
  C     -3.717385   -3.215339   -1.607647
  C      0.558760    2.976824   -1.539119
  C      1.521781    3.804782   -0.676071
  H      0.367028    2.805059    1.788773
  H     -1.285670    2.546539    2.391552
  H     -0.281114    1.160681    1.912961
  H     -1.994321    1.660506    0.155620
  H     -1.426605    3.322452    0.030055
  H      2.272966    0.949850   -0.170653
  H      4.078360   -1.136417    2.700907
  H      5.569849   -0.894570    1.762193
  H      4.316542   -2.040289    1.192231
  H      2.274741   -2.140936    2.136985
  H      0.499322   -2.063981    2.040761
  H      1.406327   -2.943952    0.807523
  H     -2.178851   -1.439856   -2.948448
  H     -1.140912   -2.122533   -1.666684
  H     -3.990433   -1.101772   -1.266509
  H     -3.846716   -2.175118    0.985461
  H     -2.170284   -2.667583    0.660640
  H     -2.571158   -0.947879    0.804593
  H     -4.628432   -3.522955   -1.078957
  H     -3.949015   -3.171416   -2.680499
  H     -2.964241   -4.002446   -1.456462
  H     -0.185781    3.645022   -2.005099
  H      1.116183    2.506066   -2.360552
  H      0.992243    4.340921    0.121041
  H      2.297684    3.180012   -0.218159
  H      2.018159    4.556853   -1.304282
