38
  Isotropic shielding for P: 280.612 ppm
  C      3.216144   -1.376377    1.923400
  O      2.461568   -1.399231    0.685112
  P      2.270347   -0.108276   -0.274606
  O      3.448616    0.899342    0.415677
  C      4.713830    0.780987   -0.237514
  C      4.367904    0.529649   -1.710344
  O      3.108187   -0.175328   -1.693693
  O      1.019270   -0.922854   -1.145480
  C     -0.208276   -0.501101   -0.728549
  C     -0.147980    0.571506    0.108725
  O      1.161869    0.973922    0.350785
  C     -1.286348    1.208366    0.654976
  C     -1.194467    2.323512    1.522218
  C     -2.342249    2.908155    2.028817
  C     -3.606938    2.390078    1.680545
  C     -3.710120    1.296977    0.831285
  C     -2.566663    0.666246    0.287012
  C     -2.643265   -0.484439   -0.610216
  C     -1.442704   -1.079237   -1.128609
  C     -1.500222   -2.193938   -1.997235
  C     -2.722988   -2.729822   -2.362485
  C     -3.913343   -2.160229   -1.864514
  C     -3.869709   -1.066765   -1.011114
  H      2.990451   -2.327250    2.415323
  H      2.906869   -0.540003    2.557928
  H      4.293443   -1.312183    1.729879
  H      5.294924   -0.057103    0.183388
  H      5.272099    1.711755   -0.085206
  H      4.230971    1.466972   -2.266126
  H      5.102388   -0.100366   -2.224223
  H     -0.209357    2.707052    1.778441
  H     -2.269201    3.766082    2.695194
  H     -4.509480    2.849585    2.079354
  H     -4.699665    0.922950    0.583214
  H     -0.567590   -2.615454   -2.365265
  H     -2.766480   -3.588189   -3.030757
  H     -4.875686   -2.581126   -2.150626
  H     -4.806450   -0.653965   -0.646913
