46
  Isotropic shielding for P: 258.031 ppm
  C      1.145329   -2.491813   -1.714225
  C      0.189393   -1.289901   -1.624314
  P      0.054170   -0.527325    0.051207
  C      0.574159   -1.740477    1.380014
  C      1.226025   -1.198067    2.663471
  O      1.684168    0.050190    0.121449
  C      2.261833    1.222241   -0.398604
  C      3.438772    0.810045   -1.320019
  F      4.274881   -0.081571   -0.735659
  F      2.934735    0.216751   -2.449273
  F      4.170782    1.881713   -1.719493
  C      2.704849    2.125312    0.786009
  F      3.713509    1.566203    1.508613
  F      1.658289    2.326635    1.629737
  F      3.123199    3.343456    0.348026
  O     -0.392052    1.112243   -0.136682
  C     -1.691622    1.496923   -0.407208
  O     -2.627975    0.471899   -0.101730
  C     -2.025987   -0.711603    0.415068
  C     -2.706404   -1.916213   -0.296029
  F     -2.887758   -1.683119   -1.621500
  F     -3.930320   -2.220119    0.213838
  F     -1.932286   -3.043287   -0.175525
  C     -2.388182   -0.748673    1.935158
  F     -2.280648   -2.003955    2.465022
  F     -1.557017    0.065192    2.648632
  F     -3.650975   -0.317358    2.168645
  C     -1.826343    1.838785   -1.947356
  F     -0.794799    2.624228   -2.358476
  F     -1.787519    0.700710   -2.685118
  F     -2.987485    2.474617   -2.215903
  C     -2.029638    2.766997    0.475016
  F     -1.651230    2.565790    1.754480
  F     -1.369577    3.861171    0.009029
  F     -3.356645    3.024633    0.456852
  H      2.138467   -2.255481   -1.319967
  H      1.263608   -2.768851   -2.768980
  H      0.749627   -3.365192   -1.184367
  H     -0.790847   -1.551546   -2.014676
  H      0.566439   -0.471421   -2.247806
  H     -0.280085   -2.379819    1.600699
  H      1.310505   -2.353286    0.847490
  H      0.586788   -0.492898    3.198104
  H      1.423138   -2.044726    3.334028
  H      2.176873   -0.708531    2.442112
  H      1.575553    1.819399   -1.009987
