35
  Isotropic shielding for P: 212.328 ppm
  C     -0.523187    3.542196   -0.541014
  C     -0.683502    2.020788   -0.428190
  S      0.604751    1.176360   -1.475998
  C      0.855920   -0.361630   -0.468441
  P     -0.332201   -0.371362    1.008487
  C     -0.546111    1.489689    1.001791
  C     -1.938241   -0.868999    0.232882
  C     -2.187593   -0.976397   -1.146432
  C     -3.443347   -1.379227   -1.613043
  C     -4.472600   -1.672576   -0.712550
  C     -4.237185   -1.570390    0.662825
  C     -2.977625   -1.184080    1.128527
  C      2.284076   -0.539633    0.007865
  C      3.029926    0.518716    0.548429
  C      4.319092    0.303145    1.041770
  C      4.888182   -0.974443    0.997341
  C      4.156409   -2.034650    0.452802
  C      2.865426   -1.816623   -0.036249
  H     -0.602713    3.877425   -1.582803
  H     -1.314683    4.043615    0.033209
  H      0.450024    3.865469   -0.150662
  H     -1.663810    1.730072   -0.825336
  H      0.583981   -1.223445   -1.089196
  H     -1.425782    1.750574    1.606763
  H      0.336951    1.921394    1.492666
  H     -1.412002   -0.723719   -1.866203
  H     -3.618348   -1.457179   -2.685261
  H     -5.449125   -1.984391   -1.079375
  H     -5.028928   -1.804597    1.372904
  H     -2.793252   -1.134344    2.201989
  H      2.606334    1.520262    0.554421
  H      4.883745    1.137003    1.456341
  H      5.895391   -1.140176    1.375767
  H      4.591979   -3.031485    0.403720
  H      2.298045   -2.647562   -0.455249
