13
  Isotropic shielding for P: 63.634 ppm
  C     -1.071405   -0.120095   -0.254545
  C     -0.017425   -1.238820   -0.098993
  O      0.868648   -0.947062    1.021457
  P      1.885492    0.349807    0.792517
  O      0.936801    1.303602   -0.226703
  C     -0.472663    1.255831    0.119661
  H     -1.424846   -0.118929   -1.295042
  H     -1.940278   -0.314576    0.389581
  H     -0.481694   -2.207080    0.116962
  H      0.587767   -1.333735   -1.013595
  H      2.683120   -0.150528   -0.314841
  H     -0.600580    1.451590    1.196592
  H     -0.952736    2.070195   -0.433054
