29
  Isotropic shielding for P: 181.412 ppm
  N      1.497621    3.936800    0.548885
  C      0.475596    3.380568    0.433491
  S     -1.019731    2.602844    0.306122
  P     -0.312748    0.819630   -0.836008
  O     -0.037601    1.103199   -2.274426
  C     -1.751696   -0.344923   -0.573585
  C     -2.014696   -0.664858    0.910228
  C     -2.994876    0.303126   -1.225797
  C     -1.362283   -1.635373   -1.337813
  C      1.149106    0.265198    0.080718
  C      1.231721    0.254081    1.482706
  C      2.394764   -0.198728    2.106852
  C      3.479612   -0.636283    1.337428
  C      3.404246   -0.614057   -0.058989
  C      2.243532   -0.160844   -0.690753
  H     -1.163280   -1.173982    1.374746
  H     -2.882316   -1.336022    0.979006
  H     -2.242947    0.234038    1.494555
  H     -2.797109    0.590314   -2.264220
  H     -3.328590    1.193662   -0.678133
  H     -3.822064   -0.419842   -1.215959
  H     -1.173201   -1.430592   -2.397000
  H     -2.190723   -2.353542   -1.264743
  H     -0.468982   -2.106174   -0.908594
  H      0.405204    0.623408    2.083624
  H      2.460731   -0.196275    3.193208
  H      4.388512   -0.980772    1.827767
  H      4.252939   -0.938883   -0.658081
  H      2.179060   -0.115617   -1.775233
