58
  Isotropic shielding for P: 327.332 ppm
  C     -4.350654   -0.655520   -1.564890
  C     -3.300273   -0.676730   -2.487976
  C     -2.019623   -0.277059   -2.100710
  C     -1.760756    0.109437   -0.775860
  C     -2.815127    0.098843    0.150792
  C     -4.105410   -0.257861   -0.247021
  P     -0.022018    0.530519   -0.290571
  C      0.259019    1.547664   -1.882868
  C     -0.590355    2.654086   -2.065246
  C     -0.474702    3.484495   -3.179734
  C      0.500568    3.221512   -4.150390
  C      1.350041    2.125572   -3.987172
  C      1.230613    1.297496   -2.861747
  C      0.329341    1.975667    0.799923
  C      1.492280    2.718866    0.542088
  C      1.834260    3.804522    1.350993
  C      0.996125    4.186126    2.404035
  C     -0.172057    3.460158    2.656354
  C     -0.493793    2.348877    1.871561
  O      1.265889   -0.426633   -0.727200
  C      2.085712   -1.230842    0.064584
  C      2.379620   -2.505493   -0.423967
  C      3.246045   -3.333617    0.293476
  C      3.811064   -2.890432    1.493863
  C      3.514582   -1.606776    1.965330
  C      2.656433   -0.765957    1.251569
  O     -0.236334   -0.386851    1.243315
  C     -0.597573   -1.690064    1.435470
  C     -0.791308   -2.631457    0.409682
  C     -1.161158   -3.941840    0.725445
  C     -1.339909   -4.338986    2.053446
  C     -1.143221   -3.401519    3.075571
  C     -0.777331   -2.090316    2.772225
  H     -5.353058   -0.952062   -1.869377
  H     -3.478760   -0.994061   -3.514053
  H     -1.217983   -0.268600   -2.834319
  H     -2.628626    0.344937    1.190244
  H     -4.915463   -0.244413    0.480233
  H     -1.356568    2.875395   -1.322875
  H     -1.143316    4.336831   -3.293247
  H      0.594916    3.866179   -5.022911
  H      2.112592    1.909387   -4.734628
  H      1.900999    0.450948   -2.749953
  H      2.133825    2.450690   -0.293599
  H      2.749240    4.359224    1.150154
  H      1.252376    5.043180    3.024704
  H     -0.829701    3.749088    3.474680
  H     -1.381736    1.771310    2.104241
  H      1.919128   -2.836728   -1.351406
  H      3.470129   -4.330264   -0.082722
  H      4.477819   -3.540000    2.057650
  H      3.953418   -1.253147    2.896883
  H      2.415363    0.225290    1.620621
  H     -0.655377   -2.349777   -0.628204
  H     -1.305927   -4.659082   -0.081660
  H     -1.625341   -5.362166    2.289978
  H     -1.273269   -3.693535    4.116983
  H     -0.615168   -1.354816    3.557818
