15
  Isotropic shielding for P: 273.512 ppm
  C     -1.980261   -0.406948   -0.275197
  C     -1.273721    0.456826    0.780324
  C      0.193517    0.722190    0.460489
  O      0.904317   -0.555633    0.466891
  P      2.406632   -0.641315   -0.123550
  O      3.007552   -1.994817   -0.086078
  H     -3.031874   -0.567799   -0.007596
  H     -1.498805   -1.387440   -0.365159
  H     -1.955583    0.076215   -1.262240
  H     -1.770969    1.434880    0.869315
  H     -1.334156   -0.021291    1.768307
  H      0.296489    1.191271   -0.532047
  H      0.650954    1.383740    1.210776
  H      2.277316   -0.053786   -1.416307
  H      3.108493    0.363706    0.604672
