25
  Isotropic shielding for P: 211.646 ppm
  C      3.487105   -1.376863    0.232706
  C      2.858426   -0.041748   -0.121878
  O      1.513424   -0.253773   -0.735419
  P      0.210083   -0.302546    0.182392
  O      0.262290   -0.896431    1.540503
  S     -0.209002    1.914302    0.551500
  O     -1.641352    2.097978    0.790532
  O      0.802675    2.427092    1.476113
  C      0.154987    2.819472   -1.125997
  F     -0.525944    2.243547   -2.140823
  F      1.478517    2.776813   -1.404782
  F     -0.230079    4.104845   -1.001200
  S     -1.218790   -0.958506   -1.174826
  C     -2.653742   -1.113475    0.020239
  C     -3.820799   -1.777729   -0.711838
  H      4.504802   -1.205567    0.609716
  H      3.550761   -2.025949   -0.648956
  H      2.910085   -1.885752    1.012728
  H      2.745070    0.612220    0.749195
  H      3.410940    0.492300   -0.900097
  H     -2.905314   -0.105557    0.361174
  H     -2.306593   -1.710279    0.867903
  H     -4.667409   -1.872641   -0.019093
  H     -4.152731   -1.180196   -1.569810
  H     -3.557209   -2.781456   -1.067281
