40
  Isotropic shielding for P: 291.586 ppm
  C     -1.519860    2.438739   -0.374463
  C     -1.852041    1.049159    0.213725
  C     -1.757282   -0.060946   -0.867057
  O     -0.692446    0.267392   -1.853384
  P      0.843345   -0.115701   -1.677745
  O      1.638989   -0.049395   -2.912376
  O      0.861245   -1.565322   -0.982664
  C     -0.129101   -1.788583    0.065739
  C     -1.569636   -1.553414   -0.432646
  C     -1.852473   -2.457376   -1.657799
  C     -2.508875   -1.981957    0.713286
  O      1.287021    0.897757   -0.476918
  C      2.547988    0.851987    0.138979
  C      2.578709    1.165677    1.500034
  C      3.803313    1.170005    2.173596
  C      4.984627    0.858446    1.490999
  C      4.934101    0.549574    0.127513
  C      3.717682    0.548081   -0.563359
  C     -3.271360    1.122651    0.823425
  H     -1.686923    3.206222    0.392261
  H     -0.486011    2.515003   -0.712886
  H     -2.177378    2.666603   -1.224831
  H     -1.129456    0.834658    1.015244
  H     -2.664795    0.000173   -1.483118
  H      0.108187   -1.147965    0.926812
  H      0.002405   -2.834291    0.363090
  H     -1.660800   -3.508917   -1.408167
  H     -1.231080   -2.195786   -2.518769
  H     -2.905056   -2.366914   -1.955931
  H     -2.292059   -1.460752    1.652442
  H     -3.559237   -1.808893    0.453496
  H     -2.388097   -3.058177    0.893557
  H      1.649934    1.407521    2.012231
  H      3.831461    1.415868    3.233777
  H      5.937162    0.860181    2.017167
  H      5.849335    0.311802   -0.411930
  H      3.668618    0.320672   -1.624598
  H     -4.014067    1.323890    0.038038
  H     -3.577761    0.218403    1.352177
  H     -3.318528    1.953820    1.538056
