12
  Isotropic shielding for P: 247.883 ppm
  C     -1.594206   -0.368950    0.202282
  P      0.015531    0.485181    0.133362
  F      0.059652    2.025298    0.553950
  F      0.289741    0.096130    1.744418
  F     -0.255371    0.984015   -1.448140
  C      1.574745   -0.304799   -0.386027
  H     -1.448995   -1.365824    0.630992
  H     -2.231804    0.197670    0.892289
  H     -2.062270   -0.425164   -0.781557
  H      1.371816   -0.952416   -1.245399
  H      2.246543    0.492909   -0.726166
  H      2.034718   -0.863952    0.429998
