54
  Isotropic shielding for P: 274.323 ppm
  C     -2.193211   -1.801005   -2.179584
  C     -1.767444   -1.560635   -0.716807
  C     -1.431004   -0.077178   -0.554826
  C     -2.455104    0.829212   -0.360885
  C     -2.224386    2.227391   -0.296390
  C     -3.271641    3.168236   -0.098555
  C     -3.004008    4.522734   -0.049641
  C     -1.674631    4.996679   -0.194498
  C     -0.635682    4.107124   -0.386736
  C     -0.879731    2.707492   -0.443535
  C      0.162659    1.762013   -0.627200
  C     -0.083337    0.399632   -0.680941
  P      1.272700   -0.835981   -0.947948
  C      2.749208    0.257625   -1.126999
  C      3.009650    0.766377   -2.413176
  C      4.108263    1.596323   -2.645863
  C      4.981916    1.911725   -1.597891
  C      4.744086    1.395256   -0.320506
  C      3.632978    0.577720   -0.084249
  C      1.471825   -1.482388    0.773659
  C      1.113891   -0.754885    1.920143
  C      1.272195   -1.311552    3.192215
  C      1.793993   -2.602240    3.335607
  C      2.158343   -3.334124    2.200081
  C      1.992510   -2.777850    0.928239
  N     -2.804384   -1.974594    0.256320
  C     -2.294905   -1.886733    1.632918
  C     -3.338322   -3.317461    0.008018
  H     -1.443633   -1.363435   -2.848259
  H     -3.158297   -1.318784   -2.381621
  H     -2.268290   -2.868088   -2.417529
  H     -0.848420   -2.156500   -0.544835
  H     -3.469996    0.451619   -0.244193
  H     -4.291965    2.801858    0.012034
  H     -3.814690    5.233993    0.100684
  H     -1.477606    6.066775   -0.153587
  H      0.387386    4.465826   -0.497806
  H      1.179648    2.136397   -0.718352
  H      2.342113    0.510709   -3.235995
  H      4.289584    1.987996   -3.645719
  H      5.845610    2.549547   -1.778811
  H      5.422353    1.631731    0.498339
  H      3.455723    0.189552    0.915358
  H      0.703024    0.246773    1.816225
  H      0.985483   -0.738292    4.072888
  H      1.912461   -3.036725    4.327000
  H      2.562364   -4.340008    2.304299
  H      2.260724   -3.354604    0.043430
  H     -3.104322   -2.123251    2.334548
  H     -1.454185   -2.584697    1.821133
  H     -1.942929   -0.872056    1.841109
  H     -4.065600   -3.556912    0.793282
  H     -2.555242   -4.106836    0.019401
  H     -3.858020   -3.361404   -0.953592
