40
  Isotropic shielding for P: 314.754 ppm
  C     -4.178977    1.682775    0.215497
  C     -5.014016    0.418225   -0.058731
  C     -4.513407   -0.870093    0.638308
  C     -3.472932   -1.697501   -0.147651
  C     -2.117003   -1.025215   -0.442488
  C     -1.315376   -0.637574    0.811998
  C      0.050538    0.013070    0.513864
  C      1.089947   -0.946494   -0.092223
  C      2.435162   -0.280576   -0.453156
  C      3.225165    0.233539    0.762410
  P      4.928651    0.983538    0.502208
  C      5.779076   -0.366054   -0.469983
  C      4.585971    2.185517   -0.886376
  H     -3.153927    1.598499   -0.163031
  H     -4.634613    2.562828   -0.258442
  H     -4.118393    1.881684    1.294745
  H     -6.045030    0.615771    0.270317
  H     -5.074670    0.241994   -1.144709
  H     -4.122954   -0.615749    1.635641
  H     -5.377150   -1.527391    0.817515
  H     -3.927614   -1.999818   -1.104449
  H     -3.284023   -2.631005    0.406664
  H     -2.267750   -0.132173   -1.067564
  H     -1.524659   -1.720225   -1.055380
  H     -1.162450   -1.534366    1.435382
  H     -1.906562    0.058530    1.422659
  H      0.447356    0.437266    1.447225
  H     -0.096252    0.864880   -0.171425
  H      1.269808   -1.774596    0.613258
  H      0.678744   -1.404343   -1.003668
  H      2.240246    0.549269   -1.148565
  H      3.045355   -1.008766   -1.005495
  H      3.370880   -0.584832    1.485658
  H      2.652273    1.003936    1.298269
  H      6.779551   -0.016113   -0.754315
  H      5.905258   -1.250310    0.167898
  H      5.240892   -0.658717   -1.381016
  H      3.900720    2.966308   -0.532146
  H      5.527210    2.672633   -1.170709
  H      4.154657    1.711949   -1.777797
