45
  Isotropic shielding for P: 128.574 ppm
  C      4.479033    0.334857    0.413946
  C      4.175068    0.154825   -1.083889
  C      2.825710    0.737078   -1.553220
  C      1.583509   -0.052722   -1.143428
  O      1.405495   -0.013805    0.297917
  P     -0.043829   -0.052888    1.122457
  N     -0.896373    1.193378    0.212112
  C     -0.224003    2.510364    0.158525
  C     -0.371320    3.192704   -1.209610
  C     -2.356677    1.283554    0.421956
  C     -2.802615    1.667478    1.847190
  N     -0.943983   -1.408567    0.607583
  C     -1.195747   -2.454724    1.612466
  C     -2.684088   -2.647054    1.943885
  C     -1.421549   -1.667648   -0.760078
  C     -0.787967   -2.897806   -1.430016
  H      5.479699   -0.049280    0.654869
  H      3.745487   -0.184105    1.038517
  H      4.454222    1.398486    0.691083
  H      4.976039    0.632016   -1.669038
  H      4.208623   -0.916120   -1.342379
  H      2.724362    1.775918   -1.203072
  H      2.821102    0.778890   -2.654618
  H      1.689274   -1.106226   -1.444832
  H      0.693235    0.358521   -1.635380
  H     -0.604989    3.184407    0.945891
  H      0.839507    2.361728    0.374332
  H     -1.424044    3.373021   -1.462539
  H      0.139840    4.165611   -1.206817
  H      0.066241    2.576361   -2.004354
  H     -2.750829    2.019049   -0.294263
  H     -2.807396    0.322959    0.152357
  H     -3.897275    1.751275    1.893287
  H     -2.486733    0.911271    2.576344
  H     -2.380240    2.631027    2.158555
  H     -0.653995   -2.162997    2.521818
  H     -0.761561   -3.413012    1.284819
  H     -2.802898   -3.417018    2.718295
  H     -3.261639   -2.969304    1.067902
  H     -3.122318   -1.712368    2.316645
  H     -1.216170   -0.769138   -1.350486
  H     -2.518004   -1.788677   -0.757474
  H     -1.123650   -2.968790   -2.473536
  H     -1.073002   -3.831045   -0.928699
  H      0.306853   -2.831388   -1.424920
