23
  Isotropic shielding for P: 155.446 ppm
  C     -2.224700   -2.354321    0.409266
  S     -1.809388   -1.107271   -0.880437
  P     -0.973375    0.440750    0.340260
  S     -1.937892    0.797714    2.002940
  C      0.805052    0.069939    0.532984
  C      1.431717    0.324729    1.761133
  C      2.799755    0.078200    1.906514
  C      3.542870   -0.417045    0.829673
  C      2.916518   -0.671134   -0.396473
  C      1.548790   -0.432535   -0.547230
  S     -0.870538    2.010526   -1.100744
  C     -2.641342    2.514833   -1.109083
  H     -1.318379   -2.818335    0.809638
  H     -2.795397   -1.874485    1.209944
  H     -2.839330   -3.110798   -0.090203
  H      0.841364    0.708581    2.590005
  H      3.284142    0.272970    2.861799
  H      4.608298   -0.609086    0.945871
  H      3.492146   -1.060760   -1.234294
  H      1.057169   -0.646771   -1.493154
  H     -2.967660    2.717712   -0.084639
  H     -2.688806    3.430190   -1.707783
  H     -3.261110    1.736496   -1.562191
