28
  Isotropic shielding for P: 277.319 ppm
  C     -1.785344    2.095251    1.123768
  C     -2.057154    2.186321   -0.382089
  O     -1.679974    0.891743   -0.915758
  P     -0.700636   -0.014502    0.068170
  O     -0.627809    1.266687    1.208289
  O     -0.802166   -1.295779   -1.069146
  C     -1.891373   -2.165287   -0.765554
  C     -1.861996   -2.262135    0.763978
  O     -1.437515   -0.952169    1.219642
  C      1.114735    0.020077   -0.108750
  C      1.702354   -0.021819   -1.383441
  C      3.092905    0.021228   -1.516673
  C      3.908046    0.075930   -0.380805
  C      3.325776    0.102478    0.891192
  C      1.935114    0.089834    1.028813
  H     -1.557285    3.070407    1.570432
  H     -2.636078    1.640759    1.659573
  H     -3.112117    2.354542   -0.627779
  H     -1.435389    2.955143   -0.861339
  H     -1.719927   -3.132489   -1.252830
  H     -2.845214   -1.741639   -1.123120
  H     -1.130186   -3.005196    1.109881
  H     -2.841891   -2.469383    1.209420
  H      1.072306   -0.091234   -2.265939
  H      3.539599    0.002069   -2.509625
  H      4.991677    0.097872   -0.486382
  H      3.954588    0.143343    1.779349
  H      1.484953    0.137951    2.016521
