52
  Isotropic shielding for P: 294.814 ppm
  O      0.139919    3.159390   -0.757988
  C     -0.898623    2.280238   -0.390566
  P     -0.198453    0.444082   -0.129618
  O     -1.574991    0.070008    0.735651
  C     -1.962997   -1.329069    0.675617
  C     -1.528470   -1.759643   -0.786191
  O     -0.436887   -0.828444   -1.131385
  C     -2.611954   -1.584885   -1.855629
  C     -0.936071   -3.170083   -0.877182
  C     -3.474115   -1.385055    0.917967
  C     -1.232517   -2.093154    1.795452
  O      1.158159    0.884932   -1.111104
  C      2.427376    0.403085   -0.581200
  C      2.218615    0.501047    0.975346
  O      0.782786    0.210826    1.154011
  C      2.978901   -0.551966    1.784092
  C      2.469190    1.900106    1.552536
  C      2.658937   -1.033666   -1.081230
  C      3.528039    1.321043   -1.120031
  C     -1.503461    2.894558    0.925515
  F     -1.594829    4.248171    0.802623
  F     -2.741750    2.447043    1.240285
  F     -0.682694    2.646976    1.985835
  C     -1.953076    2.301910   -1.548178
  F     -2.328692    3.570985   -1.848142
  F     -1.399231    1.762305   -2.675290
  F     -3.090412    1.600444   -1.280484
  H      0.827690    2.562339   -1.147227
  H     -2.154810   -1.718247   -2.842989
  H     -3.399385   -2.338922   -1.738004
  H     -3.066773   -0.594523   -1.822135
  H     -1.688341   -3.917070   -0.594061
  H     -0.066377   -3.291130   -0.225806
  H     -0.626242   -3.373458   -1.908633
  H     -3.844021   -2.412139    0.805800
  H     -3.689236   -1.053664    1.940142
  H     -4.016877   -0.734798    0.227519
  H     -0.147568   -2.079152    1.665319
  H     -1.571938   -3.134549    1.849192
  H     -1.458758   -1.606067    2.750487
  H      4.060445   -0.432989    1.641529
  H      2.761505   -0.426683    2.850991
  H      2.699327   -1.568465    1.493095
  H      2.101155    1.927364    2.583894
  H      1.944910    2.676550    0.988752
  H      3.541088    2.130492    1.563242
  H      2.561215   -1.044459   -2.172236
  H      1.926233   -1.734358   -0.674240
  H      3.665064   -1.381363   -0.818118
  H      3.607029    1.201233   -2.206818
  H      3.323948    2.373767   -0.902450
  H      4.497915    1.059104   -0.678361
