57
  Isotropic shielding for P: 323.102 ppm
  C     -3.138014    1.880680   -3.391746
  C     -2.318825    0.847914   -3.863141
  C     -1.459732    0.177417   -2.989811
  C     -1.390621    0.519311   -1.626768
  C     -2.223539    1.551715   -1.168310
  C     -3.086388    2.228393   -2.040021
  P     -0.378169   -0.598066   -0.422517
  C      0.826153   -1.876224    0.401086
  C      2.236166   -1.412927    0.055613
  N      2.113203   -1.149667   -1.401983
  O      0.870791   -0.317426   -1.554885
  C      3.196822   -0.309321   -1.927135
  C      3.336769    1.044728   -1.219085
  C      3.314267    0.899668    0.287224
  C      2.763007   -0.244526    0.891850
  C      2.735302   -0.331129    2.292075
  C      3.222284    0.702052    3.090542
  C      3.766688    1.842557    2.489858
  C      3.813176    1.929747    1.099486
  C     -1.822571   -1.787177   -0.374371
  C     -3.049755   -1.448058    0.217947
  C     -4.135831   -2.324629    0.157416
  C     -4.025688   -3.538175   -0.531146
  C     -2.818247   -3.871025   -1.151655
  C     -1.722508   -3.006231   -1.063489
  C     -0.416876    0.512111    1.049520
  C     -0.906199    0.090822    2.294012
  C     -0.803620    0.920873    3.413726
  C     -0.191814    2.173396    3.304282
  C      0.306656    2.595406    2.068192
  C      0.185145    1.773427    0.946807
  H     -3.808634    2.405506   -4.070569
  H     -2.350013    0.563531   -4.914541
  H     -0.831656   -0.622869   -3.374363
  H     -2.211679    1.842046   -0.121601
  H     -3.716831    3.030210   -1.656669
  H      0.666876   -2.870145   -0.026540
  H      0.618703   -1.928501    1.471616
  H      2.955301   -2.245231    0.136512
  H      4.108605   -0.911147   -1.791976
  H      3.037172   -0.180302   -3.004261
  H      4.267834    1.534879   -1.537135
  H      2.513094    1.699266   -1.539736
  H      2.315455   -1.217277    2.765402
  H      3.175163    0.620748    4.175062
  H      4.152126    2.656083    3.102420
  H      4.238594    2.815111    0.625688
  H     -3.166397   -0.492157    0.721832
  H     -5.074817   -2.053046    0.637957
  H     -4.876664   -4.214832   -0.588853
  H     -2.724964   -4.806149   -1.702043
  H     -0.790472   -3.282036   -1.553897
  H     -1.366198   -0.889559    2.396841
  H     -1.195220    0.584936    4.372817
  H     -0.098125    2.814384    4.179350
  H      0.796729    3.562626    1.977182
  H      0.567683    2.108286   -0.013868
