45
  Isotropic shielding for P: 203.880 ppm
  C     -3.370120    1.596440    0.264519
  C     -2.166880    1.228808    1.142218
  N     -0.930794    0.963634    0.372957
  P     -0.065962   -0.440851    0.569820
  C      1.491495   -0.409941   -0.039740
  C      2.592782    0.448247    0.355136
  C      3.841700    0.328646   -0.304459
  C      4.919400    1.149950    0.020699
  C      4.797397    2.123497    1.021354
  C      3.576846    2.249968    1.694701
  C      2.494025    1.431033    1.372231
  N     -0.987792   -1.713631    0.029689
  C     -1.729207   -1.616435   -1.245356
  C     -0.909040   -2.023582   -2.478105
  C     -0.806075   -3.071710    0.591858
  C     -2.049418   -3.571264    1.337463
  Cl    -0.178408   -0.718175    2.771909
  C     -0.365773    2.098112   -0.403381
  C     -0.571073    1.973650   -1.916276
  H     -3.619894    0.785316   -0.429941
  H     -4.244782    1.779346    0.902712
  H     -3.191923    2.506900   -0.320412
  H     -2.397384    0.334653    1.727254
  H     -1.967992    2.035345    1.866556
  H      1.718825   -1.289749   -0.638998
  H      3.952716   -0.422785   -1.086299
  H      5.863868    1.029425   -0.509198
  H      5.639957    2.763097    1.277091
  H      3.467853    2.988908    2.488034
  H      1.571541    1.528330    1.941258
  H     -2.627770   -2.243490   -1.159027
  H     -2.072893   -0.584165   -1.356522
  H     -0.558129   -3.061026   -2.409880
  H     -1.523555   -1.937572   -3.384500
  H     -0.034691   -1.371986   -2.591640
  H      0.051023   -3.051990    1.272142
  H     -0.542131   -3.760227   -0.224582
  H     -2.262009   -2.922529    2.194523
  H     -1.883743   -4.592537    1.706409
  H     -2.932877   -3.591729    0.686183
  H      0.700697    2.205358   -0.184039
  H     -0.852772    3.005855   -0.023229
  H     -0.048030    1.089377   -2.297291
  H     -1.632896    1.896006   -2.180348
  H     -0.155811    2.855374   -2.423392
