26
  Isotropic shielding for P: 196.600 ppm
  C      3.027592    1.628146   -1.287277
  O      2.623683    0.433906   -0.565061
  P      2.135901    0.564852    0.980412
  S      3.226020    1.587678    2.179736
  O      0.610222    1.125949    0.866730
  C     -0.376836    0.317195    0.143085
  C     -1.747347    0.997254    0.283866
  C     -2.883800   -0.058546    0.292365
  C     -2.502071   -1.284631   -0.537177
  O     -1.309026   -1.944654   -0.031894
  C     -0.405364   -1.110325    0.711563
  C      0.967270   -1.780051    0.617897
  O      1.963217   -0.996071    1.348290
  H      2.181475    2.319671   -1.391985
  H      3.849085    2.126591   -0.760011
  H      3.357312    1.286824   -2.272500
  H     -0.068385    0.263510   -0.911566
  H     -1.750376    1.566779    1.220934
  H     -1.886384    1.715457   -0.533913
  H     -3.099052   -0.379320    1.320631
  H     -3.811983    0.373146   -0.104075
  H     -3.291794   -2.045553   -0.514979
  H     -2.334276   -0.999606   -1.590231
  H     -0.703400   -1.058163    1.774137
  H      1.272607   -1.885145   -0.430899
  H      0.955815   -2.765095    1.093421
