17
  Isotropic shielding for P: 272.144 ppm
  Cl     4.863778   -0.703539   -0.961134
  P      3.973082   -0.115231    0.800376
  O      4.353223   -0.929453    1.971437
  C      2.291997   -0.048560    0.413353
  C      1.088798   -0.034728    0.208556
  C     -0.309148   -0.019840   -0.031331
  C     -1.176079   -0.799412    0.767469
  C     -2.548967   -0.780455    0.527189
  C     -3.074282    0.009154   -0.503486
  C     -2.220940    0.784342   -1.298816
  C     -0.846029    0.774390   -1.069751
  Cl     4.528464    1.863837    0.934025
  H     -0.759277   -1.409206    1.565544
  H     -3.211977   -1.383043    1.144999
  H     -4.147139    0.020425   -0.686613
  H     -2.629213    1.398157   -2.099418
  H     -0.176093    1.373165   -1.682301
