20
  Isotropic shielding for P: 306.289 ppm
  C      3.555354   -0.333842   -0.360234
  C      2.046116   -0.082149   -0.510693
  P      1.232059    0.303532    1.146964
  C     -0.545684    0.223260    0.658709
  C     -1.182959    1.416702    0.273392
  C     -2.523881    1.417857   -0.121983
  C     -3.257032    0.226207   -0.116703
  C     -2.639773   -0.965712    0.278929
  C     -1.293507   -0.967787    0.657075
  H      4.059793    0.523294    0.105234
  H      4.022497   -0.509276   -1.338766
  H      3.751629   -1.215439    0.264990
  H      1.864125    0.791816   -1.151497
  H      1.546915   -0.938964   -0.981558
  H      1.319537   -1.021470    1.675982
  H     -0.625291    2.353139    0.290358
  H     -2.999326    2.350436   -0.422507
  H     -4.304504    0.227102   -0.413777
  H     -3.206041   -1.896088    0.289473
  H     -0.819830   -1.902620    0.953613
