55
  Isotropic shielding for P: 209.249 ppm
  C      0.850412   -1.311129   -2.499241
  C      1.923635   -0.546840   -1.704560
  N      1.469713   -0.072967   -0.348342
  P      0.028069    0.852112   -0.286506
  C     -0.373460    1.846320   -1.566481
  N     -1.272469   -0.203585    0.021747
  C     -2.643319    0.263091   -0.367864
  C     -3.728480    0.055942    0.703556
  C     -3.117775   -0.287470   -1.730468
  C     -1.063654   -1.539582    0.634339
  C     -1.717493   -2.702488   -0.138633
  C     -1.454772   -1.625460    2.130919
  N      0.347506    1.799068    1.098101
  C     -0.805233    2.322234    1.835639
  C      1.411598    2.801528    0.960480
  C      2.339475   -0.641307    0.741268
  C      1.899487   -0.421526    2.196249
  C      3.800481   -0.153694    0.607545
  C      2.574099    0.563677   -2.551126
  H      0.475513   -2.164913   -1.925440
  H      0.004903   -0.672987   -2.769637
  H      1.291740   -1.697153   -3.428347
  H      2.704317   -1.286463   -1.486599
  H     -0.796781    1.465831   -2.489442
  H      0.147607    2.798423   -1.630471
  H     -2.519152    1.341457   -0.507743
  H     -4.636398    0.584839    0.384378
  H     -3.999823   -0.997577    0.838649
  H     -3.431376    0.462790    1.676351
  H     -3.972555    0.305922   -2.083463
  H     -3.439453   -1.332950   -1.675850
  H     -2.324588   -0.209479   -2.479845
  H      0.015219   -1.701737    0.571739
  H     -2.808677   -2.699696   -0.042061
  H     -1.466380   -2.673240   -1.202498
  H     -1.355655   -3.653940    0.274206
  H     -0.960316   -2.490957    2.592946
  H     -2.533126   -1.751646    2.267684
  H     -1.148413   -0.728357    2.678137
  H     -1.283292    3.179514    1.328481
  H     -1.553356    1.538067    1.971147
  H     -0.471637    2.650860    2.830850
  H      1.806544    3.063825    1.954101
  H      2.228089    2.400963    0.354917
  H      1.047577    3.729517    0.483168
  H      2.344820   -1.735468    0.578450
  H      2.054832    0.609657    2.522003
  H      2.517370   -1.076215    2.826406
  H      0.856643   -0.673670    2.375216
  H      4.423314   -0.649136    1.364494
  H      4.234867   -0.375150   -0.372007
  H      3.863146    0.928612    0.774098
  H      1.823967    1.293148   -2.868604
  H      3.047688    0.126947   -3.442164
  H      3.345105    1.092640   -1.979565
