46
  Isotropic shielding for P: 254.258 ppm
  C      0.137030    4.071437    0.485425
  C      0.392972    2.919589   -0.500713
  N     -0.433062    1.758569   -0.203255
  P      0.073280    0.318480    0.113776
  N      0.613893   -0.109570    1.698720
  C     -0.047235    0.586709    2.818844
  C      1.373019    0.891293    2.481237
  N      1.400403   -0.209016   -0.785151
  C      1.373227    0.090503   -2.233036
  C      0.513233   -0.869118   -3.073963
  C      2.583532   -0.928519   -0.283380
  C      2.772172   -2.342880   -0.856010
  N     -1.245042   -0.697507   -0.059655
  C     -1.104572   -2.136219    0.186737
  C     -1.825070   -2.641970    1.446216
  C     -2.542590   -0.207245   -0.559748
  C     -3.429368    0.444362    0.511575
  H      0.708124    4.968133    0.202875
  H     -0.930471    4.326559    0.498786
  H      0.424469    3.787417    1.507239
  H      0.152912    3.285302   -1.516359
  H      1.477547    2.694349   -0.510792
  H     -0.791581    1.343581    2.567409
  H     -0.280164   -0.042465    3.677282
  H      2.181693    0.483279    3.087754
  H      1.581545    1.855136    2.016481
  H      2.413674    0.076615   -2.588087
  H      1.005486    1.113325   -2.378023
  H      0.845876   -1.908581   -2.973711
  H      0.570051   -0.590994   -4.135937
  H     -0.536973   -0.816901   -2.765892
  H      2.502258   -0.990504    0.803386
  H      3.481069   -0.326973   -0.510820
  H      2.919744   -2.328883   -1.942759
  H      3.660580   -2.808710   -0.407020
  H      1.904882   -2.978231   -0.637154
  H     -0.037349   -2.366585    0.269015
  H     -1.475108   -2.683116   -0.697377
  H     -1.655592   -3.720881    1.571833
  H     -1.447754   -2.125925    2.336638
  H     -2.907838   -2.478624    1.383353
  H     -3.058013   -1.070750   -1.006840
  H     -2.360242    0.521178   -1.358423
  H     -3.628795   -0.242223    1.343274
  H     -4.392509    0.746315    0.075197
  H     -2.933242    1.339958    0.901054
