18
  Isotropic shielding for P: 221.059 ppm
  C      3.037937    0.365444    0.516269
  C      1.773025   -0.453805    0.315839
  O      1.051506    0.050181   -0.859663
  P     -0.430429    0.663356   -0.840465
  O     -0.788160    1.346685   -2.099257
  C     -1.561336   -0.670588   -0.319816
  C     -3.025115   -0.210342   -0.211213
  Cl    -0.423786    1.947935    0.826879
  H      2.790319    1.408713    0.742454
  H      3.662157    0.338808   -0.384637
  H      3.616835   -0.046252    1.354270
  H      1.125509   -0.404178    1.199692
  H      1.996321   -1.505736    0.099900
  H     -1.445463   -1.444514   -1.092967
  H     -1.197446   -1.090111    0.627280
  H     -3.368524    0.218398   -1.158949
  H     -3.143561    0.548236    0.570848
  H     -3.669489   -1.062229    0.038739
