28
  Isotropic shielding for P: 333.130 ppm
  C     -3.846831   -0.975797    0.000137
  C     -3.254893   -0.724321    1.242507
  C     -2.034329   -0.046193    1.313578
  C     -1.406711    0.386280    0.135472
  C     -2.001341    0.133504   -1.111707
  C     -3.219674   -0.545926   -1.175860
  P      0.189665    1.238729    0.209576
  N      0.243680    2.276521   -1.049856
  S      0.419520    3.887753   -0.803886
  N      0.577893    4.349778    0.736051
  S      0.565456    3.389207    2.035079
  N      0.372036    1.788799    1.735783
  C      1.477018   -0.002394   -0.070132
  C      1.917327   -0.798528    0.999842
  C      2.889724   -1.777174    0.783319
  C      3.423245   -1.965583   -0.497671
  C      2.984909   -1.172392   -1.563470
  C      2.010633   -0.191880   -1.353935
  H     -4.798815   -1.501533   -0.052690
  H     -3.745706   -1.051071    2.157687
  H     -1.572826    0.168365    2.274248
  H     -1.519884    0.487834   -2.020129
  H     -3.684039   -0.733796   -2.142412
  H      1.513826   -0.633648    1.996143
  H      3.237140   -2.388115    1.614699
  H      4.184129   -2.726630   -0.662947
  H      3.405182   -1.312696   -2.557896
  H      1.673766    0.440906   -2.171231
