44
  Isotropic shielding for P: 216.056 ppm
  C      0.163628    0.307978   -3.101575
  O      0.011056    0.876806   -1.768926
  P     -0.040190    0.055748   -0.375037
  C      1.451079    0.192255    0.498079
  C      1.418463    0.666048    1.819065
  C      0.284983    1.034015    2.557490
  C     -0.992215    0.954471    1.989731
  C     -1.315883    0.535352    0.688037
  C     -2.722710    0.383174    0.249651
  C     -3.691438   -0.128485    1.139971
  C     -5.021409   -0.290024    0.747097
  C     -5.419731    0.039841   -0.553386
  C     -4.470770    0.541556   -1.450935
  C     -3.142797    0.715957   -1.055861
  C      0.451190    1.562976    3.970622
  C      2.731206   -0.066055   -0.201823
  C      2.887247   -1.123833   -1.124060
  C      4.101916   -1.336767   -1.781002
  C      5.199477   -0.506905   -1.530896
  C      5.063097    0.546540   -0.619105
  C      3.846786    0.768254    0.027950
  O     -0.334047   -1.424250   -1.020549
  C     -0.548417   -2.521660   -0.096114
  H      0.107471    1.155759   -3.790805
  H      1.137556   -0.184342   -3.193010
  H     -0.639388   -0.406009   -3.309952
  H      2.386328    0.745831    2.318555
  H     -1.836316    1.255467    2.613846
  H     -3.388511   -0.420654    2.143820
  H     -5.746979   -0.687908    1.455478
  H     -6.455223   -0.091643   -0.862346
  H     -4.768912    0.812860   -2.462913
  H     -2.426146    1.141787   -1.752465
  H      0.696152    2.636562    3.980807
  H      1.258157    1.041639    4.502511
  H     -0.469591    1.434925    4.553781
  H      2.055276   -1.795125   -1.318014
  H      4.193176   -2.164600   -2.483178
  H      6.146314   -0.675873   -2.040633
  H      5.904335    1.210272   -0.423670
  H      3.744692    1.615293    0.703088
  H     -0.662926   -3.418190   -0.712305
  H      0.312043   -2.635486    0.576220
  H     -1.458032   -2.353656    0.492658
