41
  Isotropic shielding for P: 185.709 ppm
  C     -0.397228   -0.568990   -2.404207
  N      0.422088   -1.033652   -1.265403
  P     -0.313473   -1.075346    0.253319
  S     -1.740790   -2.318207    0.693533
  N     -0.772138    0.558582    0.376147
  N     -1.683498    0.980925    1.372498
  C     -3.053701    1.051365    1.009940
  C     -3.457438    1.320169   -0.305187
  C     -4.815499    1.460887   -0.601564
  C     -5.784150    1.340704    0.400268
  C     -5.376644    1.072560    1.712878
  C     -4.023564    0.925504    2.018184
  N      1.020560   -1.328827    1.306509
  N      1.888914   -0.250505    1.633078
  C      3.027307   -0.054177    0.817220
  C      3.816579   -1.138557    0.400707
  C      4.971215   -0.912521   -0.348937
  C      5.368742    0.389402   -0.680014
  C      4.591015    1.469981   -0.250508
  C      3.423248    1.252236    0.484580
  C      1.239736   -2.206530   -1.637745
  H      0.276735   -0.303130   -3.228745
  H     -1.090812   -1.351542   -2.753308
  H     -0.977028    0.311707   -2.123549
  H     -0.096830    1.274145    0.115612
  H     -1.548365    0.480499    2.251048
  H     -2.710628    1.411174   -1.087941
  H     -5.117001    1.663671   -1.628286
  H     -6.840386    1.448577    0.162539
  H     -6.117413    0.964609    2.503684
  H     -3.714090    0.699882    3.038887
  H      0.776281   -1.891734    2.118671
  H      1.378312    0.617839    1.804717
  H      3.521873   -2.147587    0.676312
  H      5.573686   -1.761924   -0.667764
  H      6.273352    0.558315   -1.260411
  H      4.884682    2.488503   -0.499708
  H      2.813829    2.098311    0.805192
  H      1.776534   -2.582492   -0.767048
  H      1.971786   -1.898941   -2.394972
  H      0.614403   -3.015084   -2.050328
