15
  Isotropic shielding for P: 137.756 ppm
  C     -2.096833   -0.887633   -0.173151
  O     -0.660990   -0.993279    0.002910
  P      0.221011    0.317622    0.452657
  Se    -0.612072    1.557877    1.943429
  C      1.772019   -0.536236    0.893052
  C      0.574478    1.183709   -1.125053
  H     -2.333055   -0.384692   -1.121028
  H     -2.543797   -0.334770    0.662211
  H     -2.474958   -1.913790   -0.196937
  H      2.551422    0.211274    1.075806
  H      1.604329   -1.108927    1.810737
  H      2.079547   -1.210822    0.084421
  H     -0.352272    1.630586   -1.500614
  H      1.295198    1.988223   -0.942068
  H      0.975874    0.480957   -1.866373
