47
  Isotropic shielding for P: 220.747 ppm
  C      3.262865    2.082496    1.500195
  Si     3.129407    0.383495    0.688245
  N      1.517758    0.147211    0.116454
  P      0.348252   -0.846186    0.320420
  N     -1.059295   -0.243255   -0.334992
  Si    -2.660376   -1.049430   -0.236933
  Si    -2.687632   -3.359488    0.270768
  C     -3.485697   -1.025801   -1.939010
  C     -3.718942   -0.178247    1.057542
  Si    -0.907858    1.540003   -0.701658
  Si     0.857813    1.886214   -2.213328
  C     -0.758357    2.502841    0.909558
  C     -2.475462    2.142445   -1.575205
  I     -0.133488   -1.263299    2.810974
  C      0.668318   -2.533733   -0.290252
  Si     3.834525   -1.259244    2.249622
  C      4.315967    0.276676   -0.779729
  H      4.287396    2.277892    1.845809
  H      2.987772    2.872323    0.788226
  H      2.595031    2.157125    2.367994
  H     -4.140791   -3.662012    0.449531
  H     -2.211675   -4.154794   -0.900602
  H     -1.958417   -3.822180    1.479945
  H     -4.292704   -1.771358   -1.962435
  H     -3.925771   -0.056482   -2.191663
  H     -2.765659   -1.293502   -2.722985
  H     -3.861131    0.885067    0.830750
  H     -3.256042   -0.255910    2.048517
  H     -4.711821   -0.645668    1.106908
  H      2.028511    2.566395   -1.597978
  H      1.292375    0.618136   -2.862670
  H      0.379336    2.785314   -3.316382
  H      0.155550    2.248612    1.453283
  H     -1.616989    2.291717    1.560915
  H     -0.748643    3.582166    0.703196
  H     -2.335469    3.222589   -1.729099
  H     -2.607883    1.693291   -2.565371
  H     -3.400809    2.012924   -1.003042
  H     -0.097513   -3.256428   -0.005195
  H      1.626006   -2.846835    0.138398
  H      0.749368   -2.478971   -1.382689
  H      3.371244   -2.628973    1.867342
  H      3.393834   -1.005087    3.650610
  H      5.331399   -1.301157    2.255697
  H      4.075597    1.038401   -1.532460
  H      5.353518    0.431070   -0.453939
  H      4.256787   -0.706360   -1.265082
