41
  Isotropic shielding for P: 242.020 ppm
  C      0.046099    0.058322    2.094527
  C      0.714266   -0.796277    1.003799
  P     -0.262142   -0.953465   -0.587279
  O      0.368826   -1.932822   -1.533571
  C     -0.326070    0.742003   -1.248667
  C      0.534793    1.033990   -2.317825
  C      0.615699    2.335642   -2.819008
  C     -0.162348    3.353188   -2.256509
  C     -1.028144    3.066540   -1.194299
  C     -1.109652    1.765539   -0.690779
  C     -1.968840   -1.404649   -0.119121
  C     -2.187514   -2.363570    0.885027
  C     -3.479452   -2.809342    1.172611
  C     -4.570055   -2.306598    0.453890
  C     -4.361171   -1.363360   -0.557475
  C     -3.068104   -0.916428   -0.844199
  C      2.112064   -0.355315    0.606741
  C      2.487387    0.997461    0.598822
  C      3.758679    1.383638    0.164325
  C      4.674385    0.423653   -0.276643
  C      4.307816   -0.926845   -0.280006
  C      3.038013   -1.310460    0.155622
  H     -0.093811    1.096770    1.777889
  H      0.673832    0.067767    2.995102
  H     -0.937081   -0.341811    2.363850
  H      0.778446   -1.836766    1.355365
  H      1.133568    0.231508   -2.743038
  H      1.287164    2.556004   -3.647179
  H     -0.099515    4.367518   -2.647635
  H     -1.641304    3.855200   -0.760990
  H     -1.792092    1.547367    0.127376
  H     -1.346752   -2.774512    1.440589
  H     -3.635261   -3.550991    1.954307
  H     -5.577409   -2.654003    0.677275
  H     -5.204927   -0.977174   -1.127120
  H     -2.914233   -0.190109   -1.638937
  H      1.783939    1.761234    0.920016
  H      4.030451    2.438140    0.166041
  H      5.664244    0.724487   -0.616032
  H      5.009839   -1.682994   -0.627980
  H      2.746471   -2.358183    0.123318
