35
  Isotropic shielding for P: 265.689 ppm
  Cl     2.578285    5.203377   -1.330707
  C      1.423611    4.125152   -0.635662
  C      0.167255    3.938753   -1.089335
  C     -0.789736    3.007229   -0.471528
  C     -2.117650    3.031282   -0.699834
  P     -0.124400    1.791628    0.706610
  O      0.525402    2.380592    1.898576
  O     -1.357650    0.814317    1.104168
  C     -1.594876   -0.449102    0.524746
  C     -1.986195   -0.571000   -0.807883
  C     -2.196167   -1.850643   -1.333095
  C     -2.018802   -2.983650   -0.533103
  C     -1.637462   -2.837427    0.805571
  C     -1.424798   -1.566042    1.342185
  O      0.816431    0.907040   -0.279517
  C      1.432555   -0.297372    0.119833
  C      1.453690   -1.322395   -0.825810
  C      2.029785   -2.547050   -0.484315
  C      2.579342   -2.739336    0.788807
  C      2.562199   -1.693002    1.716301
  C      1.992733   -0.457329    1.389260
  Cl    -0.406857    4.852266   -2.477446
  H      1.780970    3.609043    0.249832
  H     -2.558227    3.762444   -1.372610
  H     -2.786155    2.335494   -0.203635
  H     -2.100457    0.312001   -1.429982
  H     -2.495151   -1.957655   -2.374314
  H     -2.178356   -3.976039   -0.949924
  H     -1.493609   -3.714700    1.433065
  H     -1.107700   -1.427630    2.372411
  H      1.000759   -1.158532   -1.799551
  H      2.040310   -3.355176   -1.213266
  H      3.023144   -3.697069    1.053347
  H      2.997209   -1.831562    2.704550
  H      1.970370    0.361893    2.102252
