112
  Isotropic shielding for P: 326.221 ppm
  C     -0.412736    2.555549    5.689343
  C      0.092814    1.181133    5.216429
  C      0.897663    1.226072    3.904231
  C      0.064311    1.677851    2.705684
  O      0.777714    1.357014    1.490397
  C      0.829852    2.269378    0.465438
  C      1.087340    3.627882    0.705232
  C      1.245528    4.489513   -0.377950
  C      1.161733    4.018045   -1.689830
  C      0.912406    2.654675   -1.916382
  C      0.728196    1.759479   -0.840302
  P      0.252074    0.013828   -1.237338
  C      1.636021   -1.073540   -0.676659
  C      2.946234   -0.667030   -0.348302
  O      3.198284    0.680977   -0.402801
  C      4.365515    1.235103    0.233626
  C      4.263365    1.216637    1.762045
  C      5.506475    1.802254    2.458412
  C      5.722035    3.304632    2.200341
  C      3.943507   -1.610301   -0.039717
  C      3.652709   -2.970909   -0.107235
  C      2.383005   -3.413802   -0.485299
  C      1.393940   -2.463956   -0.769457
  O      0.109583   -2.807302   -1.126557
  C     -0.170141   -4.172473   -1.495732
  C     -1.616516   -4.234331   -1.979565
  C     -2.666802   -4.013903   -0.873396
  C     -2.831936   -5.221576    0.063963
  C     -1.122446   -0.222398   -0.015449
  C     -2.322865    0.407882   -0.406190
  O     -2.194423    1.300746   -1.450709
  C     -3.231725    1.435887   -2.450416
  C     -2.888718    0.612593   -3.694027
  C     -2.927018   -0.912705   -3.490627
  C     -4.322180   -1.465617   -3.159660
  C     -3.529520    0.211346    0.278426
  C     -3.537006   -0.630909    1.389044
  C     -2.361277   -1.235892    1.839518
  C     -1.151011   -1.009368    1.159712
  O      0.051348   -1.485979    1.604005
  C      0.114954   -2.334210    2.763415
  C     -0.242156   -3.788795    2.444368
  C     -0.174605   -4.713634    3.674868
  C     -1.288682   -4.463565    4.707068
  O      0.850062    2.098324   -3.173342
  C      0.903044    2.952311   -4.332290
  C     -0.424685    3.664997   -4.609921
  C     -0.344250    4.588947   -5.836144
  C     -1.684258    5.270752   -6.155474
  H     -1.129034    2.992264    4.981191
  H     -0.916394    2.480119    6.661905
  H      0.421442    3.263408    5.798392
  H      0.723677    0.738103    6.000852
  H     -0.762844    0.499694    5.087992
  H      1.767576    1.890555    4.019883
  H      1.292869    0.227484    3.676880
  H     -0.164386    2.748709    2.744721
  H     -0.890837    1.130921    2.677051
  H      1.195823    3.997205    1.721930
  H      1.450939    5.544602   -0.202171
  H      1.294887    4.709930   -2.514370
  H      4.396194    2.262153   -0.144901
  H      5.278827    0.724515   -0.112775
  H      4.106304    0.182838    2.096904
  H      3.366484    1.777506    2.053714
  H      6.402589    1.242404    2.145500
  H      5.408436    1.635170    3.541220
  H      5.933282    3.514370    1.143859
  H      4.828463    3.880901    2.478670
  H      6.566872    3.689658    2.786463
  H      4.943558   -1.288520    0.232448
  H      4.428789   -3.698528    0.125388
  H      2.174934   -4.476564   -0.550981
  H     -0.009353   -4.832584   -0.629159
  H      0.524233   -4.482309   -2.292247
  H     -1.736967   -3.483456   -2.771229
  H     -1.771952   -5.218614   -2.449918
  H     -2.405333   -3.117988   -0.297048
  H     -3.635841   -3.799136   -1.342989
  H     -3.548234   -5.003218    0.867064
  H     -3.203048   -6.098892   -0.485302
  H     -1.885139   -5.508387    0.539323
  H     -4.209641    1.158266   -2.038722
  H     -3.258433    2.505228   -2.694610
  H     -3.595371    0.900322   -4.491252
  H     -1.884893    0.907966   -4.025615
  H     -2.560099   -1.386891   -4.413183
  H     -2.210295   -1.186269   -2.706092
  H     -4.320906   -2.562655   -3.160383
  H     -4.665978   -1.143954   -2.168434
  H     -5.066010   -1.136151   -3.900172
  H     -4.435191    0.727274   -0.027551
  H     -4.466266   -0.801939    1.930235
  H     -2.393280   -1.864011    2.723339
  H      1.162575   -2.268572    3.083089
  H     -0.507149   -1.921467    3.570722
  H     -1.247304   -3.831893    2.007435
  H      0.457169   -4.138798    1.674231
  H      0.809685   -4.610363    4.159131
  H     -0.234187   -5.756428    3.330905
  H     -1.227312   -5.179173    5.537281
  H     -1.231055   -3.455872    5.138740
  H     -2.280102   -4.571784    4.245186
  H      1.732595    3.670899   -4.243018
  H      1.146896    2.268933   -5.155353
  H     -1.202446    2.904674   -4.767710
  H     -0.726562    4.244213   -3.726466
  H     -0.010136    4.009429   -6.711403
  H      0.426518    5.357354   -5.666303
  H     -1.600589    5.931122   -7.028530
  H     -2.030051    5.877635   -5.307141
  H     -2.463856    4.526985   -6.371507
