23
  Isotropic shielding for P: 239.993 ppm
  C     -3.273332    1.075177   -0.557885
  C     -1.930708    0.321822   -0.486329
  P     -0.668334    1.457297    0.366625
  C      0.911049    0.579158    0.127791
  C      1.156539   -0.514518   -0.755751
  C      2.395343   -1.144459   -0.818453
  C      3.469438   -0.737203   -0.005968
  C      3.275530    0.337822    0.864078
  C      2.029408    0.974535    0.939355
  Li     0.328741    0.439569    2.222735
  C     -2.113689   -1.049709    0.189818
  H     -3.171025    2.025125   -1.097036
  H     -4.035005    0.468108   -1.068953
  H     -3.649770    1.302101    0.450302
  H     -1.580103    0.163596   -1.518290
  H      0.361761   -0.854425   -1.415127
  H      2.534132   -1.970116   -1.516756
  H      4.431854   -1.240542   -0.063319
  H      4.096562    0.696098    1.485003
  H      1.936978    1.875403    1.560697
  H     -2.504907   -0.920207    1.209757
  H     -2.830465   -1.677855   -0.364486
  H     -1.169896   -1.606977    0.252091
