42
  Isotropic shielding for P: 221.370 ppm
  Cl     0.318406   -2.870235    2.486869
  P     -0.109488   -3.319945    0.517046
  N     -1.430276   -2.524176    0.129710
  S     -1.523392   -1.613769   -1.195998
  O     -2.435984   -2.152232   -2.182844
  N     -0.095393   -1.227850   -1.800264
  S      1.302226   -1.829698   -1.317862
  N      1.187160   -3.130821   -0.407322
  O      2.184556   -2.046626   -2.447184
  N      1.921520   -0.652496   -0.268291
  C      2.121860    0.673678   -0.918764
  C      2.224792    1.756470    0.181145
  C      2.839923    1.188385    1.482836
  C      3.848723    0.082386    1.140029
  C      3.145021   -1.119161    0.469836
  N     -2.150240   -0.168032   -0.697200
  C     -1.435686    0.524744    0.395934
  C     -1.677294    2.042446    0.251395
  C     -3.091779    2.339503   -0.312956
  C     -4.065420    1.211172    0.062970
  C     -3.641759   -0.124873   -0.586381
  Cl    -0.447531   -5.322773    0.630738
  H      3.026915    0.653921   -1.545804
  H      1.272648    0.864406   -1.580386
  H      2.846393    2.575876   -0.205612
  H      1.235703    2.180714    0.389324
  H      3.320584    1.989768    2.058040
  H      2.047978    0.769623    2.119205
  H      4.367867   -0.276612    2.037586
  H      4.621377    0.489537    0.472362
  H      2.811471   -1.835491    1.224638
  H      3.836591   -1.636253   -0.212399
  H     -0.372118    0.284463    0.331640
  H     -1.788787    0.149362    1.369757
  H     -0.917847    2.476637   -0.410973
  H     -1.550649    2.508772    1.238418
  H     -3.456280    3.304831    0.060163
  H     -3.043030    2.419875   -1.407549
  H     -5.087113    1.443944   -0.262591
  H     -4.101451    1.105699    1.156623
  H     -4.043663   -0.209906   -1.600013
  H     -4.016631   -0.975365    0.003433
