48
  Isotropic shielding for P: 118.883 ppm
  C     -1.743192    2.546156    2.218777
  C     -1.535181    1.227911    1.484047
  O     -0.543233    1.432040    0.450806
  P      0.415861    0.131573   -0.016140
  N     -0.436768   -0.587241   -1.337349
  C     -0.922895    0.259226   -2.442492
  C      0.217066    1.094231   -3.051412
  C      0.944258    1.938793   -1.987592
  N      1.525410    1.128034   -0.895672
  C      2.787784    0.447293   -1.244277
  C      3.543450   -0.027279   -0.017614
  C      3.786307    0.852292    1.049116
  C      4.500285    0.427391    2.171091
  C      4.984645   -0.885306    2.242933
  C      4.747237   -1.767667    1.185130
  C      4.028634   -1.338189    0.063539
  C     -1.177420   -1.834891   -1.072816
  C     -2.480260   -1.668565   -0.305672
  C     -3.617724   -1.104093   -0.906083
  C     -4.785744   -0.892907   -0.167837
  C     -4.839714   -1.257144    1.183006
  C     -3.720224   -1.839119    1.786097
  C     -2.551552   -2.039429    1.045071
  H     -0.812749    2.875825    2.697743
  H     -2.514248    2.430214    2.992991
  H     -2.068882    3.329140    1.522024
  H     -1.196402    0.442202    2.177443
  H     -2.472446    0.883853    1.025073
  H     -1.734344    0.931056   -2.109820
  H     -1.347402   -0.399200   -3.214639
  H      0.931262    0.421254   -3.547447
  H     -0.199387    1.755896   -3.825344
  H      0.243707    2.652088   -1.536675
  H      1.756430    2.519007   -2.448748
  H      2.645325   -0.406032   -1.932851
  H      3.401137    1.185172   -1.785812
  H      3.390682    1.865070    0.998390
  H      4.680826    1.119382    2.992658
  H      5.539475   -1.217136    3.119160
  H      5.113524   -2.792094    1.235230
  H      3.833253   -2.031138   -0.754807
  H     -1.369766   -2.319235   -2.042535
  H     -0.515033   -2.499774   -0.503270
  H     -3.592527   -0.830217   -1.959508
  H     -5.657563   -0.450381   -0.647610
  H     -5.750336   -1.095512    1.757417
  H     -3.755794   -2.134590    2.833699
  H     -1.675775   -2.477857    1.522579
