38
  Isotropic shielding for P: 242.456 ppm
  C      0.592952   -2.509104   -2.048639
  C     -0.432570   -1.393874   -1.777824
  P     -0.204925   -0.636415   -0.122794
  C      1.428906    0.003837    0.086627
  C      1.734929    1.036493   -0.859717
  O      0.936814    1.421331   -1.739369
  C      3.098678    1.680433   -0.777662
  C      4.017437    1.287053    0.149834
  C      3.766394    0.231504    1.131712
  O      4.588512   -0.122677    1.963217
  C      2.348076   -0.465192    1.086939
  O      2.137464   -1.358244    1.915569
  Cl     5.589850    2.084530    0.172391
  O      3.313178    2.646807   -1.687394
  C     -1.439082    0.676041    0.089156
  C     -1.254238    1.583546    1.144449
  C     -2.196903    2.586099    1.378859
  C     -3.327711    2.690350    0.560946
  C     -3.513289    1.789389   -0.492415
  C     -2.573499    0.782351   -0.728456
  C     -0.598855   -1.916768    1.127577
  C     -2.014745   -2.499580    0.977053
  H      1.618048   -2.132194   -1.959868
  H      0.459772   -2.895935   -3.066047
  H      0.478771   -3.349406   -1.353079
  H     -0.330573   -0.576250   -2.498809
  H     -1.457690   -1.780237   -1.839885
  H      4.225178    2.988150   -1.544985
  H     -0.364248    1.515301    1.767511
  H     -2.044611    3.289746    2.195070
  H     -4.059069    3.476215    0.740701
  H     -4.387137    1.873422   -1.135845
  H     -2.724681    0.096672   -1.557851
  H      0.176436   -2.687383    1.067680
  H     -0.460366   -1.442432    2.105380
  H     -2.784295   -1.719137    1.010706
  H     -2.133527   -3.056508    0.039534
  H     -2.209184   -3.198031    1.799829
