35
  Isotropic shielding for P: 145.209 ppm
  C      1.777955   -1.332954    1.869534
  C      1.621974   -0.043889    1.050812
  N      1.132722   -0.304259   -0.319270
  P      0.004144    0.925837   -0.895434
  N     -1.359583    0.531483    0.066028
  C     -1.940987   -0.816175    0.109394
  C     -2.321251   -1.292439    1.519832
  C     -2.202327    1.650186    0.526737
  C     -1.878597    2.128378    1.951602
  C     -0.395700    0.171213   -2.560979
  C      2.173039   -0.797410   -1.241543
  C      3.192182    0.252996   -1.731102
  H      0.819780   -1.860995    1.944995
  H      2.506527   -2.018252    1.417737
  H      2.128887   -1.099503    2.884430
  H      2.577556    0.511403    1.045800
  H      0.891177    0.604394    1.549068
  H     -2.834198   -0.872546   -0.541777
  H     -1.190940   -1.502141   -0.301061
  H     -2.697441   -2.324064    1.476606
  H     -1.452339   -1.269576    2.188943
  H     -3.110122   -0.672090    1.962901
  H     -2.084944    2.497883   -0.163555
  H     -3.257206    1.341986    0.458986
  H     -0.845140    2.494829    2.000187
  H     -2.545934    2.952049    2.244214
  H     -1.986919    1.319430    2.682948
  H     -1.302290    0.676103   -2.918235
  H      0.404450    0.372379   -3.283544
  H     -0.582977   -0.909346   -2.520743
  H      1.683691   -1.261771   -2.105118
  H      2.710116   -1.609466   -0.731283
  H      2.700840    1.045459   -2.310154
  H      3.948612   -0.218154   -2.373970
  H      3.715045    0.728821   -0.892285
