31
  Isotropic shielding for P: 197.827 ppm
  C      0.811699    3.221906   -0.844845
  C     -0.307272    2.251528   -0.441677
  P      0.241526    0.923469    0.724070
  Se     1.096542    1.674756    2.523947
  C      1.363721   -0.162839   -0.238621
  C      1.322636   -0.230850   -1.640967
  C      2.178276   -1.095865   -2.331089
  C      3.074941   -1.904354   -1.626235
  C      3.119833   -1.839604   -0.228614
  C      2.274369   -0.969004    0.461679
  C     -1.281242   -0.077881    0.964895
  C     -1.769506   -0.905409   -0.059964
  C     -2.953817   -1.624290    0.122876
  C     -3.657820   -1.521919    1.328169
  C     -3.170894   -0.702515    2.352025
  C     -1.984478    0.015283    2.173670
  H      1.268199    3.670313    0.044970
  H      1.601992    2.714328   -1.410857
  H      0.407147    4.026961   -1.471829
  H     -1.105255    2.775755    0.100559
  H     -0.775984    1.775297   -1.314082
  H      0.633829    0.391488   -2.206731
  H      2.145111   -1.133724   -3.418727
  H      3.741361   -2.576742   -2.163937
  H      3.821413   -2.461773    0.324541
  H      2.324048   -0.890990    1.546119
  H     -1.221552   -1.006227   -0.994186
  H     -3.322949   -2.268779   -0.673361
  H     -4.578734   -2.085187    1.470293
  H     -3.711323   -0.625767    3.294117
  H     -1.585718    0.642737    2.969090
