21
  Isotropic shielding for P: 272.720 ppm
  C      3.656910   -0.496909    0.250400
  C      2.191144   -0.157245    0.256246
  C      1.597945    0.471756   -0.759110
  O      0.243921    0.834758   -0.853141
  P     -0.941570    0.193745    0.037016
  O     -0.747157    0.171420    1.504941
  O     -1.144597   -1.221110   -0.681725
  C     -1.952159   -2.238246   -0.021627
  O     -2.203231    1.032067   -0.487188
  C     -2.473966    2.336986    0.102555
  H      3.812027   -1.582813    0.336252
  H      4.172264   -0.035002    1.105612
  H      4.151001   -0.156657   -0.668813
  H      1.605983   -0.431672    1.133407
  H      2.120568    0.799595   -1.655581
  H     -3.015477   -1.981138   -0.102294
  H     -1.752638   -3.172068   -0.553848
  H     -1.664856   -2.328739    1.031662
  H     -1.744393    3.070000   -0.263184
  H     -2.433172    2.276629    1.195777
  H     -3.478547    2.614544   -0.227556
