15
  Isotropic shielding for P: 161.988 ppm
  F     -3.486436    0.267460   -0.474494
  C     -2.140370    0.165707   -0.292326
  C     -1.443774   -0.823776   -0.982669
  C     -0.065783   -0.926972   -0.790651
  C      0.591595   -0.049371    0.086763
  C     -0.134400    0.942321    0.765853
  C     -1.512820    1.052802    0.579353
  P      2.401477   -0.086952    0.205973
  S      3.377543    0.973731   -1.064343
  Cl     2.772088    0.367407    2.210622
  Cl     2.849990   -2.126866    0.186601
  H     -1.975209   -1.496017   -1.651597
  H      0.492429   -1.693650   -1.320754
  H      0.370459    1.625427    1.443129
  H     -2.096789    1.808649    1.098440
