25
  Isotropic shielding for P: 237.447 ppm
  O     -0.355218   -2.020127   -0.960337
  P     -0.890422   -0.655562   -0.768805
  O     -1.315111   -0.245979    0.748893
  C     -2.645688   -0.722784    1.144245
  C     -3.749896    0.007746    0.339704
  C     -3.198806    0.571093   -0.980017
  O     -2.258047   -0.374215   -1.594840
  S      0.365187    0.932077   -1.373473
  C      1.828935    0.528399   -0.397489
  C      2.565191   -0.635996   -0.655630
  C      3.717761   -0.896750    0.090037
  C      4.145448    0.004119    1.072486
  C      3.410222    1.168188    1.318921
  C      2.245267    1.429978    0.590806
  H     -2.692256   -1.807295    0.985774
  H     -2.715532   -0.523725    2.217021
  H     -4.566734   -0.697437    0.138771
  H     -4.167503    0.842148    0.918950
  H     -2.683184    1.525986   -0.817137
  H     -3.987927    0.718999   -1.722684
  H      2.222659   -1.335285   -1.412601
  H      4.284832   -1.806092   -0.101561
  H      5.048131   -0.201605    1.645174
  H      3.735388    1.870650    2.084539
  H      1.657304    2.323271    0.788550
