53
  Isotropic shielding for P: 191.225 ppm
  C     -1.963177    3.777786    0.177205
  C     -2.607216    2.374904    0.166264
  C     -2.021448    1.517982    1.299853
  O     -0.569679    1.428398    1.147110
  P      0.211712    0.093458    1.588685
  S     -0.103676   -0.623761    3.353064
  O      1.735414    0.531092    1.350485
  C      2.181538    1.097416    0.074394
  C      3.640186    0.687431   -0.183420
  C      4.067855    1.346574   -1.513708
  C      4.541764    1.187953    0.965251
  C      3.737030   -0.848487   -0.303194
  O     -0.177378   -0.866742    0.340856
  C      0.056627   -2.307309    0.379599
  C     -1.043784   -3.035138   -0.409265
  C     -1.051273   -2.558890   -1.877278
  C     -0.716917   -4.543846   -0.347866
  C     -2.417762   -2.770713    0.242865
  C     -2.359568    1.685915   -1.192963
  C     -4.125684    2.492121    0.424685
  H     -2.406000    4.407980   -0.605323
  H     -0.883564    3.717515   -0.001386
  H     -2.119622    4.277323    1.143149
  H     -2.455110    0.510039    1.285089
  H     -2.218791    1.967143    2.281761
  H      2.084429    2.188392    0.148237
  H      1.531499    0.735139   -0.732103
  H      3.438971    1.009442   -2.349330
  H      4.000958    2.441680   -1.456464
  H      5.107667    1.086801   -1.750459
  H      4.488820    2.281372    1.059650
  H      4.240011    0.749852    1.923225
  H      5.588508    0.915756    0.775979
  H      3.107466   -1.220066   -1.123889
  H      3.415415   -1.335507    0.624489
  H      4.771480   -1.154282   -0.507059
  H      0.064654   -2.633607    1.427472
  H      1.044507   -2.496033   -0.062982
  H     -1.257384   -1.484354   -1.942665
  H     -0.082169   -2.749734   -2.359306
  H     -1.822583   -3.090252   -2.450596
  H     -0.709320   -4.908540    0.688112
  H     -1.468510   -5.120435   -0.902329
  H      0.265057   -4.758228   -0.791899
  H     -3.203485   -3.334236   -0.277397
  H     -2.677874   -1.707026    0.196931
  H     -2.419260   -3.073233    1.298095
  H     -2.842991    0.700629   -1.228303
  H     -2.768745    2.292807   -2.011338
  H     -1.288265    1.543312   -1.373236
  H     -4.332300    2.974673    1.389670
  H     -4.599915    3.094813   -0.360644
  H     -4.608316    1.505121    0.427227
