46
  Isotropic shielding for P: 134.108 ppm
  C      6.298909    0.426418    0.447326
  C      6.188990   -0.297374   -0.905326
  C      4.988936   -1.256709   -1.052501
  C      3.593304   -0.592588   -0.954107
  C      2.984180   -0.591438    0.462887
  C      1.677457    0.215515    0.592152
  C      0.522209   -0.357603   -0.224155
  O     -0.664353    0.426409    0.060646
  P     -1.957361    0.239387   -0.992350
  C     -2.941241    1.674972   -0.392009
  C     -4.332098    1.692688   -0.598540
  C     -5.089022    2.810476   -0.241143
  C     -4.466858    3.928390    0.328547
  C     -3.083871    3.918399    0.536159
  C     -2.322383    2.801800    0.173578
  C     -2.908905   -1.128866   -0.187456
  C     -3.033495   -1.226299    1.209342
  C     -3.751090   -2.278045    1.780740
  C     -4.363080   -3.238597    0.962107
  C     -4.244252   -3.149559   -0.427648
  C     -3.510019   -2.102083   -0.998714
  H      7.219968    1.022483    0.496882
  H      5.457363    1.110665    0.614393
  H      6.318666   -0.289806    1.280917
  H      6.141653    0.451213   -1.712410
  H      7.112476   -0.871173   -1.077818
  H      5.079867   -1.753713   -2.029336
  H      5.066099   -2.057175   -0.298439
  H      3.655731    0.443812   -1.325439
  H      2.904670   -1.112648   -1.634593
  H      2.803916   -1.633385    0.774085
  H      3.710672   -0.185955    1.178060
  H      1.366473    0.247076    1.646287
  H      1.848419    1.257274    0.280767
  H      0.340058   -1.408990    0.055057
  H      0.729960   -0.324836   -1.304341
  H     -4.829157    0.823208   -1.027403
  H     -6.166404    2.807065   -0.400848
  H     -5.057110    4.799039    0.609915
  H     -2.593532    4.782209    0.983501
  H     -1.248475    2.794936    0.342495
  H     -2.563541   -0.475038    1.841902
  H     -3.842685   -2.348966    2.863924
  H     -4.927067   -4.055469    1.410034
  H     -4.713134   -3.897391   -1.065624
  H     -3.400839   -2.039632   -2.081607
