14
  Isotropic shielding for P: 243.359 ppm
  Br     0.505377    1.530197    2.168512
  C      0.565976    1.608931    0.181495
  P      0.009895    0.072309   -0.662391
  O      0.100160    0.209983   -2.144271
  C     -1.694129   -0.193941   -0.009684
  Br    -2.383552   -1.971633   -0.545339
  C      0.985818   -1.298284    0.078317
  Br     2.921672   -0.988834   -0.184314
  H      1.603777    1.805958   -0.095740
  H     -0.069675    2.442171   -0.127842
  H     -2.360790    0.548401   -0.456779
  H     -1.739830   -0.142574    1.079813
  H      0.738358   -2.229073   -0.434820
  H      0.816944   -1.393711    1.152944
