24
  Isotropic shielding for P: 127.970 ppm
  Br    -0.210354   -3.417009    0.011972
  P      0.002213   -1.560859   -1.362810
  C      1.415958   -0.714610   -0.543503
  C      1.398169   -0.273949    0.791935
  C      2.515075    0.357983    1.336934
  C      3.661880    0.559825    0.554941
  C      3.689265    0.123285   -0.771990
  C      2.570301   -0.516725   -1.317920
  C     -1.411708   -0.530351   -0.775925
  C     -1.279851    0.871358   -0.767768
  C     -2.383266    1.686222   -0.498393
  C     -3.632108    1.115847   -0.232808
  C     -3.772611   -0.276661   -0.244345
  C     -2.674092   -1.093951   -0.520431
  H      0.511028   -0.434020    1.400625
  H      2.496754    0.693143    2.372815
  H      4.532044    1.054014    0.984043
  H      4.578707    0.275474   -1.381007
  H      2.591059   -0.864139   -2.350279
  H     -0.313483    1.330139   -0.964737
  H     -2.262349    2.768385   -0.488164
  H     -4.489211    1.750980   -0.015808
  H     -4.740487   -0.729501   -0.034884
  H     -2.792732   -2.175078   -0.517898
