38
  Isotropic shielding for P: 165.771 ppm
  C     -0.899441   -1.385595    1.807370
  C     -0.536609   -0.418153    0.725129
  C     -0.484153   -0.611663   -0.620386
  C     -0.778696   -1.846365   -1.412605
  C     -0.044966    0.661844   -1.309479
  P      1.328395    1.267341   -0.131492
  S      2.154883    3.007100   -0.349884
  C     -0.138088    1.003005    1.059655
  N     -1.088035    1.950125    0.412045
  N     -1.030762    1.743054   -1.030150
  C     -2.351329    1.665617   -1.507679
  O     -2.706281    1.400893   -2.644856
  N     -3.163706    1.992322   -0.413375
  C     -2.442084    1.995994    0.788820
  O     -2.885793    2.058959    1.923847
  C     -4.611294    2.144375   -0.494320
  C      2.473347   -0.115890    0.115642
  C      2.931402   -0.421430    1.406411
  C      3.914817   -1.396977    1.586749
  C      4.450339   -2.066466    0.480556
  C      4.000086   -1.758466   -0.808286
  C      3.016564   -0.783656   -0.992482
  H     -1.741579   -1.008051    2.404663
  H     -0.052688   -1.521636    2.497880
  H     -1.169326   -2.369073    1.408858
  H      0.111308   -2.157877   -1.980925
  H     -1.576223   -1.658743   -2.145571
  H     -1.080679   -2.684191   -0.775660
  H      0.175263    0.622167   -2.375494
  H     -0.000738    1.267135    2.107414
  H     -5.115433    1.170720   -0.452291
  H     -4.938090    2.755565    0.351631
  H     -4.858893    2.633491   -1.441046
  H      2.536268    0.113648    2.268331
  H      4.269947   -1.627257    2.589645
  H      5.223239   -2.819665    0.621838
  H      4.421635   -2.270681   -1.671333
  H      2.687189   -0.531524   -1.999070
