32
  Isotropic shielding for P: 276.313 ppm
  C      2.766096    3.184783    0.018254
  C      1.487405    2.904370    0.794953
  O      1.303659    1.461180    0.991986
  P      0.449171    0.620681   -0.079690
  O      0.452788    1.179468   -1.453526
  O     -0.968234    0.451977    0.606952
  Si    -2.312401   -0.520684    0.215945
  C     -2.237991   -0.979217   -1.600265
  C     -2.215205   -2.035473    1.317622
  C     -3.803715    0.543127    0.614564
  O      1.050409   -0.864453    0.082644
  C      2.340467   -1.163986   -0.542689
  C      2.566283   -2.663931   -0.449205
  H      2.695091    2.771793   -0.994106
  H      2.925555    4.269497   -0.057513
  H      3.632867    2.744564    0.527517
  H      0.612588    3.316789    0.277532
  H      1.527209    3.319741    1.808562
  H     -2.134406   -0.085672   -2.227958
  H     -1.380427   -1.631197   -1.809659
  H     -3.150918   -1.512902   -1.900052
  H     -3.057481   -2.716510    1.131914
  H     -1.283605   -2.584571    1.129352
  H     -2.233962   -1.755470    2.379241
  H     -3.783930    0.872019    1.662123
  H     -4.737860   -0.012562    0.453160
  H     -3.828461    1.437881   -0.021416
  H      2.313023   -0.818990   -1.584198
  H      3.120569   -0.606260   -0.006028
  H      3.534843   -2.922170   -0.897700
  H      1.780618   -3.210160   -0.985495
  H      2.569854   -2.993861    0.596878
