18
  Isotropic shielding for P: 147.955 ppm
  C      2.699034   -0.101632    0.718478
  P      1.720886   -0.427372   -0.786754
  S      2.096813   -2.085752   -1.703730
  C     -0.017747   -0.109079   -0.363782
  C     -0.416464    1.160933    0.090664
  C     -1.750277    1.393169    0.432226
  C     -2.691054    0.361510    0.324998
  C     -2.297356   -0.901448   -0.129711
  C     -0.963941   -1.138008   -0.475321
  F      2.079796    0.910860   -1.628060
  H      2.463524    0.886200    1.130990
  H      2.469923   -0.875141    1.459215
  H      3.762475   -0.154408    0.460857
  H      0.306466    1.971406    0.160037
  H     -2.056876    2.378950    0.777573
  H     -3.730496    0.544762    0.592061
  H     -3.028806   -1.702577   -0.219409
  H     -0.646000   -2.112273   -0.840533
