31
  Isotropic shielding for P: 117.577 ppm
  C     -2.745681   -3.542152    0.264891
  C     -2.441503   -2.301519   -0.562832
  O     -1.334679   -1.593053    0.059917
  P     -0.458061   -0.578100   -0.922483
  O      0.574912   -0.194914    0.346241
  C      1.782000    0.464542    0.096922
  C      1.889092    1.557321   -0.762383
  C      3.131880    2.175303   -0.955732
  C      4.253581    1.692925   -0.275479
  C      4.140803    0.605509    0.595324
  C      2.904795   -0.031763    0.797465
  N      2.743508   -1.084819    1.699959
  O     -1.411295    0.756800   -1.025942
  C     -1.963666    1.428621    0.154425
  C     -3.171353    2.243394   -0.282743
  H     -1.880826   -4.216493    0.286325
  H     -3.599012   -4.082515   -0.166587
  H     -2.995550   -3.266445    1.296922
  H     -3.313268   -1.631163   -0.604856
  H     -2.177595   -2.572666   -1.597899
  H      1.002693    1.919995   -1.277845
  H      3.215336    3.024428   -1.630392
  H      5.223870    2.165737   -0.416865
  H      5.017113    0.238431    1.129668
  H      3.565281   -1.655540    1.864993
  H      1.890178   -1.620711    1.575304
  H     -2.232478    0.674993    0.905246
  H     -1.177740    2.068694    0.576777
  H     -2.889806    2.976602   -1.048598
  H     -3.589727    2.784223    0.577121
  H     -3.952902    1.594231   -0.696963
