39
  Isotropic shielding for P: 241.676 ppm
  C     -3.964140    2.190267   -0.392840
  C     -2.853317    1.976455   -1.412746
  O     -1.687836    1.329919   -0.781363
  C     -1.721636   -0.021502   -0.677837
  O     -2.594683   -0.739646   -1.129953
  P     -0.283587   -0.619721    0.388156
  O     -0.560712   -0.326257    1.826162
  C     -0.011983   -2.401916   -0.011925
  C      0.168657   -2.608802   -1.531384
  C      1.276386   -2.816267    0.742928
  C     -1.213631   -3.217711    0.520436
  O      0.982844    0.129103   -0.245595
  Si     1.952901    1.370371    0.422984
  C      2.843403    0.661796    1.912772
  C      0.861154    2.815378    0.900382
  C      3.133619    1.804036   -0.968736
  H     -3.599685    2.771052    0.462856
  H     -4.352102    1.231775   -0.030968
  H     -4.790981    2.742412   -0.859954
  H     -2.452615    2.923108   -1.788578
  H     -3.182830    1.354183   -2.251517
  H      0.397682   -3.666416   -1.724330
  H     -0.742304   -2.355902   -2.084674
  H      0.997454   -2.007129   -1.922968
  H      1.190452   -2.622333    1.818468
  H      1.439869   -3.893239    0.600411
  H      2.156529   -2.285854    0.361532
  H     -1.362587   -3.045467    1.592571
  H     -2.137955   -2.960384   -0.006448
  H     -1.014206   -4.287924    0.367894
  H      3.469416   -0.197698    1.638796
  H      2.112356    0.330345    2.660882
  H      3.494441    1.415753    2.377276
  H      0.128728    2.501516    1.654249
  H      1.462074    3.634368    1.320174
  H      0.311692    3.201392    0.033078
  H      2.588155    2.162328   -1.851900
  H      3.829073    2.596308   -0.658436
  H      3.730003    0.932499   -1.269854
