18
  Isotropic shielding for P: 269.470 ppm
  C     -1.346404    2.143609    1.451861
  O     -0.234644    1.557071    0.711732
  P     -0.365069    0.050682    0.194710
  O     -0.839043   -0.961421    1.166328
  O      1.116972   -0.200947   -0.408217
  C      2.087516   -0.884267    0.331679
  C      3.353615   -0.909500   -0.076089
  O     -1.241157    0.229971   -1.134687
  C     -1.708017   -0.961782   -1.833594
  H     -2.189845    2.326434    0.775226
  H     -0.973528    3.090512    1.850233
  H     -1.651150    1.479026    2.268047
  H      1.705418   -1.387085    1.218267
  H      4.088889   -1.464530    0.498789
  H      3.677552   -0.390521   -0.974946
  H     -2.185573   -1.651970   -1.129390
  H     -0.865173   -1.453575   -2.334394
  H     -2.430261   -0.611506   -2.575457
