37
  Isotropic shielding for P: 273.427 ppm
  C      4.078132    0.510243   -0.994763
  C      3.158748    0.690173    0.202685
  O      1.849656    0.138562   -0.148212
  P      0.704163    0.042577    1.004529
  O      1.161200   -0.538817    2.283896
  O      0.185197    1.567212    1.160182
  C     -0.396351    2.210651   -0.011261
  C     -1.597884    1.422667   -0.569676
  C     -1.137748   -0.013728   -0.928544
  N     -0.550889   -0.723255    0.227791
  C     -0.674736   -2.213862    0.261062
  C      0.599799   -2.938610   -0.208588
  C     -1.138800   -2.694679    1.645036
  C     -2.076960    2.125142   -1.855173
  C     -2.734395    1.376298    0.471497
  H      3.683427    1.033537   -1.874896
  H      5.072223    0.917873   -0.767159
  H      4.187998   -0.552644   -1.242635
  H      3.533290    0.160495    1.087739
  H      3.037623    1.752576    0.460187
  H     -0.704345    3.206322    0.328278
  H      0.382097    2.324149   -0.780526
  H     -0.432395    0.029557   -1.777331
  H     -2.012113   -0.589630   -1.258427
  H     -1.474195   -2.433033   -0.460986
  H      1.417301   -2.787792    0.506957
  H      0.412158   -4.017648   -0.288090
  H      0.927316   -2.571019   -1.188625
  H     -2.072107   -2.194168    1.930580
  H     -1.316247   -3.778524    1.626319
  H     -0.382180   -2.472722    2.404791
  H     -2.393794    3.155081   -1.644145
  H     -2.935730    1.595707   -2.288512
  H     -1.284024    2.161479   -2.614506
  H     -3.070919    2.391100    0.721985
  H     -2.409198    0.885820    1.394027
  H     -3.595721    0.822909    0.073815
