58
  Isotropic shielding for P: 101.596 ppm
  C      5.383232    1.057285   -2.129503
  C      4.291426    0.754098   -1.129484
  C      3.884891   -0.555479   -0.873516
  C      2.895586   -0.853516    0.070608
  C      2.534578   -2.313613    0.260161
  C      2.256887    0.201395    0.780787
  C      2.675189    1.540711    0.548796
  C      3.679782    1.777838   -0.397942
  C      2.094757    2.755510    1.242738
  P      0.928435   -0.398833    1.928896
  N      0.323563    1.048665    2.748095
  N     -0.753783    1.518286    2.290728
  N     -1.286889    0.876017    1.189956
  C     -0.734314   -0.459280    0.862373
  C     -0.480948   -0.601705   -0.629452
  C     -0.773615   -1.773615   -1.342483
  C     -0.478308   -1.876276   -2.706064
  C      0.110188   -0.807043   -3.385300
  C      0.379614    0.376850   -2.690325
  C      0.082652    0.477864   -1.332861
  C     -1.551727   -1.567334    1.534038
  C     -1.044323   -2.878516    1.589055
  C     -1.757821   -3.902864    2.211759
  C     -2.989619   -3.634038    2.818912
  C     -3.487783   -2.329867    2.801193
  C     -2.774418   -1.305849    2.167836
  C     -2.332885    1.532682    0.497277
  C     -3.193378    0.820699   -0.356394
  C     -4.212229    1.490329   -1.036815
  C     -4.400900    2.865260   -0.870366
  C     -3.544631    3.571587   -0.017247
  C     -2.509372    2.921106    0.653221
  H      5.162414    1.969203   -2.699285
  H      5.517028    0.231686   -2.838734
  H      6.346538    1.217424   -1.622453
  H      4.351460   -1.376808   -1.418078
  H      3.319586   -2.953837   -0.158958
  H      2.407090   -2.573673    1.318086
  H      1.599675   -2.563449   -0.258653
  H      3.992052    2.808328   -0.571570
  H      2.057403    2.639924    2.329607
  H      2.696651    3.639362    1.003024
  H      1.066616    2.958347    0.915843
  H     -1.243986   -2.613000   -0.840253
  H     -0.715445   -2.797620   -3.235930
  H      0.343766   -0.889104   -4.445365
  H      0.822734    1.226914   -3.205842
  H      0.284731    1.409394   -0.815908
  H     -0.073336   -3.100139    1.155868
  H     -1.342561   -4.909142    2.236537
  H     -3.544264   -4.429541    3.313387
  H     -4.434479   -2.099236    3.286867
  H     -3.177973   -0.298651    2.181125
  H     -3.072908   -0.247522   -0.492408
  H     -4.866767    0.924163   -1.697339
  H     -5.199161    3.380647   -1.400576
  H     -3.672014    4.644400    0.118678
  H     -1.838689    3.473279    1.303454
