41
  Isotropic shielding for P: 215.364 ppm
  C      5.432147    0.019884    0.990273
  C      4.787697   -0.531759   -0.292484
  C      4.256326    0.555817   -1.248234
  C      3.174647    1.484491   -0.654187
  C      1.917987    0.774219   -0.111048
  C      1.137014   -0.021513   -1.171214
  C     -0.121582   -0.727724   -0.626712
  C     -1.230828    0.243203   -0.186200
  P     -2.661793   -0.587607    0.632878
  S     -2.174098   -1.723837    2.161082
  C     -3.795173    0.797713    1.099846
  C     -4.292730    1.704335   -0.039192
  C     -3.521022   -1.489218   -0.734288
  C     -4.825918   -2.165037   -0.284856
  H      6.242465    0.724436    0.753592
  H      5.859581   -0.789558    1.596471
  H      4.704134    0.550280    1.617391
  H      5.528563   -1.137250   -0.835977
  H      3.975579   -1.223899   -0.023811
  H      3.867252    0.071348   -2.155795
  H      5.101718    1.179571   -1.579426
  H      2.870124    2.204291   -1.430353
  H      3.615723    2.083914    0.155342
  H      1.263677    1.536387    0.336532
  H      2.194139    0.096648    0.711146
  H      1.792265   -0.788846   -1.606994
  H      0.856646    0.649512   -2.000383
  H     -0.516050   -1.398136   -1.403998
  H      0.150244   -1.366005    0.225395
  H     -1.605024    0.820310   -1.044940
  H     -0.851195    0.960816    0.553434
  H     -4.634243    0.327216    1.628478
  H     -3.244506    1.374025    1.855812
  H     -3.463427    2.187631   -0.569881
  H     -4.933771    2.500174    0.362192
  H     -4.884923    1.146370   -0.774924
  H     -3.696021   -0.785406   -1.560864
  H     -2.804335   -2.240433   -1.090627
  H     -5.245751   -2.769984   -1.098532
  H     -5.583817   -1.426737    0.006965
  H     -4.641920   -2.819744    0.574989
