48
  Isotropic shielding for P: 62.328 ppm
  C      6.251595   -1.979140    0.495126
  C      4.922981   -1.209103    0.558610
  C      4.051127   -1.415473   -0.693211
  C      2.671583   -0.734115   -0.632482
  C      2.735859    0.803985   -0.621637
  C      1.359537    1.498112   -0.705764
  P      0.350602    1.333373    0.855871
  O     -0.858706    2.445423    0.619282
  C     -1.631180    2.524513   -0.614465
  C     -3.021304    3.063105   -0.289962
  C     -3.847516    2.131042    0.611062
  C     -5.245364    2.685659    0.924356
  O     -0.361792   -0.117546    0.419989
  C     -1.144109   -0.816221    1.423291
  C     -1.150093   -2.308178    1.094981
  C     -1.666647   -2.647789   -0.317309
  C     -3.114747   -2.202657   -0.579379
  H      6.852353   -1.660850   -0.368705
  H      6.078757   -3.060322    0.397093
  H      6.854417   -1.817244    1.398572
  H      5.132527   -0.138496    0.697322
  H      4.354346   -1.527107    1.447163
  H      3.905934   -2.496923   -0.844920
  H      4.599014   -1.054622   -1.579859
  H      2.126798   -1.090824    0.253017
  H      2.072763   -1.054198   -1.499007
  H      3.258256    1.151771    0.281783
  H      3.348604    1.136634   -1.474749
  H      1.500735    2.580336   -0.847199
  H      0.784727    1.120029   -1.563716
  H     -1.699886    1.525606   -1.068555
  H     -1.106713    3.192347   -1.313289
  H     -3.551183    3.227238   -1.242642
  H     -2.918681    4.049410    0.187889
  H     -3.296954    1.962145    1.546361
  H     -3.940989    1.148649    0.121497
  H     -5.812263    2.001293    1.569124
  H     -5.829032    2.840155    0.005648
  H     -5.178809    3.653103    1.441497
  H     -2.163474   -0.404021    1.424937
  H     -0.710734   -0.640760    2.420548
  H     -1.772860   -2.813203    1.851378
  H     -0.128395   -2.697689    1.212365
  H     -1.588091   -3.735530   -0.461364
  H     -1.000528   -2.186261   -1.058613
  H     -3.804659   -2.627160    0.164284
  H     -3.215083   -1.110423   -0.540877
  H     -3.452822   -2.528470   -1.571741
