33
  Isotropic shielding for P: 240.740 ppm
  C      3.227117   -0.658934   -0.904425
  C      2.684588    0.164593    0.257011
  O      1.301290   -0.316248    0.502314
  P      0.133168    0.744828    0.824683
  O      0.517880    1.898492    1.670871
  O     -1.046863   -0.198922    1.388813
  C     -1.869386   -0.854668    0.329491
  C     -1.462338   -0.226299   -1.045607
  C     -0.676539    1.087102   -0.815357
  C     -1.553200    2.338134   -0.721713
  O      0.368906    1.266954   -1.802160
  C     -3.326439   -0.575371    0.702978
  C     -1.549258   -2.350248    0.379023
  C      3.474174    0.022159    1.553850
  H      3.240724   -1.726204   -0.646652
  H      4.253800   -0.347235   -1.137741
  H      2.606035   -0.515001   -1.795261
  H      2.626142    1.222218   -0.029462
  H     -2.351510   -0.064104   -1.669013
  H     -0.794951   -0.910787   -1.579524
  H     -2.307709    2.245797    0.067592
  H     -0.938393    3.215989   -0.495470
  H     -2.081998    2.495398   -1.675192
  H     -0.004939    1.776115   -2.543744
  H     -3.532786   -0.943058    1.714876
  H     -3.548114    0.497277    0.675215
  H     -3.998660   -1.086149    0.001205
  H     -0.479834   -2.512812    0.205207
  H     -2.117050   -2.884317   -0.394939
  H     -1.815261   -2.767121    1.357692
  H      4.510458    0.354046    1.403273
  H      3.022577    0.634463    2.341909
  H      3.488669   -1.026086    1.880354
