26
  Isotropic shielding for P: 267.709 ppm
  C     -1.891753    1.097672   -0.545578
  C     -1.718443   -0.205103    0.260771
  P     -0.461516    0.131510    1.668387
  C      1.138556    0.249687    0.763905
  C      1.971760   -0.856447    0.515105
  C      3.186288   -0.701405   -0.159770
  C      3.584548    0.562375   -0.609504
  C      2.767949    1.672337   -0.367016
  C      1.563028    1.517792    0.324281
  C     -1.284844   -1.349967   -0.670112
  C     -3.043351   -0.566910    0.966713
  H     -2.670238    0.963371   -1.311202
  H     -0.964641    1.379203   -1.060083
  H     -2.193807    1.933621    0.099118
  H     -0.320473   -1.232557    2.068835
  H      1.666656   -1.846146    0.850344
  H      3.819831   -1.569032   -0.339088
  H      4.528773    0.682581   -1.138061
  H      3.075931    2.661022   -0.704157
  H      0.948069    2.392112    0.534768
  H     -1.169337   -2.292032   -0.118515
  H     -0.333718   -1.129958   -1.168476
  H     -2.044414   -1.509536   -1.451474
  H     -3.374836    0.235773    1.638222
  H     -3.834304   -0.732400    0.220044
  H     -2.945915   -1.487464    1.557941
