50
  Isotropic shielding for P: 96.616 ppm
  O     -2.473242    0.316000    1.734427
  C     -2.512638   -0.028227    0.342258
  C     -1.560787   -1.222140    0.071219
  C     -1.921671   -2.448461    0.888217
  C     -1.192058   -2.819536    2.023381
  C     -1.570549   -3.939924    2.770894
  C     -2.681482   -4.699433    2.392607
  C     -3.411617   -4.336055    1.254962
  C     -3.030744   -3.218512    0.508580
  O     -0.228319   -0.743509    0.387796
  P      1.013111   -1.196097   -0.648532
  O      1.379687    0.166354   -1.511340
  C      2.256034    1.098091   -0.763837
  C      3.153109    0.121398    0.084653
  O      2.242618   -0.985323    0.445094
  C      3.666735    0.722362    1.393308
  C      4.309253   -0.493096   -0.719545
  C      1.376832    2.025980    0.086116
  C      3.023466    1.910276   -1.807758
  C     -2.227145    1.174823   -0.562533
  C     -1.909569    1.020121   -1.920511
  C     -1.653079    2.130480   -2.728629
  C     -1.719716    3.421087   -2.193941
  C     -2.051461    3.587654   -0.845851
  C     -2.302369    2.473511   -0.038795
  H     -1.531341    0.434050    1.964239
  H     -3.541286   -0.375628    0.167859
  H     -1.617303   -1.487079   -0.994715
  H     -0.321767   -2.237151    2.313352
  H     -0.994289   -4.219344    3.651664
  H     -2.973932   -5.571941    2.974429
  H     -4.272863   -4.926293    0.945895
  H     -3.599409   -2.946957   -0.381589
  H      2.843114    1.021308    2.047333
  H      4.293532    1.600893    1.191192
  H      4.277559   -0.016623    1.924698
  H      3.957587   -0.901820   -1.673418
  H      4.748281   -1.310404   -0.136491
  H      5.093072    0.246372   -0.922484
  H      1.981096    2.822462    0.538063
  H      0.857418    1.481271    0.877835
  H      0.622766    2.488237   -0.557174
  H      3.508896    1.264056   -2.544401
  H      3.787706    2.531004   -1.322125
  H      2.329769    2.574310   -2.335942
  H     -1.843932    0.029101   -2.364045
  H     -1.392281    1.984486   -3.775519
  H     -1.516841    4.286927   -2.822194
  H     -2.113098    4.587440   -0.418181
  H     -2.557156    2.603696    1.009679
