35
  Isotropic shielding for P: 182.070 ppm
  C     -3.375179    3.093888   -1.583829
  C     -2.938394    1.683549   -1.224386
  O     -2.853541    1.609676    0.241419
  P     -2.193476    0.356389    0.993741
  S     -2.370800    0.430903    2.923574
  N     -0.628539    0.280115    0.325476
  C      0.406924    0.189742    1.084729
  C      1.773961    0.129254    0.569766
  C      2.055864    0.153016   -0.811457
  C      3.369725    0.095524   -1.259003
  C      4.447176    0.014745   -0.352850
  C      4.160964   -0.012805    1.020927
  C      2.844299    0.043794    1.477910
  C      5.871691   -0.016607   -0.853755
  O     -2.934144   -0.875282    0.239915
  C     -2.720703   -2.247602    0.687750
  C     -3.748551   -3.129011   -0.004013
  H     -3.472468    3.184392   -2.674317
  H     -2.640031    3.830515   -1.237748
  H     -4.344640    3.329225   -1.128219
  H     -1.956161    1.438952   -1.645845
  H     -3.664920    0.933373   -1.559926
  H      0.299654    0.158585    2.182744
  H      1.226468    0.213210   -1.512589
  H      3.575528    0.111555   -2.329201
  H      4.978885   -0.080616    1.737318
  H      2.635410    0.021499    2.547144
  H      6.558828   -0.395211   -0.088222
  H      5.967552   -0.646271   -1.747599
  H      6.208624    0.993245   -1.132192
  H     -1.694866   -2.544479    0.424498
  H     -2.827379   -2.279648    1.780042
  H     -3.644444   -3.072202   -1.094669
  H     -4.765900   -2.821596    0.266807
  H     -3.607917   -4.173919    0.303463
