32
  Isotropic shielding for P: 231.176 ppm
  C      4.572595   -0.487761    0.531269
  O      3.608555   -0.917838   -0.435032
  C      2.456135   -0.068151   -0.524263
  C      1.415407   -0.448456    0.538517
  O      0.298226    0.489559    0.524087
  P     -0.924864    0.269581   -0.510939
  O     -0.561763    0.075478   -1.941705
  C     -1.955457    1.733293   -0.148364
  C     -2.328382    1.856720    1.341810
  C     -1.284969    3.008804   -0.699898
  O     -1.710630   -0.995615    0.137791
  C     -2.264543   -2.040481   -0.729706
  C     -1.253273   -3.155901   -0.955283
  H      4.174484   -0.496505    1.559794
  H      5.410476   -1.190688    0.473511
  H      4.936319    0.529118    0.303323
  H      2.735037    0.993075   -0.408398
  H      2.029705   -0.207182   -1.523341
  H      1.055855   -1.471812    0.373200
  H      1.833303   -0.385776    1.549061
  H     -2.870933    1.539470   -0.731063
  H     -3.018141    2.699636    1.484134
  H     -2.815023    0.947642    1.712508
  H     -1.435898    2.039690    1.951805
  H     -0.363471    3.234364   -0.148562
  H     -1.033055    2.900154   -1.760653
  H     -1.963945    3.864860   -0.589241
  H     -3.152685   -2.401773   -0.197939
  H     -2.572465   -1.594347   -1.682972
  H     -0.387672   -2.780708   -1.512920
  H     -1.714795   -3.964367   -1.539370
  H     -0.914032   -3.574083    0.000935
