38
  Isotropic shielding for P: 272.721 ppm
  C      1.397136    2.414584    1.606835
  O      2.461205    1.484380    1.975895
  P      2.795132    0.186153    1.094201
  O      3.917770   -0.599845    1.663884
  C      1.158004   -0.742138    0.941415
  O      0.282215   -0.494378    1.759577
  C      1.025060   -1.739338   -0.151317
  C      2.145583   -2.488805   -0.555775
  C      2.035029   -3.466961   -1.543182
  C      0.802469   -3.689232   -2.166713
  C     -0.316496   -2.935056   -1.801151
  C     -0.206299   -1.977495   -0.795992
  O     -1.375379   -1.300617   -0.446683
  C     -1.399129    0.089240   -0.510789
  O     -0.492991    0.744116   -0.985353
  C     -2.655060    0.634574    0.061139
  C     -3.583478   -0.169857    0.744142
  C     -4.734716    0.404455    1.285664
  C     -4.968312    1.777780    1.146784
  C     -4.044705    2.581799    0.466639
  C     -2.890598    2.014133   -0.071936
  O      2.975118    0.693296   -0.429365
  C      4.246287    1.266074   -0.851855
  H      1.233629    2.419886    0.523399
  H      0.477588    2.116674    2.118951
  H      1.723605    3.402819    1.944214
  H      3.099043   -2.313830   -0.061377
  H      2.907367   -4.051530   -1.827295
  H      0.709880   -4.444072   -2.945431
  H     -1.279369   -3.077734   -2.286389
  H     -3.392320   -1.232655    0.856820
  H     -5.449589   -0.218502    1.820056
  H     -5.867730    2.221851    1.570268
  H     -4.225667    3.649767    0.359484
  H     -2.159385    2.621240   -0.600061
  H      4.383525    2.258700   -0.404755
  H      5.073480    0.609616   -0.559486
  H      4.192000    1.351309   -1.940272
