32
  Isotropic shielding for P: 251.230 ppm
  C      1.173513    3.630377   -0.265481
  C     -0.040025    2.765394    0.046682
  O      0.369214    1.444416    0.539916
  P      0.573268    0.239551   -0.530407
  O      1.165697    0.671305   -1.823243
  C     -1.028937   -0.584545   -0.704629
  C     -1.496196   -0.702624   -2.023585
  C     -2.734288   -1.292839   -2.268646
  Cl    -3.316284   -1.436562   -3.924261
  C     -3.516023   -1.768817   -1.216848
  C     -3.040185   -1.646805    0.091033
  C     -1.800469   -1.059457    0.383647
  C     -1.336275   -0.971905    1.819719
  O      1.412239   -0.810484    0.350578
  C      2.812735   -0.513577    0.676900
  C      3.430666   -1.773104    1.260239
  H      1.816352    3.726614    0.618711
  H      1.752545    3.190925   -1.084454
  H      0.845650    4.635856   -0.564244
  H     -0.645684    3.190245    0.855752
  H     -0.677906    2.643477   -0.838865
  H     -0.884280   -0.331994   -2.841090
  H     -4.481489   -2.227013   -1.416326
  H     -3.653676   -2.020739    0.909927
  H     -0.465327   -1.617604    1.988548
  H     -1.027384    0.046919    2.080195
  H     -2.135551   -1.282924    2.501407
  H      2.826970    0.316309    1.395800
  H      3.324428   -0.196902   -0.240733
  H      4.480876   -1.583899    1.519634
  H      2.901030   -2.084506    2.168971
  H      3.394795   -2.594985    0.535155
