36
  Isotropic shielding for P: 241.093 ppm
  C     -2.030455   -2.423421   -1.881957
  P     -2.550702   -0.812162   -1.192063
  O     -2.736046    0.252156   -2.206128
  C     -1.343933   -0.424136    0.181506
  C     -1.749869    0.886981    0.821198
  C     -2.395199    0.927049    2.059720
  C     -2.781784    2.159936    2.588062
  C     -2.501042    3.315232    1.853219
  N     -1.879819    3.300243    0.659923
  C     -1.523127    2.107363    0.159766
  N      0.014745   -0.369904   -0.362743
  C      1.066566   -0.285934    0.671627
  C      2.437263   -0.293299    0.033465
  C      2.799863    0.719031   -0.870767
  C      4.060469    0.714482   -1.471341
  C      4.977585   -0.303004   -1.176653
  C      4.624668   -1.316019   -0.280670
  C      3.358880   -1.309983    0.317855
  O     -3.940487   -1.125645   -0.386222
  H     -1.837483   -3.166774   -1.097608
  H     -2.836747   -2.784347   -2.531065
  H     -1.129926   -2.292735   -2.492723
  H     -1.467556   -1.231784    0.941041
  H     -2.585083    0.004444    2.609281
  H     -3.284369    2.227172    3.551197
  H     -2.784101    4.297306    2.236153
  H     -1.035639    2.106357   -0.813316
  H      0.207111   -1.167049   -0.969268
  H      0.994558   -1.110568    1.408889
  H      0.907234    0.649279    1.226344
  H      2.082430    1.503513   -1.104771
  H      4.331010    1.505846   -2.168636
  H      5.960761   -0.304803   -1.644377
  H      5.331106   -2.111373   -0.048078
  H      3.084706   -2.100715    1.016461
  H     -3.845388   -1.742635    0.362379
