16
  Isotropic shielding for P: 283.083 ppm
  H      0.466153    2.407889   -0.299242
  O     -0.473486    2.161318   -0.252223
  C     -0.671383    1.356305    0.931285
  P     -0.156703   -0.455514    0.834377
  C     -1.066587   -0.936475   -0.740928
  O     -2.443234   -1.262364   -0.465837
  H     -2.453056   -2.013279    0.155920
  C      1.561378   -0.228302    0.111883
  O      2.152775   -1.541897    0.015013
  H      2.987767   -1.462012   -0.479722
  H     -0.187009    1.810252    1.810354
  H     -1.752761    1.352188    1.114261
  H     -1.088435   -0.093751   -1.441401
  H     -0.524660   -1.774579   -1.207084
  H      2.137316    0.425388    0.791549
  H      1.511725    0.254835   -0.878205
