42
  Isotropic shielding for P: 280.196 ppm
  C     -0.838478    3.425773   -0.927978
  C     -1.892495    2.774823   -0.040722
  O     -1.925524    1.338461   -0.420448
  P     -2.121312    0.247759    0.730947
  O     -3.219480    0.422091    1.709377
  O     -2.122292   -1.037921   -0.218156
  C     -2.316003   -2.376395    0.398265
  C     -3.797617   -2.729994    0.329397
  C     -1.404632   -3.331130   -0.363090
  N     -0.651640    0.200000    1.596930
  N      0.642806    0.059534    1.169078
  C      0.905310   -0.068129   -0.091258
  C      2.289733   -0.218685   -0.545442
  C      2.549206   -0.354906   -1.923943
  C      3.854533   -0.501251   -2.402788
  C      4.932663   -0.515319   -1.517524
  C      4.663172   -0.379470   -0.150611
  C      3.375983   -0.232589    0.350707
  N      5.807139   -0.393221    0.808273
  O      5.551880   -0.272767    2.015772
  O      6.948887   -0.524303    0.338949
  C     -3.295630    3.349299   -0.202829
  H     -1.110732    3.320968   -1.986042
  H      0.143547    2.965730   -0.769599
  H     -0.761885    4.495391   -0.694147
  H     -1.581432    2.835957    1.012024
  H     -1.993241   -2.310955    1.447181
  H     -4.393218   -1.991434    0.876543
  H     -4.134937   -2.757152   -0.714680
  H     -3.967835   -3.718612    0.776011
  H     -1.500690   -4.345299    0.045330
  H     -1.679874   -3.357613   -1.425233
  H     -0.356628   -3.021862   -0.278462
  H     -0.719601    0.292174    2.604714
  H      0.133078   -0.070656   -0.865570
  H      1.714123   -0.345315   -2.623520
  H      4.032808   -0.604816   -3.471181
  H      5.957061   -0.626919   -1.856871
  H      3.211810   -0.130226    1.417908
  H     -4.002676    2.819459    0.444445
  H     -3.627611    3.256823   -1.244839
  H     -3.298276    4.412694    0.070887
