36
  Isotropic shielding for P: 244.936 ppm
  C     -5.489492   -0.009939   -1.090106
  O     -4.546029   -0.344644   -0.034486
  P     -3.073185    0.316666   -0.078263
  O     -2.290384    0.131895   -1.325492
  C     -2.317801   -0.457608    1.453928
  O     -0.977499   -0.918769    1.120656
  C     -0.027335    0.058585    0.945711
  O     -0.259019    1.248255    1.114734
  C      1.257117   -0.541722    0.552793
  C      2.342405    0.233112    0.343621
  C      3.679151   -0.197389   -0.055784
  C      4.014737   -1.546431   -0.306486
  C      5.307596   -1.899963   -0.684288
  C      6.299517   -0.917897   -0.821976
  C      5.985121    0.422939   -0.579226
  C      4.689033    0.777415   -0.201167
  C     -3.066585   -1.664217    2.011476
  O     -3.424099    1.849360    0.297202
  C     -2.573086    2.945429   -0.156634
  H     -6.355647   -0.660389   -0.941071
  H     -5.790786    1.041376   -1.006161
  H     -5.041624   -0.196493   -2.073173
  H     -2.240801    0.343117    2.199700
  H      1.271008   -1.622425    0.435015
  H      2.210167    1.307502    0.487625
  H      3.256885   -2.320566   -0.207818
  H      5.547907   -2.944667   -0.874602
  H      7.308713   -1.199076   -1.117756
  H      6.748815    1.191474   -0.685229
  H      4.443773    1.822103   -0.013461
  H     -4.074786   -1.374425    2.323230
  H     -2.522516   -2.053132    2.881224
  H     -3.151713   -2.459890    1.263629
  H     -2.149275    2.711965   -1.138687
  H     -3.222267    3.824187   -0.218571
  H     -1.767813    3.104361    0.565494
