46
  Isotropic shielding for P: 282.873 ppm
  C     -3.299767   -1.828172    2.367787
  C     -3.953598   -0.649058    1.657698
  O     -3.230187   -0.290876    0.430409
  C     -3.508575   -1.049986   -0.666462
  O     -4.348254   -1.926224   -0.701329
  C     -2.645137   -0.662570   -1.874191
  C     -1.794743    0.554473   -1.688216
  C     -0.463039    0.559227   -1.516813
  C      0.372220    1.746147   -1.253216
  C     -0.168881    2.910232   -0.674073
  C      0.642676    4.012141   -0.406765
  C      2.013059    3.981252   -0.692874
  C      2.540990    2.820358   -1.258623
  C      1.748267    1.713261   -1.542979
  Br     4.429655    2.731037   -1.645709
  O      0.262926   -0.651480   -1.620383
  P      0.481190   -1.560631   -0.277782
  O     -0.724072   -2.261150    0.203039
  O      1.657599   -2.519301   -0.744905
  C      2.940557   -2.014410   -1.253301
  C      3.899106   -3.189867   -1.331095
  O      1.180780   -0.558389    0.764806
  C      0.396822    0.078677    1.832998
  C      1.251987    1.181416    2.431251
  H     -3.825254   -2.015595    3.314748
  H     -2.245888   -1.623691    2.583591
  H     -3.350810   -2.731958    1.753454
  H     -3.910603    0.265366    2.259780
  H     -4.995311   -0.865310    1.395421
  H     -3.343697   -0.528756   -2.712220
  H     -2.035798   -1.544610   -2.098761
  H     -2.301251    1.516982   -1.669790
  H     -1.220491    2.938522   -0.400727
  H      0.213480    4.902391    0.049552
  H      2.651191    4.832008   -0.471696
  H      2.185870    0.824437   -1.980986
  H      2.761089   -1.572055   -2.241293
  H      3.307579   -1.236430   -0.572692
  H      3.506910   -3.969204   -1.995375
  H      4.866283   -2.850424   -1.725017
  H      4.061442   -3.625925   -0.338174
  H      0.144218   -0.693533    2.569757
  H     -0.535605    0.470166    1.409882
  H      1.494749    1.940388    1.679684
  H      2.186696    0.774452    2.836225
  H      0.703917    1.667073    3.249865
