29
  Isotropic shielding for P: 257.810 ppm
  C      3.900169   -0.692126   -0.797777
  C      3.417444    0.518286    0.006996
  S      1.676461    0.405002    0.606187
  C      0.779098    0.603090   -0.984325
  P     -1.020275    0.267383   -0.867784
  O     -1.724074    0.794480   -2.060020
  O     -1.190479   -1.310753   -0.668143
  C     -1.016022   -2.035866    0.597384
  C     -1.369834   -3.490831    0.340261
  O     -1.484526    0.834468    0.573311
  C     -1.686191    2.277191    0.748398
  C     -3.116588    2.672220    0.408548
  H      4.953033   -0.561619   -1.086425
  H      3.814201   -1.613168   -0.209186
  H      3.320574   -0.822432   -1.719916
  H      3.521819    1.449225   -0.566063
  H      4.004914    0.634496    0.926880
  H      0.901251    1.625351   -1.363677
  H      1.167211   -0.090530   -1.739387
  H     -1.674455   -1.582493    1.347123
  H      0.024127   -1.920750    0.924867
  H     -0.709856   -3.925460   -0.420342
  H     -1.256008   -4.066938    1.268467
  H     -2.406950   -3.586008   -0.003275
  H     -1.445110    2.465625    1.800341
  H     -0.963201    2.825767    0.129139
  H     -3.328850    2.472260   -0.647085
  H     -3.259969    3.744196    0.603575
  H     -3.827915    2.110336    1.026327
