24
  Isotropic shielding for P: 259.350 ppm
  N      4.025420    0.727535    0.280694
  N      2.628648    0.523360    0.585082
  P      1.773169   -0.629425   -0.290642
  O      2.609943   -1.640575   -0.971321
  O      0.706077   -1.074115    0.849162
  C     -0.648018   -1.333133    0.356616
  C     -1.343819   -0.031013   -0.120426
  C     -0.276475    0.894053   -0.773262
  O      0.814708    0.125383   -1.362710
  C     -1.972396    0.713791    1.074727
  C     -2.424903   -0.419804   -1.149899
  H      4.075159    1.400905   -0.486782
  H      4.412841   -0.156480   -0.067872
  H      2.466291    0.524283    1.588449
  H     -1.185606   -1.784192    1.196740
  H     -0.591623   -2.066676   -0.457234
  H     -0.708662    1.474765   -1.594585
  H      0.144216    1.591907   -0.036282
  H     -2.801252    0.134668    1.502503
  H     -2.371698    1.689755    0.766139
  H     -1.228968    0.886265    1.863762
  H     -3.123098   -1.158644   -0.732631
  H     -3.010457    0.459586   -1.448516
  H     -1.969699   -0.852299   -2.050211
