49
  Isotropic shielding for P: 241.234 ppm
  C     -3.705380   -1.634011    1.449498
  C     -3.398314   -0.173008    1.068688
  N     -2.365018   -0.029016   -0.016053
  P     -0.971788   -0.940163   -0.062029
  O     -0.997978   -2.207415   -0.863783
  C      0.422258    0.104314   -0.695893
  C      0.875470    1.275104    0.160844
  N      2.140877    1.238139    0.421778
  N      2.701291    0.102154   -0.142874
  C      1.724076   -0.766631   -0.764206
  O      1.647936   -1.999051    0.006118
  C      4.090338   -0.060623   -0.211642
  C      4.637996   -1.251525   -0.730583
  C      6.023646   -1.398789   -0.821900
  C      6.884794   -0.384780   -0.390153
  C      6.336078    0.789829    0.139394
  C      4.954847    0.962141    0.228339
  C      0.010687    2.393174    0.637271
  O     -0.622731   -1.109386    1.513625
  C     -2.878076    0.353120   -1.372496
  C     -3.872858   -0.667154   -1.955099
  C     -3.440074    1.783845   -1.361808
  C     -3.060554    0.690371    2.293433
  H     -3.913157   -2.238954    0.560700
  H     -4.587588   -1.664370    2.102833
  H     -2.868955   -2.091406    1.987641
  H     -4.310924    0.239705    0.623921
  H      0.144238    0.450750   -1.701243
  H      2.007066   -1.021605   -1.794601
  H      0.969866   -2.555221   -0.446895
  H      3.986468   -2.069295   -1.023428
  H      6.430343   -2.325579   -1.224197
  H      7.963531   -0.509958   -0.457515
  H      6.991160    1.588870    0.484163
  H      4.531023    1.876161    0.631559
  H     -0.474991    2.901837   -0.209282
  H      0.618366    3.121372    1.184047
  H     -0.790874    2.029108    1.289805
  H      0.248507   -1.564531    1.566601
  H     -2.001323    0.356924   -2.034839
  H     -4.147366   -0.378782   -2.978317
  H     -3.422739   -1.665075   -1.982148
  H     -4.797538   -0.710954   -1.365780
  H     -3.717727    2.082968   -2.380562
  H     -4.341065    1.862723   -0.740300
  H     -2.698259    2.493970   -0.980171
  H     -2.948199    1.742769    2.007177
  H     -2.135281    0.354287    2.771603
  H     -3.872103    0.623546    3.030458
