35
  Isotropic shielding for P: 209.709 ppm
  C      5.108149   -0.776305    0.897905
  C      3.643720   -0.501901    0.602300
  O      3.504100   -0.407379   -0.855801
  C      2.269838   -0.196933   -1.336731
  N      1.231833   -0.070775   -0.601030
  P     -0.291575    0.165048   -1.333837
  S     -0.385341    0.314189   -3.288852
  C     -0.914863    1.633931   -0.442584
  C     -1.977575    2.358386   -1.004109
  C     -2.509555    3.459731   -0.329630
  C     -1.980380    3.850279    0.906142
  C     -0.916112    3.135160    1.465386
  C     -0.385177    2.027791    0.796801
  C     -1.246131   -1.235872   -0.642495
  C     -1.172937   -1.538012    0.727891
  C     -1.917208   -2.597378    1.250957
  C     -2.740591   -3.358916    0.411800
  C     -2.816130   -3.057880   -0.951739
  C     -2.071181   -1.997939   -1.479162
  H      5.255777   -0.854212    1.982952
  H      5.744576    0.033335    0.520572
  H      5.431873   -1.717616    0.437474
  H      3.297938    0.442735    1.041104
  H      2.985168   -1.303870    0.958563
  H      2.275807   -0.150241   -2.432944
  H     -2.368606    2.063598   -1.975782
  H     -3.332814    4.018231   -0.772108
  H     -2.392202    4.712438    1.428405
  H     -0.495418    3.441034    2.422181
  H      0.446546    1.475683    1.225582
  H     -0.533794   -0.950005    1.381899
  H     -1.856181   -2.829566    2.313142
  H     -3.321427   -4.183723    0.821830
  H     -3.454686   -3.647920   -1.607226
  H     -2.115644   -1.755126   -2.539055
