29
  Isotropic shielding for P: 234.833 ppm
  C      4.314131    0.024289    2.116133
  C      3.905163    0.502773    0.710612
  P      2.497586   -0.371811   -0.027582
  O      2.124261    0.010050   -1.415503
  O      1.383216   -0.164978    1.120572
  C      0.041163   -0.710483    0.940309
  C     -0.838236    0.289377    0.192895
  O     -2.147902   -0.281943    0.152707
  C     -3.155368    0.563250   -0.454892
  C     -4.505012   -0.014257   -0.031824
  C     -2.996335    0.626168   -1.980150
  O      2.865967   -1.963606    0.098938
  H      4.576737   -1.039788    2.109209
  H      3.497873    0.168750    2.832266
  H      5.185743    0.589548    2.469528
  H      3.635192    1.567703    0.712793
  H      4.729783    0.386530   -0.006421
  H      0.087108   -1.665663    0.402121
  H     -0.347731   -0.892996    1.947431
  H     -0.426193    0.461554   -0.812043
  H     -0.848678    1.253271    0.733943
  H     -3.046045    1.581705   -0.036462
  H     -5.326465    0.594164   -0.431143
  H     -4.615922   -1.038430   -0.412014
  H     -4.587365   -0.040630    1.061231
  H     -3.087117   -0.379460   -2.411627
  H     -3.775897    1.264165   -2.417545
  H     -2.024417    1.041012   -2.272340
  H      2.884661   -2.360467   -0.791542
