20
  Isotropic shielding for P: 260.381 ppm
  O      1.727264    0.760385   -1.331558
  C      0.965586    0.782985   -0.094591
  P      1.921715   -0.302141    1.073040
  O      1.484430   -0.193756    2.475587
  O      1.766852   -1.806211    0.493038
  O      3.456652    0.130168    0.770345
  C     -0.464994    0.321645   -0.229330
  C     -1.403260    0.637545    0.763267
  C     -2.705191    0.158078    0.634797
  C     -3.028810   -0.618439   -0.484138
  N     -2.144069   -0.932196   -1.445341
  C     -0.889217   -0.472815   -1.304586
  H      1.281143    1.333334   -1.982387
  H      0.994698    1.789579    0.353224
  H      2.297177   -1.973586   -0.307719
  H      3.531119    0.533814   -0.119842
  H     -1.108084    1.230658    1.627140
  H     -3.459085    0.379504    1.387644
  H     -4.039837   -1.007440   -0.615034
  H     -0.184187   -0.751011   -2.088057
