41
  Isotropic shielding for P: 174.078 ppm
  C     -1.326383    2.015444    1.075254
  N     -1.009707    2.465553   -0.286328
  C     -1.165207    3.776511   -0.692414
  C     -0.737436    3.834169   -2.002168
  N     -0.327321    2.595152   -2.419786
  C     -0.493435    1.774740   -1.382913
  P      0.068866    0.041359   -1.508291
  Se     0.100808   -0.714938   -3.479384
  N     -0.982106   -0.739786   -0.418155
  C     -0.607709   -2.071917    0.091300
  C     -1.292829   -2.256828    1.464333
  O     -2.530368   -1.516171    1.555945
  C     -3.214833   -1.506762    0.296263
  C     -2.426974   -0.684000   -0.754175
  N      1.558602   -0.020376   -0.732827
  C      2.787790   -0.503926   -1.364463
  C      3.281816   -1.755453   -0.609867
  O      2.921399   -1.711836    0.795691
  C      2.912064   -0.369347    1.290950
  C      1.747396    0.432034    0.656204
  H     -1.373695    0.927526    1.107358
  H     -0.562963    2.369187    1.779532
  H     -2.297201    2.427216    1.372168
  H     -1.569023    4.526144   -0.023269
  H     -0.714786    4.693446   -2.662177
  H     -0.912105   -2.857952   -0.619050
  H      0.477375   -2.137525    0.209299
  H     -0.661486   -1.868620    2.272393
  H     -1.480427   -3.329096    1.649517
  H     -3.373822   -2.539485   -0.058048
  H     -4.197604   -1.058518    0.477293
  H     -2.750030    0.362846   -0.749890
  H     -2.613755   -1.085525   -1.765018
  H      3.545387    0.295063   -1.346977
  H      2.581916   -0.745083   -2.412007
  H      4.376564   -1.855978   -0.709877
  H      2.804325   -2.659780   -1.004513
  H      3.879643    0.123609    1.095457
  H      2.781529   -0.435257    2.377010
  H      0.827096    0.250617    1.218479
  H      1.968325    1.513940    0.703450
