30
  Isotropic shielding for P: 274.824 ppm
  C     -2.089826   -2.909281    0.752945
  C     -1.440755   -2.564574   -0.579116
  O     -0.430333   -1.510502   -0.388389
  P     -0.730527   -0.000183   -0.836821
  O     -0.987613    0.257558   -2.276251
  C      0.825929    0.870832   -0.233197
  O      0.859870    2.085570   -0.315844
  C      2.007729    0.051176    0.277157
  C      3.353340    0.750533    0.175863
  C      4.535453   -0.093703    0.670167
  Br     1.472706   -0.297711    2.201717
  O     -1.912621    0.453284    0.158746
  C     -2.868194    1.509469   -0.228905
  C     -2.404812    2.871719    0.263245
  H     -2.635932   -2.048605    1.154217
  H     -1.331547   -3.213217    1.484281
  H     -2.794532   -3.741087    0.615673
  H     -2.174012   -2.230029   -1.323838
  H     -0.890852   -3.414923   -0.997724
  H      2.006716   -0.951399   -0.157061
  H      3.488390    0.991099   -0.891911
  H      3.304469    1.712567    0.699257
  H      4.592939   -1.051219    0.134596
  H      5.479917    0.439793    0.507179
  H      4.448371   -0.309927    1.741426
  H     -3.810276    1.204842    0.240855
  H     -2.984254    1.485437   -1.318194
  H     -1.464530    3.163206   -0.217370
  H     -2.256034    2.865472    1.350055
  H     -3.169179    3.623605    0.022339
