17
  Isotropic shielding for P: 231.207 ppm
  C      2.884718   -0.897905   -0.008349
  C      1.720726   -0.614402   -0.601579
  P      0.684480    0.697936    0.069018
  O      1.231646    1.410660    1.249397
  N     -0.840287    0.053748    0.304018
  C     -1.734336    0.773183    1.231490
  C     -1.540483   -0.628250   -0.793606
  Cl     0.504481    1.967336   -1.621379
  H      3.207903   -0.358887    0.880875
  H      3.545792   -1.670821   -0.398926
  H      1.401469   -1.126200   -1.508240
  H     -2.416109    0.048402    1.695636
  H     -1.137948    1.255243    2.009761
  H     -2.333118    1.537288    0.708952
  H     -2.071235    0.083842   -1.446224
  H     -0.838070   -1.201902   -1.404278
  H     -2.269730   -1.329074   -0.366566
