22
  Isotropic shielding for P: 234.134 ppm
  C      3.136478   -0.352819   -0.634265
  C      2.191533   -0.245475    0.550801
  O      0.823516   -0.172557    0.031703
  P     -0.387379    0.213288    1.023192
  O     -0.179057    1.393348    1.905787
  C     -1.788076    0.297650   -0.143160
  C     -1.974887   -0.999187   -0.956034
  C     -1.658689    1.546219   -1.040659
  O     -0.629109   -1.164647    1.880360
  H      2.915682   -1.246348   -1.231137
  H      4.172845   -0.421923   -0.277359
  H      3.051523    0.529356   -1.280535
  H      2.263589   -1.126217    1.204044
  H      2.386158    0.654728    1.147679
  H     -2.657076    0.430751    0.521126
  H     -2.082349   -1.873267   -0.304019
  H     -2.877887   -0.919817   -1.576254
  H     -1.119254   -1.169230   -1.620130
  H     -0.799799    1.453130   -1.717021
  H     -2.562808    1.658198   -1.653779
  H     -1.529806    2.456079   -0.443711
  H     -0.695047   -0.941363    2.827272
