27
  Isotropic shielding for P: 260.844 ppm
  C     -2.062867    1.436739    1.194828
  C     -1.428562    0.068866    1.489280
  N     -0.487645   -0.419766    0.454437
  P      0.985157    0.316937    0.290569
  O      1.374067    1.140839    1.462104
  O      0.898434    1.079494   -1.130894
  C      2.064298    1.812732   -1.602282
  O      2.040892   -0.850759   -0.111779
  C      2.530589   -1.705088    0.955499
  C     -0.989708   -1.357403   -0.568316
  C     -1.957711   -0.746989   -1.594399
  H     -2.757061    1.709482    2.002128
  H     -2.617795    1.434016    0.249915
  H     -1.287036    2.209295    1.140541
  H     -2.205413   -0.701895    1.591810
  H     -0.890772    0.120733    2.443292
  H      1.733391    2.384307   -2.473992
  H      2.426352    2.491988   -0.821432
  H      2.858336    1.113128   -1.890386
  H      3.316881   -2.325979    0.516566
  H      1.720250   -2.342952    1.333673
  H      2.936191   -1.098504    1.773541
  H     -0.118797   -1.773814   -1.087710
  H     -1.477881   -2.194348   -0.044318
  H     -1.492157    0.104950   -2.103064
  H     -2.886521   -0.405627   -1.121678
  H     -2.225112   -1.500582   -2.348233
