71
  Isotropic shielding for P: 252.325 ppm
  C      0.064388   -1.265872    2.505655
  C      1.015430   -0.589028    1.539869
  N      1.790448    0.315543    2.053301
  C      2.492788    1.241524    1.316759
  N      2.166576    1.831230    0.175820
  C      3.162479    2.770652   -0.047743
  C      4.123906    2.741282    1.004981
  N      3.666149    1.755000    1.863505
  C      5.236521    3.583406    1.031645
  C      5.374655    4.477932   -0.033871
  C      4.434827    4.518576   -1.086366
  C      3.324756    3.673151   -1.107778
  N      1.040373   -1.044050    0.208491
  P      2.468970   -1.449218   -0.657830
  O      2.785812   -0.645103   -1.868404
  N      2.129766   -3.051162   -1.089647
  C      2.615790   -3.563555   -2.375158
  C      1.904995   -4.074179   -0.071102
  C      3.817572   -1.523910    0.568458
  C     -0.183432   -1.026366   -0.685236
  C     -0.638641    0.423132   -0.945049
  C     -1.368266    1.132048    0.204090
  C     -1.953468    2.502345   -0.219666
  C     -3.295222    2.872316    0.448979
  C     -4.469131    1.946161    0.026135
  C     -4.816155    0.816966    1.029793
  C     -5.480538   -0.440953    0.412834
  C     -4.485980   -1.559438    0.024316
  C     -3.597531   -1.277327   -1.205142
  C     -2.389988   -2.233579   -1.328321
  C     -1.277197   -2.035730   -0.267232
  H     -0.016233   -2.341544    2.317755
  H      0.417754   -1.083491    3.524622
  H     -0.942009   -0.836565    2.424236
  H      4.034078    1.498990    2.771290
  H      5.963909    3.552874    1.841359
  H      6.226047    5.155797   -0.052722
  H      4.585507    5.225211   -1.900594
  H      2.604377    3.695532   -1.922345
  H      1.867796   -4.244158   -2.809532
  H      2.777122   -2.726035   -3.057751
  H      3.562125   -4.123609   -2.264552
  H      2.831378   -4.619907    0.186388
  H      1.506868   -3.621009    0.841917
  H      1.170560   -4.810982   -0.430074
  H      4.596287   -2.143724    0.106994
  H      4.233896   -0.531598    0.753856
  H      3.515660   -1.979334    1.517388
  H      0.204003   -1.393812   -1.643760
  H     -1.301032    0.399248   -1.823307
  H      0.248396    1.000115   -1.230238
  H     -2.172711    0.487738    0.573042
  H     -0.686104    1.286370    1.049176
  H     -2.113928    2.503254   -1.309636
  H     -1.208507    3.286950   -0.027159
  H     -3.535047    3.910708    0.178860
  H     -3.188465    2.863026    1.545662
  H     -5.375982    2.547261   -0.133408
  H     -4.234008    1.513452   -0.955730
  H     -5.476637    1.237761    1.802135
  H     -3.910914    0.500643    1.567178
  H     -6.186638   -0.864081    1.142175
  H     -6.087062   -0.153612   -0.461225
  H     -5.042917   -2.492243   -0.157295
  H     -3.851005   -1.758627    0.901937
  H     -4.214624   -1.360528   -2.112691
  H     -3.239691   -0.245366   -1.182658
  H     -2.759840   -3.267927   -1.256336
  H     -1.950005   -2.141631   -2.333094
  H     -0.776961   -2.995952   -0.091756
  H     -1.736096   -1.751094    0.683709
