54
  Isotropic shielding for P: 274.055 ppm
  C      6.908021   -1.750512    0.482147
  O      5.628599   -2.375356    0.607340
  C      4.509668   -1.586984    0.384202
  C      4.540502   -0.227517    0.041307
  C      3.345302    0.472463   -0.155967
  C      2.084356   -0.144222   -0.018229
  C      2.084333   -1.523321    0.316718
  C      3.269061   -2.227045    0.518073
  N      0.939395    0.621492   -0.225613
  P     -0.558743    0.320004    0.120540
  C     -0.895328   -0.091953    1.835326
  C     -2.136001   -0.215909    2.453982
  N     -1.917543   -0.531793    3.774362
  C     -0.557362   -0.613499    4.021033
  C      0.099791   -0.343440    2.838721
  N     -1.241412   -0.890390   -0.828826
  C     -0.524890   -1.486814   -1.959234
  C     -1.233094   -1.146932   -3.287543
  O     -2.670157   -1.036578   -3.132909
  C     -3.157049   -1.840080   -2.051453
  C     -2.655899   -1.286529   -0.703306
  N     -1.554697    1.646024   -0.146379
  C     -1.833948    2.053492   -1.543999
  C     -2.714052    3.324806   -1.528416
  O     -3.610162    3.314338   -0.409533
  C     -2.895047    3.433573    0.839709
  C     -1.493063    2.795098    0.768070
  H      7.644706   -2.529807    0.700324
  H      7.026908   -0.923477    1.200351
  H      7.073501   -1.366032   -0.537014
  H      5.483917    0.299443   -0.073066
  H      3.371944    1.528890   -0.417420
  H      1.136056   -2.045364    0.432591
  H      3.251157   -3.283713    0.780674
  H     -3.135038   -0.079924    2.064097
  H     -2.643457   -0.676627    4.464703
  H     -0.180415   -0.853458    5.006550
  H      1.170364   -0.324775    2.689520
  H      0.497159   -1.100754   -1.976942
  H     -0.458151   -2.578094   -1.825023
  H     -0.903489   -0.171526   -3.665094
  H     -0.999898   -1.915149   -4.045829
  H     -4.251138   -1.794753   -2.096727
  H     -2.856889   -2.893978   -2.183619
  H     -3.247828   -0.403399   -0.429587
  H     -2.795008   -2.046093    0.087184
  H     -2.359317    1.236847   -2.048886
  H     -0.901940    2.262137   -2.098523
  H     -2.091644    4.236603   -1.512438
  H     -3.339666    3.361977   -2.427021
  H     -3.516539    2.918506    1.583329
  H     -2.810441    4.497703    1.126026
  H     -1.187242    2.458756    1.763257
  H     -0.738192    3.523841    0.428562
