51
  Isotropic shielding for P: 201.381 ppm
  C      4.290934    1.427727    1.137654
  C      3.561195    1.713006   -0.160598
  O      3.292300    0.411220   -0.800405
  C      2.582063    0.445748   -1.943448
  O      2.325797    1.433858   -2.600755
  C      2.178086   -0.969730   -2.392474
  N      2.005126   -1.897760   -1.270535
  C      2.778664   -3.002761   -1.125888
  C      2.659231   -3.796886   -0.012879
  C      1.714028   -3.385356    0.962444
  N      0.955735   -2.315407    0.852319
  C      1.059705   -1.524559   -0.268517
  N      0.394905   -0.437067   -0.505042
  P     -0.463522    0.379270    0.683243
  S      0.588722    1.077136    2.189511
  C     -1.809885   -0.746122    1.218531
  C     -2.412227   -1.629728    0.307631
  C     -3.481521   -2.437205    0.704788
  C     -3.961460   -2.370959    2.017556
  C     -3.359746   -1.498853    2.931907
  C     -2.288860   -0.693631    2.535275
  N     -1.163538    1.606475   -0.241163
  C     -1.627021    2.845448    0.411168
  C     -3.038630    2.764924    1.016511
  C     -1.757115    1.305993   -1.559236
  C     -1.186240    2.188016   -2.679013
  H      4.508400    2.376178    1.646186
  H      3.662842    0.822530    1.800911
  H      5.240543    0.907943    0.956237
  H      2.591820    2.191864    0.016654
  H      4.147150    2.322585   -0.858679
  H      1.240388   -0.867845   -2.945532
  H      2.950209   -1.372178   -3.059501
  H      3.483316   -3.204232   -1.929010
  H      3.269183   -4.685172    0.111773
  H      1.587073   -3.972181    1.876055
  H     -2.036532   -1.701194   -0.710571
  H     -3.938088   -3.121337   -0.009468
  H     -4.793700   -3.001085    2.327728
  H     -3.720455   -1.450975    3.958531
  H     -1.800902   -0.028542    3.244878
  H     -1.584947    3.647988   -0.337933
  H     -0.900808    3.097453    1.190672
  H     -3.327814    3.742314    1.427013
  H     -3.790113    2.482364    0.267617
  H     -3.075545    2.029096    1.827777
  H     -2.853775    1.408061   -1.508648
  H     -1.552325    0.258920   -1.797993
  H     -1.657162    1.925551   -3.637253
  H     -1.382102    3.252546   -2.498606
  H     -0.103476    2.046852   -2.767422
