48
  Isotropic shielding for P: 251.269 ppm
  C     -4.307787    1.078285   -2.370203
  C     -3.260527    0.000796   -2.152186
  O     -2.738321    0.168990   -0.780956
  P     -1.612562   -0.826761   -0.203506
  O     -1.538737   -2.144851   -0.897508
  C     -0.036665    0.120794   -0.171876
  C      1.240189   -0.871265   -0.073860
  O      1.239534   -1.812784   -1.116421
  C      1.180386   -1.493162    1.335382
  N      0.717773   -2.697934    1.397964
  O      0.622300   -3.167713    2.747783
  C      1.593101   -0.659385    2.452645
  C      2.407363    0.403316    2.240357
  C      2.950926    0.712246    0.924810
  C      2.475487    0.014022   -0.209203
  C      3.063751    0.223634   -1.455627
  C      4.107270    1.148065   -1.595555
  C      4.558706    1.873401   -0.488040
  C      3.986392    1.650156    0.765445
  C      0.075656    1.027577   -1.381102
  O     -0.136888    0.703011   -2.534540
  O      0.475113    2.274792   -1.002902
  C      0.717659    3.205977   -2.093192
  O     -1.934056   -0.848698    1.368551
  C     -2.867950   -1.841602    1.912524
  C     -2.673313   -1.880234    3.418675
  H     -3.866190    2.078217   -2.277633
  H     -5.124187    0.988680   -1.642666
  H     -4.730251    0.979755   -3.379272
  H     -2.424021    0.092127   -2.852598
  H     -3.682051   -1.007497   -2.232207
  H     -0.050106    0.739493    0.730172
  H      0.361643   -2.264003   -1.120743
  H      0.300785   -4.076481    2.604916
  H      1.282552   -0.943421    3.453527
  H      2.739098    1.012639    3.081349
  H      2.694133   -0.332673   -2.311883
  H      4.564787    1.300447   -2.571796
  H      5.363007    2.598823   -0.598171
  H      4.350151    2.191498    1.638432
  H      1.527540    2.833707   -2.729842
  H     -0.189136    3.335657   -2.693917
  H      1.004835    4.142672   -1.610536
  H     -2.650870   -2.810285    1.446399
  H     -3.887570   -1.535724    1.640393
  H     -2.872867   -0.897523    3.863665
  H     -1.647849   -2.180054    3.663561
  H     -3.368232   -2.606828    3.861394
