56
  Isotropic shielding for P: 180.652 ppm
  O      2.465252   -0.646643   -2.416435
  C      2.411261    0.325315   -1.682040
  N      1.264779    1.052123   -1.407832
  C     -0.027961    0.444148   -1.660685
  P     -0.518293   -0.411182   -0.034098
  O      0.620133   -1.198690    0.536865
  S     -0.978623    1.126775    1.363372
  C     -2.689875    1.768990    0.909769
  C     -2.695659    3.280222    1.168738
  C     -3.762424    1.034240    1.716758
  S     -2.261709   -1.520053   -0.511379
  C     -2.283352   -2.659035    0.994398
  C     -1.297051   -3.815670    0.821413
  C     -3.731437   -3.128956    1.178350
  C     -1.078417    1.383085   -2.197182
  C     -2.182544    0.859472   -2.889449
  C     -3.210360    1.696361   -3.327956
  C     -3.142028    3.074578   -3.092701
  C     -2.031456    3.606768   -2.430624
  C     -1.007332    2.766818   -1.984457
  O      3.468862    0.900104   -1.029879
  C      4.741014    0.185867   -1.116309
  C      5.029052   -0.570066    0.160375
  C      6.326714   -0.563570    0.691489
  C      6.628581   -1.293740    1.845947
  C      5.626465   -2.027243    2.488894
  C      4.326339   -2.026561    1.969472
  C      4.026033   -1.307720    0.809288
  H      1.339053    1.686714   -0.616374
  H      0.142625   -0.388920   -2.353200
  H     -2.822040    1.573592   -0.156942
  H     -2.515994    3.500910    2.229569
  H     -3.678193    3.692351    0.899740
  H     -1.934866    3.793283    0.573207
  H     -3.609963    1.173883    2.794790
  H     -3.755074   -0.036823    1.497296
  H     -4.755675    1.428799    1.456339
  H     -1.985771   -2.028395    1.840976
  H     -1.326918   -4.454604    1.716746
  H     -0.276420   -3.445855    0.691515
  H     -1.566981   -4.431265   -0.046607
  H     -4.418966   -2.289996    1.334932
  H     -4.076144   -3.699634    0.305678
  H     -3.789233   -3.789521    2.054530
  H     -2.235901   -0.209608   -3.086874
  H     -4.059893    1.274097   -3.861858
  H     -3.940553    3.729457   -3.436718
  H     -1.961504    4.679593   -2.259033
  H     -0.147482    3.194371   -1.476043
  H      5.499661    0.955191   -1.296785
  H      4.692925   -0.487181   -1.980738
  H      7.106646    0.019438    0.200727
  H      7.640918   -1.279770    2.247157
  H      5.855530   -2.590302    3.392465
  H      3.536941   -2.586687    2.468002
  H      3.007208   -1.318653    0.429201
