43
  Isotropic shielding for P: 288.091 ppm
  C      4.457100   -1.233559   -0.771017
  O      4.547755    0.176953   -0.394268
  C      3.878776    0.535138    0.720353
  O      3.294396   -0.250068    1.454883
  C      3.914024    2.044000    0.934306
  C      2.534324    2.589976    1.387345
  C      1.490417    2.303947    0.308863
  O      1.255525    3.070042   -0.615037
  N      0.869867    1.055308    0.429174
  P      0.308760    0.168653   -0.906199
  O      1.299618   -0.176984   -1.942624
  O     -0.287204   -1.056716   -0.024586
  C     -0.931265   -2.186388   -0.550668
  C     -1.668295   -2.938195    0.367925
  C     -2.347305   -4.077052   -0.071041
  C     -2.292508   -4.457772   -1.417216
  C     -1.548396   -3.693145   -2.320865
  C     -0.857182   -2.551836   -1.897860
  O     -0.950136    0.938412   -1.531339
  C     -2.029114    1.419940   -0.753677
  C     -3.098179    0.571164   -0.470062
  C     -4.183753    1.077816    0.252152
  C     -4.190738    2.411802    0.675000
  C     -3.109104    3.246128    0.369259
  C     -2.016034    2.754475   -0.351718
  H      3.431851   -1.448514   -1.088558
  H      4.742649   -1.871978    0.070765
  H      5.151859   -1.346516   -1.605734
  H      4.656994    2.255916    1.716394
  H      4.241655    2.540603    0.015582
  H      2.599310    3.674991    1.514725
  H      2.254547    2.133271    2.344208
  H      1.213458    0.466683    1.189788
  H     -1.704210   -2.619045    1.406880
  H     -2.921813   -4.665597    0.642036
  H     -2.824037   -5.344096   -1.757557
  H     -1.496173   -3.983519   -3.368666
  H     -0.264171   -1.967054   -2.595189
  H     -3.081082   -0.459680   -0.812883
  H     -5.025978    0.426755    0.479512
  H     -5.039123    2.801465    1.234431
  H     -3.114372    4.286723    0.689064
  H     -1.163208    3.377855   -0.605884
