53
  Isotropic shielding for P: 179.293 ppm
  C      0.222239    2.857003    2.611120
  O     -0.161110    1.843517    1.648858
  P      0.402523    1.916865    0.102477
  S      0.402459    3.729159   -0.660800
  C      2.022704    1.166792    0.005392
  C      3.261521    1.681070    0.391748
  C      4.421247    0.969171    0.103803
  C      4.378056   -0.267803   -0.605180
  C      3.113565   -0.748560   -1.029319
  C      1.963306   -0.037453   -0.707330
  C      0.582986   -0.453850   -1.120626
  O      0.401333   -1.459408   -1.819916
  C     -0.451306    0.473098   -0.603587
  C     -1.796946    0.154281   -0.448713
  N     -2.791026    1.024327   -0.068561
  C     -2.768564    2.484487   -0.075184
  C     -3.977468    0.345811    0.285324
  C     -3.817659   -1.018350    0.043358
  C     -2.437711   -1.261691   -0.543607
  C     -1.676653   -2.322165    0.282305
  C     -2.617129   -1.691671   -2.028507
  C     -4.863039   -1.894554    0.297844
  C     -6.066914   -1.384708    0.816061
  C     -6.209687   -0.014267    1.059331
  C     -5.161164    0.880474    0.794274
  N      5.540820   -0.968847   -0.878102
  C      5.491009   -2.120890   -1.776248
  C      6.840092   -0.353138   -0.619375
  H      1.259691    2.700142    2.936502
  H      0.117925    3.859671    2.178635
  H     -0.451502    2.736797    3.465171
  H      3.330645    2.647043    0.888575
  H      5.374352    1.386316    0.411549
  H      3.004108   -1.656899   -1.612319
  H     -3.732539    2.840643   -0.457360
  H     -1.972810    2.852953   -0.722631
  H     -2.611179    2.885045    0.933295
  H     -1.531099   -1.975061    1.312228
  H     -2.269962   -3.244393    0.315550
  H     -0.707534   -2.555340   -0.160574
  H     -3.192743   -2.625634   -2.059407
  H     -3.180831   -0.929801   -2.581531
  H     -1.645548   -1.842527   -2.500713
  H     -4.758352   -2.960970    0.104637
  H     -6.891926   -2.060677    1.031864
  H     -7.145208    0.368066    1.463544
  H     -5.275131    1.942783    0.993056
  H      5.177885   -1.845031   -2.798038
  H      4.792054   -2.879378   -1.400431
  H      6.484709   -2.573883   -1.827470
  H      7.627879   -1.069934   -0.865858
  H      6.948101   -0.089532    0.441562
  H      7.001927    0.560894   -1.217273
