41
  Isotropic shielding for P: 192.380 ppm
  C     -5.281945    2.333522    0.313015
  C     -4.314085    1.162375    0.273556
  C     -5.003141   -0.214912    0.187004
  C     -4.101531   -1.294625   -0.457816
  C     -4.303703   -2.689820    0.110077
  O     -2.686764   -0.935251   -0.236816
  P     -2.190376    0.372722   -1.071649
  S     -1.574424    0.120903   -2.872233
  O     -3.455617    1.360662   -0.918066
  O     -1.132991    1.010892   -0.010857
  C      0.238321    0.714013   -0.039343
  C      0.695361   -0.599156    0.076355
  C      2.068887   -0.840956    0.074674
  C      2.998776    0.210618   -0.033378
  C      2.501291    1.523258   -0.139950
  C      1.130048    1.779148   -0.148150
  C      4.457127   -0.056426   -0.040574
  C      5.355909    0.810330    0.610484
  C      6.730015    0.560683    0.600439
  C      7.237696   -0.562956   -0.060934
  C      6.356944   -1.433584   -0.712251
  C      4.983083   -1.182792   -0.702278
  H     -5.954088    2.235274    1.175851
  H     -4.738315    3.280994    0.401110
  H     -5.888944    2.360285   -0.600547
  H     -3.656567    1.188159    1.152603
  H     -5.285758   -0.516953    1.205391
  H     -5.928220   -0.134903   -0.400476
  H     -4.264813   -1.308206   -1.544853
  H     -4.064300   -2.706119    1.181106
  H     -3.663055   -3.413664   -0.406225
  H     -5.350271   -2.996918   -0.016943
  H     -0.016655   -1.415308    0.169084
  H      2.425772   -1.862988    0.183700
  H      3.196037    2.352641   -0.254807
  H      0.743644    2.789725   -0.256723
  H      4.970185    1.673228    1.150313
  H      7.405398    1.240611    1.117612
  H      8.308676   -0.757772   -0.069334
  H      6.741837   -2.305683   -1.238755
  H      4.310555   -1.850953   -1.237017
