52
  Isotropic shielding for P: 194.786 ppm
  Cl    -2.568676   -2.947787   -2.078604
  C     -2.425420   -2.918926   -0.259590
  C     -2.528238   -1.506099    0.322289
  N     -1.269197   -0.738926    0.334456
  P     -1.151678    0.733077   -0.496526
  S     -2.555726    1.019088   -1.804077
  N      0.478293    0.801488   -1.016681
  C      1.026463   -0.263878   -1.952808
  C      1.502992   -1.501120   -1.201452
  C      2.503256   -1.357664   -0.223383
  C      3.046667   -2.473477    0.416003
  C      2.603470   -3.759679    0.083646
  C      1.608808   -3.913202   -0.886993
  C      1.062003   -2.791555   -1.523283
  C      0.142701   -0.527831   -3.175421
  C      1.323644    1.928639   -0.850207
  O      2.459803    1.930645   -1.328703
  C      0.810696    3.096799   -0.098737
  C     -0.377302    3.075543    0.669821
  N     -1.133442    1.900692    0.763303
  C     -2.369346    1.930465    1.563411
  C     -0.758125    4.245841    1.360185
  C      0.022437    5.397598    1.290360
  C      1.199730    5.419869    0.532909
  C      1.582428    4.270931   -0.149551
  C     -0.463901   -0.848271    1.577112
  C     -0.089258   -2.285700    1.930769
  Cl     0.948321   -2.265644    3.429429
  H     -1.474526   -3.401304   -0.030234
  H     -3.250635   -3.536384    0.108680
  H     -2.888396   -1.599327    1.361460
  H     -3.284027   -0.943598   -0.235893
  H      1.935645    0.223181   -2.318844
  H      2.874245   -0.363291    0.017992
  H      3.816742   -2.340643    1.173175
  H      3.028200   -4.630780    0.579158
  H      1.255371   -4.908016   -1.154802
  H      0.287042   -2.932018   -2.270292
  H      0.712893   -1.144890   -3.881592
  H     -0.103425    0.417743   -3.668219
  H     -0.792341   -1.040982   -2.944169
  H     -2.824641    0.938237    1.563559
  H     -3.104719    2.638619    1.157203
  H     -2.129598    2.199854    2.598656
  H     -1.669468    4.264517    1.947069
  H     -0.299541    6.287505    1.829036
  H      1.805647    6.321259    0.476575
  H      2.492390    4.245636   -0.742744
  H     -1.011876   -0.408014    2.426388
  H      0.454517   -0.272582    1.444928
  H     -0.957061   -2.898665    2.185092
  H      0.495960   -2.766871    1.150042
