46
  Isotropic shielding for P: 170.449 ppm
  C     -3.970389    6.237961    1.999110
  C     -3.274486    5.058961    1.355368
  C     -2.764561    5.145986    0.049826
  C     -2.141157    4.056209   -0.562821
  C     -2.028181    2.863123    0.145978
  C     -2.522787    2.737708    1.442162
  C     -3.142587    3.839069    2.038182
  O     -1.431327    1.740761   -0.474069
  P      0.185754    1.501687   -0.426626
  S      1.310233    3.055587   -0.562296
  O      0.387361    0.470885   -1.657941
  C      0.180363   -0.920928   -1.670413
  C      1.219877   -1.693856   -2.187939
  C      1.092970   -3.081010   -2.200877
  C     -0.060852   -3.710686   -1.701899
  C     -1.096497   -2.900409   -1.213769
  C     -0.992274   -1.504876   -1.199226
  C     -0.178394   -5.218529   -1.709671
  S      0.288411    0.326661    1.382546
  C      1.682604   -0.735992    1.029743
  C      2.900622   -0.248738    0.528882
  C      3.922334   -1.141065    0.213437
  C      3.721204   -2.507608    0.424075
  C      2.531417   -3.003091    0.961808
  C      1.508826   -2.110286    1.262884
  N      4.790270   -3.462104    0.046699
  O      4.552169   -4.675838    0.173414
  O      5.858501   -2.996116   -0.382361
  H     -5.055630    6.200658    1.821659
  H     -3.604580    7.188610    1.592655
  H     -3.817486    6.248578    3.085370
  H     -2.848742    6.084335   -0.497248
  H     -1.733724    4.128003   -1.567344
  H     -2.422332    1.793825    1.973086
  H     -3.526005    3.747337    3.053837
  H      2.119795   -1.202362   -2.547719
  H      1.911187   -3.686374   -2.589086
  H     -2.006104   -3.364823   -0.834404
  H     -1.798602   -0.886351   -0.816668
  H     -0.289719   -5.602290   -2.734123
  H     -1.047324   -5.555129   -1.132270
  H      0.718130   -5.690226   -1.285575
  H      3.036232    0.816842    0.364916
  H      4.867287   -0.794533   -0.193346
  H      2.411557   -4.071393    1.108414
  H      0.556433   -2.478370    1.633937
