88
  Isotropic shielding for P: 104.100 ppm
  C     -0.447445    6.289606    1.317548
  C      0.390466    5.026144    1.044658
  C      1.670600    5.108081    1.909309
  C     -0.442994    3.768155    1.425590
  C      0.154457    2.485303    0.856277
  O     -0.730926    1.373734    1.193522
  P     -0.019219    0.020254    1.845207
  O     -1.337435   -0.942701    1.882949
  C     -2.247746   -1.085394    0.733894
  C     -3.525910   -0.297671    0.997514
  C     -4.447784   -0.330465   -0.249488
  C     -5.920663   -0.107105    0.168724
  C     -4.037425    0.793410   -1.229721
  N     -4.232001   -1.617963   -0.966891
  C     -3.875481   -2.845367   -0.216635
  C     -2.537324   -2.578297    0.550213
  C     -4.973610   -3.334697    0.769531
  C     -3.654056   -3.946088   -1.273063
  O      0.785683   -0.452801    0.454613
  C      1.927368   -1.346548    0.600422
  C      2.965366   -0.965764   -0.449874
  C      4.273802   -1.775962   -0.252729
  C      5.032977   -1.903683   -1.595916
  C      5.189837   -1.050040    0.760050
  N      3.928715   -3.087837    0.358042
  C      2.649602   -3.762834    0.033385
  C      1.477467   -2.804525    0.429275
  C      2.510875   -4.190143   -1.454350
  C      2.601998   -5.032590    0.906263
  C      0.297571    2.581496   -0.661019
  C      1.161310    3.800905   -1.088046
  N      0.733087    5.056463   -0.406257
  C      2.659984    3.518786   -0.826756
  C      0.980640    4.045948   -2.597992
  H     -0.739875    6.339494    2.373643
  H      0.127322    7.191472    1.071681
  H     -1.366819    6.289223    0.714526
  H      2.266911    4.192019    1.873608
  H      2.300994    5.936381    1.565703
  H      1.402034    5.282481    2.959435
  H     -1.462041    3.870734    1.022460
  H     -0.531899    3.685036    2.517492
  H      1.137602    2.292860    1.314475
  H     -1.742263   -0.688417   -0.151842
  H     -4.031819   -0.727172    1.872880
  H     -3.274791    0.738850    1.244351
  H     -6.036934    0.856912    0.683626
  H     -6.574340   -0.092691   -0.715536
  H     -6.273535   -0.895220    0.841695
  H     -4.621447    0.722052   -2.157532
  H     -4.213868    1.784015   -0.789257
  H     -2.977377    0.709452   -1.493442
  H     -5.014986   -1.804822   -1.594202
  H     -2.580070   -3.042565    1.543723
  H     -1.697893   -3.041254    0.017638
  H     -4.695793   -4.305374    1.203354
  H     -5.932154   -3.457636    0.247039
  H     -5.122623   -2.634882    1.597988
  H     -3.314500   -4.875869   -0.798551
  H     -4.586756   -4.166347   -1.812601
  H     -2.900730   -3.624406   -2.001754
  H      2.352503   -1.206352    1.605124
  H      3.185319    0.106973   -0.387046
  H      2.538711   -1.145769   -1.446329
  H      4.437199   -2.426846   -2.350525
  H      5.291144   -0.912244   -1.994125
  H      5.970999   -2.459143   -1.453848
  H      4.661520   -0.871993    1.703781
  H      5.536127   -0.087216    0.360326
  H      6.073308   -1.663164    0.983812
  H      4.707805   -3.738633    0.254892
  H      0.703815   -2.824357   -0.348523
  H      1.002137   -3.143421    1.357972
  H      1.598353   -4.785287   -1.598749
  H      2.448301   -3.327082   -2.125369
  H      3.368589   -4.803905   -1.761710
  H      3.409072   -5.727618    0.632137
  H      1.647592   -5.558172    0.774092
  H      2.717152   -4.769299    1.964160
  H     -0.712276    2.684238   -1.086544
  H      0.722869    1.648815   -1.049286
  H     -0.083567    5.410521   -0.906556
  H      3.251530    4.419500   -1.027654
  H      2.859616    3.205456    0.201817
  H      3.008116    2.713414   -1.486699
  H      1.590662    4.897572   -2.925210
  H     -0.070821    4.260019   -2.837302
  H      1.280385    3.160158   -3.171487
