60
  Isotropic shielding for P: 255.533 ppm
  O     -3.773408   -1.706822    0.506712
  P     -2.908229   -0.600558   -0.019432
  C     -3.768915    0.441651   -1.235295
  C     -3.102173    1.365848   -2.057245
  C     -3.825297    2.152875   -2.957056
  C     -5.216975    2.024692   -3.039782
  C     -5.885033    1.104709   -2.224385
  C     -5.164365    0.314243   -1.324677
  C     -2.282895    0.453420    1.326655
  C     -2.799319    0.248996    2.615360
  C     -2.336086    1.018909    3.686717
  C     -1.356269    1.995180    3.475664
  C     -0.839656    2.203342    2.191186
  C     -1.301505    1.436499    1.120445
  N     -1.488193   -0.998769   -0.838823
  C     -0.427869   -1.733179   -0.089803
  C     -0.168317   -3.088508   -0.749150
  C      1.082767   -3.454108   -1.259971
  C      1.264335   -4.706766   -1.860725
  C      0.198967   -5.605406   -1.950337
  C     -1.053579   -5.247642   -1.433415
  C     -1.237431   -3.999161   -0.837574
  C      0.803500   -0.865385    0.102686
  C      1.290132   -0.044312   -0.922099
  C      2.404252    0.768278   -0.718659
  C      3.071347    0.791233    0.521908
  C      2.578808   -0.039699    1.544493
  C      1.465000   -0.852700    1.334875
  C      4.247016    1.666994    0.743468
  C      5.187011    1.890951   -0.281137
  C      6.295224    2.714754   -0.072867
  C      6.489804    3.335140    1.166080
  C      5.564694    3.122530    2.194063
  C      4.456956    2.298288    1.984765
  H     -2.020857    1.462753   -1.997605
  H     -3.304467    2.865678   -3.594567
  H     -5.778682    2.639553   -3.741329
  H     -6.966770    1.000602   -2.291187
  H     -5.666764   -0.413620   -0.690950
  H     -3.551331   -0.523312    2.763097
  H     -2.736870    0.854131    4.685662
  H     -0.992996    2.591691    4.311296
  H     -0.069440    2.954363    2.025131
  H     -0.878237    1.584714    0.131666
  H     -1.631912   -1.352201   -1.782487
  H     -0.825854   -1.948840    0.912575
  H      1.919775   -2.764245   -1.186869
  H      2.242249   -4.977216   -2.256340
  H      0.341103   -6.579194   -2.416275
  H     -1.887622   -5.945402   -1.491845
  H     -2.211268   -3.720949   -0.434265
  H      0.772633   -0.018663   -1.879255
  H      2.744384    1.420551   -1.520954
  H      3.081602   -0.059132    2.509400
  H      1.095579   -1.478744    2.146801
  H      5.060551    1.392549   -1.240412
  H      7.013867    2.865285   -0.877091
  H      7.353804    3.977013    1.328886
  H      5.701947    3.606745    3.159797
  H      3.731377    2.160775    2.784273
