64
  Isotropic shielding for P: 249.643 ppm
  C      4.297398    3.094884   -2.320558
  C      4.462177    1.941715   -1.354185
  C      5.720723    1.359726   -1.129616
  C      5.880002    0.261829   -0.278142
  C      4.756168   -0.258795    0.369699
  C      3.491353    0.316099    0.168816
  C      3.349792    1.403764   -0.687110
  C      2.406482   -0.280403    1.042562
  O      2.412413    0.547310    2.236933
  C      1.008194   -0.281194    0.362149
  O      0.943247   -0.461076   -0.883102
  C     -0.138163   -0.103291    1.164737
  P     -1.649184   -0.023276    0.332104
  C     -1.683748    1.232850   -0.982604
  C     -0.845859    2.350848   -0.859951
  C     -0.873986    3.352797   -1.830759
  C     -1.739572    3.245083   -2.926205
  C     -2.576560    2.131084   -3.049504
  C     -2.549110    1.123585   -2.080494
  C     -2.260469   -1.563733   -0.436764
  C     -3.475921   -2.138698   -0.028759
  C     -3.921267   -3.329841   -0.610896
  C     -3.158683   -3.954107   -1.602227
  C     -1.949605   -3.380982   -2.014226
  C     -1.498013   -2.189746   -1.442727
  C     -2.896473    0.455742    1.566069
  C     -3.837681    1.461249    1.300896
  C     -4.789530    1.804552    2.266350
  C     -4.810844    1.144568    3.498529
  C     -3.876346    0.136964    3.766496
  C     -2.924110   -0.208378    2.805911
  C      2.865943   -1.761180    1.367406
  S      4.743562   -1.626380    1.488885
  C      2.531208   -2.741716    0.228195
  C      2.314619   -2.291705    2.696673
  H      5.226194    3.670601   -2.421369
  H      3.505695    3.781016   -1.992312
  H      4.021238    2.737624   -3.324597
  H      6.595076    1.766001   -1.638748
  H      6.863170   -0.180019   -0.127360
  H      2.363201    1.831488   -0.851801
  H      1.874598    0.106784    2.918287
  H     -0.124510    0.167690    2.213286
  H     -0.165011    2.415907   -0.013666
  H     -0.213756    4.213362   -1.738488
  H     -1.755658    4.024589   -3.686138
  H     -3.245445    2.041419   -3.903757
  H     -3.190261    0.251452   -2.186010
  H     -4.078925   -1.662617    0.739514
  H     -4.865044   -3.766755   -0.288615
  H     -3.505603   -4.882202   -2.053889
  H     -1.352427   -3.862793   -2.786717
  H     -0.558611   -1.738058   -1.749437
  H     -3.822297    1.982027    0.346962
  H     -5.512121    2.590583    2.054367
  H     -5.551851    1.413960    4.249162
  H     -3.889607   -0.380262    4.724277
  H     -2.204026   -0.996956    3.013720
  H      2.883817   -2.369530   -0.737674
  H      1.446366   -2.890892    0.154374
  H      3.003300   -3.710154    0.430243
  H      2.668596   -3.315632    2.869638
  H      2.639547   -1.687254    3.551383
  H      1.216498   -2.321529    2.661589
