67
  Isotropic shielding for P: 250.191 ppm
  C      2.567472   -0.091407   -4.523691
  O      1.828043    0.175363   -3.301185
  C      2.245790   -0.539171   -2.219480
  O      3.265538   -1.188063   -2.165102
  C      1.294649   -0.265893   -1.032497
  C     -0.121647   -0.681673   -1.287694
  C     -0.402707   -1.743931   -2.202490
  O     -1.775332   -2.034554   -2.233761
  C     -2.170226   -3.065780   -3.162528
  O      0.396281   -2.352979   -2.913438
  P     -1.396060    0.018054   -0.360961
  C     -0.679979    1.395838    0.591022
  C     -0.018967    1.110801    1.798511
  C      0.668344    2.119768    2.474395
  C      0.685317    3.421268    1.961689
  C      0.012740    3.713125    0.770267
  C     -0.665376    2.702772    0.081563
  C     -2.714871    0.695647   -1.426369
  C     -4.070414    0.691277   -1.070831
  C     -5.022383    1.241195   -1.934564
  C     -4.627106    1.797772   -3.155215
  C     -3.275286    1.793206   -3.517770
  C     -2.322324    1.239452   -2.660644
  C     -2.171888   -1.037250    0.906119
  C     -1.866350   -2.403716    0.951344
  C     -2.414311   -3.205789    1.955963
  C     -3.261931   -2.649325    2.918695
  C     -3.554524   -1.280399    2.887615
  C     -3.006924   -0.474375    1.887860
  N      1.874735   -0.834192    0.204944
  N      1.360165   -1.949307    0.821213
  N      1.974225   -2.127237    1.963274
  C      2.907888   -1.117455    2.118924
  C      2.851761   -0.281442    0.982456
  C      3.657398    0.860341    0.863862
  C      4.510236    1.130211    1.925822
  C      4.589976    0.302782    3.084329
  C      3.784582   -0.829510    3.179627
  C      5.562536    0.666132    4.186703
  H      2.448764   -1.145444   -4.796709
  H      2.120311    0.559254   -5.279392
  H      3.630515    0.138543   -4.390775
  H      1.341145    0.821908   -0.878412
  H     -1.665204   -4.011678   -2.932984
  H     -1.928189   -2.776841   -4.192650
  H     -3.252239   -3.168970   -3.040019
  H     -0.026885    0.101207    2.199908
  H      1.200841    1.884005    3.393215
  H      1.223124    4.206977    2.489475
  H      0.017720    4.726687    0.373061
  H     -1.179123    2.932232   -0.848823
  H     -4.391540    0.240142   -0.136646
  H     -6.074702    1.226801   -1.655830
  H     -5.371111    2.222121   -3.827355
  H     -2.964059    2.208866   -4.474647
  H     -1.274706    1.195606   -2.952308
  H     -1.173413   -2.823785    0.231267
  H     -2.162500   -4.263802    1.994426
  H     -3.681128   -3.276338    3.703970
  H     -4.197110   -0.839604    3.647916
  H     -3.208252    0.595213    1.889357
  H      3.626251    1.504015   -0.011831
  H      5.153833    2.008285    1.872413
  H      3.824783   -1.480769    4.051101
  H      6.601732    0.627727    3.829252
  H      5.387093    1.686784    4.555725
  H      5.474877   -0.020499    5.036513
