76
  Isotropic shielding for P: 321.822 ppm
  C      3.795775    4.208842   -0.731402
  C      4.083059    3.134553    0.310385
  O      3.186796    1.985741    0.136095
  C      1.981514    2.068409    0.739249
  O      1.578014    3.023089    1.381476
  C      1.158821    0.832890    0.511704
  C     -0.128594    0.918888    0.152711
  C     -0.758283    2.241683   -0.152514
  O     -0.512422    2.887613   -1.155865
  O     -1.626727    2.609082    0.814583
  C     -2.374657    3.847408    0.571174
  C     -3.376937    3.996004    1.702261
  P     -1.071374   -0.700170    0.197714
  O      0.582061   -1.447393    0.453832
  C      1.674182   -0.587260    0.736090
  C      1.963034   -0.841062    2.232451
  Br     3.466334    0.204572    3.041006
  C      2.809663   -0.950924   -0.227571
  C      3.861161   -1.796512    0.138022
  C      4.816915   -2.196501   -0.801117
  C      4.752100   -1.768985   -2.134026
  C      3.697026   -0.914615   -2.494073
  C      2.744667   -0.513299   -1.559161
  C      5.766693   -2.230738   -3.156162
  C     -1.540759   -1.158853    1.906389
  C     -1.724864   -2.501995    2.262128
  C     -2.027148   -2.842318    3.583534
  C     -2.132075   -1.847040    4.561738
  C     -1.939969   -0.506954    4.209929
  C     -1.652362   -0.159849    2.886212
  C     -2.723843    0.121138   -0.314947
  C     -2.796978    0.651904   -1.614488
  C     -3.958172    1.270673   -2.081566
  C     -5.087929    1.350329   -1.258801
  C     -5.039557    0.804222    0.026394
  C     -3.866140    0.198197    0.492454
  C     -1.320686   -2.044327   -1.060082
  C     -0.322177   -2.398844   -1.977072
  C     -0.568750   -3.377712   -2.944943
  C     -1.797206   -4.043776   -2.978291
  C     -2.789922   -3.709877   -2.050264
  C     -2.562985   -2.699013   -1.114036
  H      2.786435    4.615067   -0.605192
  H      4.517330    5.029804   -0.620725
  H      3.889095    3.802130   -1.745783
  H      5.081509    2.702350    0.190708
  H      3.964018    3.513598    1.330769
  H     -1.657457    4.676119    0.532185
  H     -2.861274    3.760401   -0.407155
  H     -2.869639    4.060259    2.672842
  H     -3.959146    4.915607    1.557779
  H     -4.070046    3.147316    1.719143
  H      2.215201   -1.889450    2.389633
  H      1.087518   -0.578911    2.824136
  H      3.959739   -2.147158    1.161211
  H      5.628738   -2.852590   -0.487047
  H      3.625133   -0.552535   -3.519890
  H      1.949602    0.161830   -1.867396
  H      5.956855   -1.457120   -3.911007
  H      5.410239   -3.125285   -3.689073
  H      6.721816   -2.491049   -2.683616
  H     -1.617951   -3.282581    1.512947
  H     -2.170980   -3.888167    3.850495
  H     -2.358961   -2.115044    5.592208
  H     -2.015946    0.273395    4.965421
  H     -1.516038    0.885355    2.619817
  H     -1.935134    0.588275   -2.278074
  H     -3.983401    1.684628   -3.088549
  H     -5.997920    1.826509   -1.620587
  H     -5.915999    0.849245    0.672023
  H     -3.852027   -0.212162    1.498092
  H      0.651479   -1.924973   -1.928344
  H      0.210322   -3.629138   -3.662956
  H     -1.981776   -4.818057   -3.721315
  H     -3.748895   -4.225361   -2.063435
  H     -3.359936   -2.419220   -0.430618
