57
  Isotropic shielding for P: 280.717 ppm
  C      2.842076   -2.649658   -2.459337
  O      2.756957   -1.516738   -1.549829
  C      2.621822   -1.827154   -0.232727
  O      2.612471   -2.970458    0.188032
  C      2.446472   -0.595722    0.664263
  C      1.120890   -0.791347    1.441481
  C     -0.067876   -0.968363    0.516080
  C     -0.206719   -0.226874   -0.611546
  P      0.927400    1.147270   -1.113397
  C      2.532820    0.743060   -0.094815
  C      2.912982    1.950661    0.726669
  O      3.538169    2.898918    0.284741
  O      2.436902    1.899753    2.005977
  C      2.635352    3.108323    2.791845
  C      0.210705    2.551263   -0.128093
  C      0.605387    3.849108   -0.499322
  C      0.121695    4.966679    0.187127
  C     -0.780550    4.804094    1.243548
  C     -1.194587    3.517590    1.608293
  C     -0.701843    2.400857    0.928359
  C     -1.268403   -0.473603   -1.624222
  C     -1.447440   -1.757060   -2.172860
  C     -2.420567   -1.990362   -3.144707
  C     -3.234573   -0.942880   -3.592885
  C     -3.057925    0.340160   -3.065708
  C     -2.078550    0.574878   -2.096331
  C     -1.066340   -1.994835    0.921574
  C     -0.662125   -3.300848    1.256607
  C     -1.606017   -4.265026    1.619250
  C     -2.964765   -3.936167    1.679510
  C     -3.374362   -2.634090    1.370230
  C     -2.434671   -1.674997    0.990004
  H      3.716446   -3.264190   -2.220458
  H      2.930750   -2.210095   -3.454886
  H      1.936452   -3.260448   -2.381761
  H      3.270381   -0.641679    1.391987
  H      1.216210   -1.670665    2.083970
  H      0.970257    0.071009    2.101302
  H      3.296453    0.674514   -0.872980
  H      2.112846    3.947413    2.321796
  H      2.207268    2.885076    3.771766
  H      3.702409    3.340110    2.875110
  H      1.304712    3.982698   -1.322583
  H      0.445718    5.963385   -0.108258
  H     -1.165389    5.673857    1.773716
  H     -1.902126    3.383188    2.425537
  H     -1.028117    1.406195    1.221031
  H     -0.819855   -2.574016   -1.824675
  H     -2.543289   -2.991256   -3.555987
  H     -3.994721   -1.124892   -4.350693
  H     -3.682776    1.162800   -3.410265
  H     -1.954665    1.576417   -1.689786
  H      0.391193   -3.568710    1.199274
  H     -1.278334   -5.276180    1.856219
  H     -3.698059   -4.686880    1.969475
  H     -4.428339   -2.365685    1.423209
  H     -2.759918   -0.668001    0.739927
