64
  Isotropic shielding for P: 149.298 ppm
  C     -5.340285    0.252175   -1.250632
  C     -4.725745    0.599826    0.122768
  C     -3.259024    0.204315    0.196171
  C     -2.816526   -0.733545    1.125118
  C     -1.474366   -1.128555    1.222329
  C     -1.132989   -2.154443    2.299166
  C     -2.037309   -3.403959    2.231109
  C     -1.179339   -1.504754    3.699818
  C     -0.523410   -0.532897    0.350344
  C     -0.954473    0.435890   -0.608735
  C     -2.309743    0.767696   -0.662194
  C     -0.044210    1.129476   -1.625101
  C     -0.149112    2.667229   -1.546455
  C     -0.326147    0.608396   -3.051685
  P      1.255466   -0.943335    0.482908
  B      2.078344   -2.226439    1.640716
  O      1.625470   -1.313901   -1.096839
  C      2.937949   -1.151487   -1.529842
  C      3.378188   -2.055140   -2.497529
  C      4.675517   -1.959300   -2.998429
  C      5.532255   -0.961217   -2.518815
  C      5.075610   -0.055954   -1.563421
  C      3.762518   -0.106389   -1.053225
  C      3.268159    0.890410   -0.075856
  C      2.099079    0.648070    0.683427
  C      1.628384    1.586135    1.606957
  C      2.304282    2.792673    1.794466
  C      3.445012    3.062295    1.031154
  C      3.913288    2.129016    0.106097
  C     -4.924273    2.093670    0.462516
  H     -4.864375    0.828210   -2.055288
  H     -6.413646    0.483909   -1.262123
  H     -5.215599   -0.813362   -1.480724
  H     -5.256938    0.010417    0.885352
  H     -3.544370   -1.180421    1.799938
  H     -0.114830   -2.505365    2.143709
  H     -3.081703   -3.179625    2.484278
  H     -1.678700   -4.157204    2.944597
  H     -2.018296   -3.850342    1.228870
  H     -0.483861   -0.658648    3.766616
  H     -0.892359   -2.234837    4.467816
  H     -2.187137   -1.136457    3.936877
  H     -2.634943    1.495419   -1.402470
  H      0.992167    0.888872   -1.408079
  H      0.068024    3.023029   -0.532181
  H      0.577440    3.125254   -2.230387
  H     -1.145165    3.031023   -1.829036
  H     -1.349994    0.844936   -3.370740
  H     -0.195468   -0.478940   -3.100058
  H      0.367113    1.069275   -3.768005
  H      1.908241   -1.831321    2.772603
  H      3.228397   -2.081610    1.276943
  H      1.632490   -3.324909    1.405867
  H      2.694410   -2.833682   -2.827453
  H      5.021840   -2.673135   -3.743341
  H      6.555774   -0.894673   -2.881738
  H      5.760679    0.698763   -1.186024
  H      0.724883    1.374282    2.175809
  H      1.938702    3.519358    2.517298
  H      3.969819    4.008697    1.149876
  H      4.782746    2.378291   -0.496470
  H     -5.992043    2.350260    0.467122
  H     -4.427295    2.736800   -0.275861
  H     -4.508667    2.331880    1.449698
