103
  Isotropic shielding for P: 137.153 ppm
  Cl     0.541923   -2.946340   -0.439764
  P     -0.078652   -1.043648   -0.905311
  Se    -0.629448   -0.665323   -2.860927
  O      1.107703   -0.032616   -0.421643
  C      1.548952   -0.035785    0.921326
  C      0.675992    0.365146    1.919951
  C     -0.640458    0.976224    1.596782
  C     -1.561199    0.312899    0.799539
  O     -1.180871   -0.940951    0.287875
  C     -2.879460    0.763353    0.535524
  C     -3.233105    1.981843    1.094724
  C     -2.318220    2.775404    1.833588
  C     -0.990749    2.281964    2.079046
  C     -0.072823    3.128364    2.760180
  C     -0.456305    4.377629    3.206623
  C     -1.777331    4.846358    3.000386
  C     -2.685244    4.059692    2.322759
  Si    -4.138380   -0.170309   -0.538820
  C     -3.779719   -2.011791   -0.514029
  C     -3.646748   -2.686258    0.716144
  C     -3.313884   -4.040870    0.767997
  C     -3.102053   -4.753367   -0.418122
  C     -3.225458   -4.101840   -1.647886
  C     -3.561924   -2.744721   -1.693179
  C     -4.114288    0.551754   -2.272433
  C     -3.272247    1.616861   -2.635556
  C     -3.299783    2.151815   -3.927519
  C     -4.170495    1.623514   -4.885521
  C     -5.023545    0.568036   -4.541636
  C     -4.998539    0.045838   -3.245658
  C     -5.857092    0.186521    0.160258
  C     -6.526113    1.371049   -0.210141
  C     -7.786913    1.685984    0.305932
  C     -8.413015    0.813351    1.202531
  C     -7.772503   -0.373793    1.573100
  C     -6.509397   -0.680919    1.056456
  C      1.107966    0.189623    3.279336
  C      0.241128    0.385117    4.388654
  C      0.685822    0.183806    5.680801
  C      2.020976   -0.216623    5.931427
  C      2.882999   -0.430453    4.875355
  C      2.453214   -0.248246    3.532545
  C      3.332708   -0.473924    2.439944
  C      2.908031   -0.383224    1.125750
  Si     4.091107   -0.530371   -0.347921
  C      5.850082   -0.668177    0.321157
  C      6.725661   -1.712988   -0.026683
  C      8.044780   -1.740574    0.441533
  C      8.516829   -0.717701    1.268875
  C      7.666576    0.338923    1.616982
  C      6.352827    0.362320    1.142922
  C      3.671537   -2.015258   -1.412871
  C      3.085802   -1.864956   -2.682142
  C      2.719163   -2.978877   -3.443868
  C      2.940617   -4.267384   -2.951347
  C      3.518947   -4.438610   -1.687962
  C      3.873286   -3.322566   -0.926872
  C      4.020093    1.059297   -1.352513
  C      4.807093    1.150453   -2.518047
  C      4.829514    2.315662   -3.288740
  C      4.067623    3.424034   -2.901460
  C      3.289688    3.357920   -1.741599
  C      3.268483    2.186426   -0.977437
  H     -4.243081    2.366297    0.958278
  H      0.945173    2.787891    2.922288
  H      0.265843    5.011352    3.718739
  H     -2.066585    5.830157    3.365449
  H     -3.698745    4.414290    2.138565
  H     -3.766428   -2.140242    1.651953
  H     -3.205163   -4.537884    1.731028
  H     -2.831222   -5.807568   -0.381531
  H     -3.045331   -4.644885   -2.574506
  H     -3.624907   -2.248530   -2.658324
  H     -2.576688    2.028812   -1.907799
  H     -2.633871    2.973263   -4.188105
  H     -4.188306    2.033595   -5.894351
  H     -5.709325    0.156703   -5.281170
  H     -5.681882   -0.763650   -2.988975
  H     -6.063497    2.048584   -0.926947
  H     -8.284232    2.606052    0.001221
  H     -9.397764    1.052115    1.601713
  H     -8.259827   -1.064536    2.260169
  H     -6.037353   -1.618088    1.344569
  H     -0.787867    0.683189    4.211349
  H      0.001428    0.329015    6.514949
  H      2.359146   -0.364871    6.955413
  H      3.908417   -0.752824    5.053085
  H      4.368067   -0.728817    2.659007
  H      6.381023   -2.512040   -0.679560
  H      8.703713   -2.559844    0.156579
  H      9.542584   -0.737563    1.634179
  H      8.030852    1.146847    2.250319
  H      5.712388    1.203350    1.408603
  H      2.891155   -0.869545   -3.073888
  H      2.247106   -2.837090   -4.414383
  H      2.654155   -5.135874   -3.542710
  H      3.682187   -5.440657   -1.293250
  H      4.294090   -3.475390    0.066684
  H      5.412455    0.299554   -2.831060
  H      5.441016    2.360681   -4.189002
  H      4.082047    4.333684   -3.500120
  H      2.695270    4.216794   -1.432689
  H      2.652704    2.158354   -0.081065
