64
  Isotropic shielding for P: 240.368 ppm
  C      3.844340    2.817884    1.875803
  C      3.156392    3.354027    0.627247
  O      2.489584    2.272843   -0.106679
  P      0.954456    1.896897    0.235398
  O      0.596641    1.898066    1.683996
  C      0.834038    0.287233   -0.680694
  C     -0.582088   -0.195384   -0.579861
  C     -1.266721   -0.513078    0.580476
  N     -2.531003   -0.888513    0.217824
  N     -2.711843   -0.814508   -1.135135
  C     -1.536616   -0.388117   -1.626399
  C     -1.388862   -0.170430   -3.073886
  C     -0.734139    0.969719   -3.576234
  C     -0.621783    1.170864   -4.955018
  C     -1.165166    0.243801   -5.850315
  C     -1.830212   -0.885887   -5.358047
  C     -1.941220   -1.092196   -3.982279
  C     -3.603868   -1.267329    1.071197
  C     -4.915346   -1.272584    0.574743
  C     -5.968049   -1.631171    1.418577
  C     -5.728501   -1.978963    2.752987
  C     -4.416717   -1.974599    3.238599
  C     -3.352538   -1.626662    2.403907
  N      1.854166   -0.703798   -0.285050
  C      1.829522   -1.187352    1.117634
  C      3.113037   -1.924746    1.422225
  C      4.040976   -1.393705    2.329209
  C      5.237713   -2.065763    2.604633
  C      5.520599   -3.277721    1.967629
  C      4.602432   -3.813184    1.055103
  C      3.408132   -3.140608    0.784705
  O      0.092315    2.944996   -0.654137
  C     -1.059976    3.662463   -0.086997
  C     -2.361344    2.907715   -0.316208
  H      4.551567    2.021225    1.613723
  H      3.103617    2.421599    2.578525
  H      4.401659    3.626487    2.369052
  H      2.421463    4.130950    0.877415
  H      3.874762    3.774967   -0.085382
  H      1.044181    0.537169   -1.726768
  H     -0.960485   -0.433864    1.612066
  H     -0.350986    1.720759   -2.889845
  H     -0.118777    2.061229   -5.329284
  H     -1.076902    0.402561   -6.923756
  H     -2.259897   -1.609680   -6.048917
  H     -2.454697   -1.968743   -3.593837
  H     -5.087500   -0.995377   -0.460249
  H     -6.984820   -1.632476    1.029574
  H     -6.554026   -2.253595    3.406614
  H     -4.214235   -2.251567    4.271664
  H     -2.336450   -1.650092    2.788097
  H      2.774112   -0.304227   -0.477220
  H      1.693290   -0.373760    1.848568
  H      0.974441   -1.868997    1.220811
  H      3.818668   -0.449964    2.826161
  H      5.946281   -1.643273    3.315610
  H      6.449654   -3.804051    2.180765
  H      4.817459   -4.758183    0.558324
  H      2.696056   -3.552090    0.070793
  H     -0.876979    3.825040    0.981137
  H     -1.059239    4.629110   -0.603954
  H     -3.203185    3.529293    0.019841
  H     -2.380963    1.973000    0.252776
  H     -2.506920    2.675941   -1.377454
