59
  Isotropic shielding for P: 278.285 ppm
  N      5.972074    1.089124    1.920154
  C      6.133093    1.242325    0.780460
  C      6.317474    1.421197   -0.660445
  C      5.202186    0.739914   -1.492547
  N      3.902869    1.330372   -1.237710
  N      3.640771    2.625308   -1.609545
  C      2.406653    2.888175   -1.154315
  C      1.859931    1.755759   -0.490811
  C      2.855779    0.774529   -0.548745
  N      2.892518   -0.496507   -0.055100
  C      1.806328   -0.949311    0.526071
  C      0.531575   -0.297801    0.752911
  C     -0.583898   -1.083928    1.057207
  N     -1.793798   -0.639984    1.533208
  C     -2.101474    0.592592    2.266229
  C     -2.791741   -1.632494    1.417123
  C     -2.222441   -2.816233    0.946483
  C     -0.727281   -2.610604    0.772979
  C     -0.004941   -3.466099    1.855972
  C     -0.282392   -2.998540   -0.653044
  C     -3.011026   -3.943956    0.766000
  C     -4.385746   -3.861989    1.048832
  C     -4.942634   -2.667244    1.519123
  C     -4.149935   -1.526355    1.715594
  P      0.399686    1.511437    0.464374
  O      0.252051    2.432997    1.645331
  C     -1.018558    1.696375   -0.678018
  C     -1.886494    2.782847   -0.497563
  C     -2.966357    2.973128   -1.366562
  C     -3.187763    2.074586   -2.415636
  C     -2.320863    0.990019   -2.602124
  C     -1.237647    0.806371   -1.740176
  C      1.770548    4.226575   -1.358050
  H      7.292615    1.005082   -0.950956
  H      6.329803    2.494927   -0.889655
  H      5.122908   -0.322712   -1.244522
  H      5.442376    0.851019   -2.557018
  H      1.908593   -1.963003    0.906908
  H     -2.611777    0.312824    3.197234
  H     -1.190074    1.149152    2.488834
  H     -2.764009    1.236677    1.677086
  H     -0.299244   -3.145700    2.862071
  H      1.084330   -3.407554    1.779924
  H     -0.296899   -4.516323    1.734536
  H      0.787740   -2.832839   -0.806672
  H     -0.493408   -4.060839   -0.827250
  H     -0.834061   -2.415998   -1.399399
  H     -2.580459   -4.878346    0.409149
  H     -5.020948   -4.732771    0.900413
  H     -6.008283   -2.617173    1.734448
  H     -4.587700   -0.599239    2.075034
  H     -1.703974    3.466396    0.329464
  H     -3.634606    3.821036   -1.223531
  H     -4.030738    2.219750   -3.089416
  H     -2.489256    0.292221   -3.421036
  H     -0.556213   -0.028021   -1.892958
  H      2.459990    4.897949   -1.880583
  H      1.497313    4.672449   -0.392300
  H      0.847431    4.138456   -1.947664
