93
  Isotropic shielding for P: 270.545 ppm
  C      9.718389   -2.728143   -1.907161
  C      9.805946   -3.519286   -0.591316
  C      8.665864   -4.540774   -0.394924
  C      7.242404   -3.946942   -0.379813
  C      6.998914   -2.926168    0.746296
  C      5.543569   -2.427553    0.845992
  C      5.088986   -1.574719   -0.352542
  C      3.634991   -1.069972   -0.263687
  C      3.380647   -0.059676    0.868968
  C      1.930082    0.461773    0.932045
  C      1.444395    1.247154   -0.303770
  C      2.236393    2.536393   -0.581542
  C      1.777455    3.300031   -1.843476
  C      0.287595    3.695237   -1.864427
  C     -0.127829    4.693755   -0.766521
  C     -1.656780    4.841912   -0.630140
  C     -2.298787    3.604143    0.024119
  C     -3.812302    3.530916   -0.158752
  O     -4.352691    3.734411   -1.252067
  N     -4.523188    3.182097    0.961946
  C     -5.949148    2.873583    0.903002
  C     -6.310214    1.662661    1.759276
  O     -5.580275    0.475579    1.309928
  P     -4.293060   -0.018205    2.141383
  O     -3.571363    1.054345    2.865407
  O     -4.826204   -1.158892    3.140567
  C     -5.852754   -2.079719    2.860668
  C     -5.906877   -2.792608    1.661481
  C     -6.941458   -3.715518    1.474441
  C     -7.898664   -3.926691    2.472400
  C     -7.820534   -3.208099    3.670752
  C     -6.796303   -2.277811    3.869630
  O     -3.466526   -0.853544    1.060455
  C     -2.505771   -0.139583    0.201187
  C     -2.856970   -0.347511   -1.268886
  C     -4.239686    0.158403   -1.708442
  C     -3.979042    0.609481   -3.159171
  C     -2.561783    1.186262   -3.067137
  O     -1.881607    0.421300   -2.023406
  H      8.823873   -2.092724   -1.942847
  H     10.591375   -2.074338   -2.033926
  H      9.678863   -3.404887   -2.772943
  H      9.826991   -2.818366    0.256020
  H     10.764011   -4.059580   -0.558608
  H      8.835565   -5.082785    0.549035
  H      8.725329   -5.293827   -1.196932
  H      7.025916   -3.489210   -1.355142
  H      6.521093   -4.772208   -0.268493
  H      7.286657   -3.385749    1.705428
  H      7.661604   -2.056878    0.614663
  H      5.436922   -1.843459    1.771113
  H      4.867984   -3.293194    0.949621
  H      5.199161   -2.158872   -1.277394
  H      5.765992   -0.709871   -0.454643
  H      2.958024   -1.931664   -0.138423
  H      3.367479   -0.611708   -1.226631
  H      3.620556   -0.522311    1.836835
  H      4.077608    0.785597    0.758393
  H      1.822845    1.101723    1.822192
  H      1.255804   -0.395147    1.091270
  H      1.467143    0.603533   -1.195954
  H      0.385319    1.493145   -0.152839
  H      2.173691    3.193273    0.300297
  H      3.303275    2.298130   -0.699659
  H      2.398731    4.202522   -1.959070
  H      1.981839    2.672250   -2.725023
  H     -0.317342    2.782405   -1.790213
  H      0.046591    4.133622   -2.844932
  H      0.317730    5.675520   -0.987815
  H      0.288124    4.385405    0.204840
  H     -1.897363    5.731654   -0.030131
  H     -2.111849    4.994559   -1.618161
  H     -2.026235    3.545631    1.087055
  H     -1.896233    2.700961   -0.455823
  H     -4.010744    2.880754    1.790023
  H     -6.209500    2.703725   -0.148158
  H     -6.556270    3.724971    1.254450
  H     -7.373812    1.425511    1.646436
  H     -6.096942    1.845741    2.819891
  H     -5.154063   -2.631517    0.895771
  H     -6.992995   -4.274609    0.541783
  H     -8.697917   -4.649007    2.319173
  H     -8.558447   -3.368473    4.454735
  H     -6.714589   -1.708555    4.792716
  H     -1.517238   -0.549161    0.432905
  H     -2.511486    0.924118    0.447812
  H     -2.739629   -1.415150   -1.525095
  H     -5.011380   -0.613376   -1.622540
  H     -4.549152    1.014107   -1.101402
  H     -4.007701   -0.248219   -3.845236
  H     -4.704617    1.355230   -3.501649
  H     -2.587446    2.246054   -2.779517
  H     -1.978661    1.076878   -3.990015
