63
  Isotropic shielding for P: 244.472 ppm
  O      3.598709    1.809977    2.249851
  C      2.608174    1.899478    1.204752
  C      2.638011    0.649111    0.293430
  C      1.559526    0.966696   -0.790683
  O      0.843153   -0.209966   -1.268377
  P      0.077714   -1.172179   -0.204854
  O      0.266448   -2.598076   -0.561344
  O      0.720191   -0.669941    1.196648
  C      2.185769   -0.577234    1.131320
  C     -1.714131   -0.615362   -0.063324
  C     -2.325892   -1.256437    1.206747
  C     -2.063948   -2.598430    1.530325
  C     -2.681278   -3.202321    2.628204
  C     -3.588496   -2.487256    3.416000
  C     -3.876573   -1.160399    3.086880
  C     -3.251511   -0.552885    1.993179
  C     -2.485938   -1.122588   -1.306511
  C     -1.877307   -1.256155   -2.565905
  C     -2.614720   -1.663109   -3.680937
  C     -3.979640   -1.939299   -3.565312
  C     -4.597155   -1.804779   -2.319219
  C     -3.856755   -1.404282   -1.203322
  C     -1.696264    0.926871    0.001008
  C     -2.048039    1.710753   -1.106548
  C     -1.964576    3.107092   -1.057597
  C     -1.536692    3.749883    0.105928
  C     -1.192975    2.978850    1.222372
  C     -1.266037    1.586480    1.168158
  C      4.056450    0.361355   -0.371341
  C      4.672639    1.672393   -0.911531
  C      5.060580   -0.257023    0.637770
  C      3.905999   -0.634340   -1.550286
  H      3.416706    2.514533    2.894564
  H      2.769181    2.806886    0.600592
  H      1.602010    1.967083    1.644039
  H      2.015083    1.398946   -1.684245
  H      0.827576    1.682669   -0.406272
  H      2.522135   -0.485723    2.166021
  H      2.567840   -1.515790    0.719466
  H     -1.378534   -3.175990    0.916266
  H     -2.453410   -4.241004    2.862804
  H     -4.069566   -2.960024    4.270709
  H     -4.592992   -0.591722    3.678014
  H     -3.501461    0.475329    1.749353
  H     -0.821663   -1.039447   -2.696013
  H     -2.113987   -1.767771   -4.642150
  H     -4.552723   -2.260658   -4.433452
  H     -5.659102   -2.018575   -2.207806
  H     -4.356525   -1.321379   -0.242944
  H     -2.387867    1.232855   -2.019775
  H     -2.241450    3.690194   -1.934516
  H     -1.477097    4.836179    0.146581
  H     -0.864844    3.463726    2.140897
  H     -0.978703    1.003163    2.036601
  H      5.594062    1.446189   -1.463471
  H      4.933204    2.360861   -0.099165
  H      3.999304    2.193476   -1.605032
  H      5.221060    0.393204    1.500308
  H      6.023920   -0.410429    0.133071
  H      4.731614   -1.238925    0.999710
  H      3.434495   -1.576468   -1.248289
  H      3.314259   -0.224257   -2.376212
  H      4.901934   -0.873809   -1.945033
