38
  Isotropic shielding for P: 198.544 ppm
  O      0.421396    2.462068   -0.186523
  P     -0.111054    1.007432   -0.728362
  O     -0.651646    1.203463   -2.118097
  C      1.321087   -0.135721   -0.663203
  C      1.835218   -0.393830    0.781983
  C      3.270652   -0.945926    0.745077
  C      4.262343    0.102182    0.173902
  C      3.583065    1.056501   -0.843064
  C      2.461690    0.345165   -1.618400
  C     -1.353704    0.437313    0.491471
  C     -1.800848   -1.019962    0.170739
  C     -3.175381   -1.307321    0.799089
  C     -4.280077   -0.424739    0.160128
  C     -3.730871    0.944830   -0.318853
  C     -2.565086    1.421651    0.563221
  H      0.712535    2.467143    0.746499
  H      0.916869   -1.080132   -1.056023
  H      1.163927   -1.094240    1.292779
  H      1.828721    0.533932    1.373583
  H      3.281684   -1.853237    0.122915
  H      3.582320   -1.254178    1.751944
  H      5.101638   -0.419367   -0.307357
  H      4.689269    0.694881    0.995163
  H      4.329479    1.453524   -1.543952
  H      3.159295    1.923086   -0.317484
  H      2.877657   -0.531512   -2.134200
  H      2.056210    0.998000   -2.401941
  H     -0.844140    0.440617    1.465773
  H     -1.866467   -1.168828   -0.917033
  H     -1.048790   -1.726849    0.541640
  H     -3.115950   -1.112740    1.880288
  H     -3.427293   -2.370310    0.686742
  H     -4.727538   -0.952834   -0.693772
  H     -5.086545   -0.268991    0.890590
  H     -4.533517    1.694460   -0.316454
  H     -3.378629    0.867756   -1.356224
  H     -2.257387    2.436057    0.279199
  H     -2.900136    1.484258    1.608116
