42
  Isotropic shielding for P: 209.751 ppm
  C      2.340609    2.380006   -1.268194
  S      0.988522    1.551508   -2.197939
  C      0.442134    0.265323   -1.079953
  N      1.047496   -0.379628   -0.160233
  C      2.437250   -0.406126    0.064602
  C      2.928034   -0.161531    1.359205
  C      4.298933   -0.246458    1.612632
  C      5.188454   -0.612721    0.592911
  C      4.693293   -0.892246   -0.687622
  C      3.326905   -0.785313   -0.958432
  P     -1.373315   -0.079386   -1.318446
  S     -1.825592   -0.216506   -3.243422
  C     -2.181645    1.293164   -0.434619
  C     -1.638678    1.774779    0.769213
  C     -2.269338    2.822691    1.444831
  C     -3.441198    3.389060    0.926417
  C     -3.981409    2.908190   -0.272122
  C     -3.351094    1.863324   -0.955463
  C     -1.692109   -1.601271   -0.377425
  C     -2.512948   -1.606930    0.759569
  C     -2.755337   -2.807530    1.438133
  C     -2.175196   -3.998109    0.988962
  C     -1.352983   -3.992348   -0.147059
  C     -1.115525   -2.800384   -0.832524
  H      3.280930    1.830764   -1.345811
  H      2.436280    3.361150   -1.745010
  H      2.051487    2.505701   -0.222093
  H      2.229611    0.109837    2.148572
  H      4.673442   -0.035166    2.613133
  H      6.254896   -0.688875    0.796690
  H      5.374416   -1.190098   -1.483516
  H      2.940331   -0.998534   -1.952746
  H     -0.730336    1.338563    1.178350
  H     -1.844457    3.197750    2.374236
  H     -3.929567    4.206295    1.454659
  H     -4.890332    3.348593   -0.678317
  H     -3.757962    1.494870   -1.894915
  H     -2.966301   -0.686225    1.116512
  H     -3.398381   -2.808357    2.316537
  H     -2.363722   -4.930227    1.519104
  H     -0.899709   -4.917537   -0.498806
  H     -0.485988   -2.800064   -1.719899
