15
  Isotropic shielding for P: 148.153 ppm
  Br     0.491986    2.742158   -1.105613
  C     -0.227468    1.086788   -0.428146
  C     -1.620836    1.012440   -0.369068
  C     -2.242024   -0.146280    0.104305
  C     -1.471108   -1.234739    0.520125
  C     -0.080831   -1.159247    0.461969
  C      0.568241   -0.000348   -0.011573
  P      2.388421   -0.084416   -0.013207
  S      3.192534   -1.721543    0.627334
  Cl     2.954566    0.386546   -1.957844
  Cl     3.014101    1.591309    1.046671
  H     -2.216968    1.860774   -0.694086
  H     -3.328653   -0.189769    0.144538
  H     -1.944995   -2.141242    0.889664
  H      0.523031   -2.002331    0.784931
