26
  Isotropic shielding for P: 59.937 ppm
  Cl     0.035272    3.790240    0.832396
  P      0.250454    2.568768   -1.004865
  N      0.009613    0.974388   -0.509272
  C      1.263357    0.270428   -0.322065
  C      2.126733    0.082393   -1.409234
  C      3.357577   -0.552950   -1.210849
  C      3.712725   -1.015490    0.060766
  C      2.835179   -0.837784    1.140391
  C      1.613580   -0.187902    0.955773
  C     -1.199754    0.318101   -0.092875
  C     -2.140585    0.953959    0.727318
  C     -3.314240    0.280969    1.083475
  C     -3.547807   -1.025204    0.639542
  C     -2.597634   -1.659606   -0.171988
  C     -1.428582   -0.991757   -0.542291
  Cl    -1.621517    3.000363   -1.882687
  H      1.829042    0.423384   -2.398537
  H      4.030187   -0.696084   -2.054582
  H      4.667773   -1.515144    0.212056
  H      3.109990   -1.194322    2.131521
  H      0.933185   -0.029549    1.789455
  H     -1.957378    1.960277    1.089368
  H     -4.042328    0.781011    1.720121
  H     -4.460372   -1.545868    0.923996
  H     -2.770051   -2.674634   -0.526048
  H     -0.694317   -1.477990   -1.180784
