46
  Isotropic shielding for P: 231.540 ppm
  C      3.017553   -1.910099    2.393729
  C      3.244843   -1.355916    0.994037
  O      1.974044   -1.068837    0.315692
  P      1.209957    0.352762    0.496703
  O      1.889294    1.230182    1.504166
  C     -0.524588   -0.002324    0.761887
  Si    -1.617340    1.556673    0.452200
  C     -0.707218    3.151459    0.897410
  C     -2.153229    1.671924   -1.352776
  C     -3.120915    1.436938    1.589615
  Si    -1.142739   -1.632374   -0.058043
  C     -0.477366   -3.115945    0.901980
  C     -0.604251   -1.720966   -1.862526
  C     -3.027778   -1.750278    0.036557
  O      1.172986    0.958862   -1.003511
  C      2.422452    1.327585   -1.674937
  C      2.066355    1.963108   -3.008384
  H      2.507675   -1.173140    3.025686
  H      3.987189   -2.147201    2.853241
  H      2.417126   -2.826947    2.362575
  H      3.850450   -0.443526    1.021905
  H      3.739952   -2.088893    0.347570
  H     -0.593142   -0.183790    1.847908
  H      0.158620    3.325545    0.248450
  H     -1.400878    3.996940    0.780626
  H     -0.355553    3.139249    1.936698
  H     -2.756271    0.814802   -1.674086
  H     -2.759237    2.578767   -1.492063
  H     -1.279225    1.742995   -2.011317
  H     -3.722034    2.353180    1.500843
  H     -3.765853    0.584665    1.351026
  H     -2.804933    1.343439    2.638116
  H     -0.702160   -3.020325    1.973485
  H      0.606026   -3.221290    0.788639
  H     -0.956937   -4.036580    0.539524
  H      0.487658   -1.765663   -1.949062
  H     -0.955814   -0.851656   -2.430911
  H     -1.023155   -2.625041   -2.327042
  H     -3.328644   -2.721195   -0.383456
  H     -3.546871   -0.967984   -0.528380
  H     -3.378394   -1.714463    1.076249
  H      2.976245    2.024828   -1.033085
  H      3.023718    0.418690   -1.811017
  H      1.464648    2.868491   -2.860395
  H      1.501506    1.262333   -3.635712
  H      2.986232    2.240817   -3.539707
