38
  Isotropic shielding for P: 398.094 ppm
  C      2.684439   -1.548207    2.524577
  Sn     2.169101   -0.240622    0.850511
  P     -0.211011    0.544249    1.368626
  Sn    -1.510369   -1.419259    0.359437
  C     -1.390194   -1.337586   -1.821926
  C     -0.729176   -3.312115    1.132452
  C     -3.595911   -1.153497    0.966826
  C     -0.634503    1.738741    0.010457
  C     -1.840434    2.458715    0.149566
  C     -2.256186    3.369235   -0.826736
  C     -1.468343    3.593732   -1.962923
  C     -0.265100    2.893840   -2.111212
  C      0.143664    1.974506   -1.138820
  C      3.482274    1.510050    0.835644
  C      2.407526   -1.354918   -1.020943
  H      3.712622   -1.906382    2.398212
  H      2.000682   -2.403179    2.546337
  H      2.604309   -0.992031    3.464822
  H     -0.370533   -1.564678   -2.146801
  H     -1.665937   -0.333272   -2.158779
  H     -2.085726   -2.072596   -2.243350
  H      0.269554   -3.496104    0.723511
  H     -1.402897   -4.123292    0.833249
  H     -0.674375   -3.265736    2.225232
  H     -3.950792   -0.175933    0.622762
  H     -3.669600   -1.205461    2.058487
  H     -4.208893   -1.944085    0.518475
  H     -2.460284    2.299017    1.031357
  H     -3.194570    3.907205   -0.696914
  H     -1.787620    4.305701   -2.722271
  H      0.357311    3.055993   -2.990505
  H      1.071657    1.430689   -1.295636
  H      4.522401    1.174964    0.749025
  H      3.353016    2.069025    1.768639
  H      3.232441    2.153154   -0.014388
  H      1.827552   -2.282064   -0.971200
  H      2.063973   -0.753613   -1.868433
  H      3.469929   -1.594485   -1.147365
