30
  Isotropic shielding for P: -10.028 ppm
  C      2.563807   -0.486782   -0.682064
  N      1.451171    0.177186    0.029621
  C      1.807187    1.542953    0.490278
  C      0.662629    2.556500    0.168677
  N      0.183921    2.275525   -1.187140
  P     -0.245968    0.752006   -1.444247
  N     -1.425102    0.227242   -0.296425
  C     -1.475739   -1.204042    0.108807
  C     -0.074526   -1.755014    0.487439
  C      0.857248   -0.691916    1.087755
  C     -2.166853   -2.080763   -0.948356
  C     -2.200569    1.145152    0.538164
  H      2.239914   -1.463821   -1.053124
  H      2.860854    0.131158   -1.535514
  H      3.430381   -0.627089   -0.016826
  H      2.029590    1.536205    1.566715
  H      2.707552    1.855242   -0.047662
  H     -0.110941    2.489804    0.951056
  H      1.084169    3.571532    0.231922
  H     -2.085938   -1.225385    1.021838
  H     -0.201946   -2.570728    1.211199
  H      0.402812   -2.204202   -0.394338
  H      0.301179   -0.048098    1.778031
  H      1.670644   -1.163801    1.661219
  H     -3.182780   -1.716935   -1.147296
  H     -1.602589   -2.067919   -1.890174
  H     -2.231254   -3.122307   -0.603602
  H     -2.204468    2.140756    0.082198
  H     -1.803268    1.233172    1.564898
  H     -3.241213    0.794370    0.607350
