22
  Isotropic shielding for P: 200.968 ppm
  C     -2.670017    0.434724    0.512312
  P     -1.850329   -0.918433   -0.390565
  O     -2.814008   -1.949360   -0.933336
  C     -0.493331   -1.520862    0.705650
  C      0.635218   -0.544411    0.439129
  C      0.524326    0.190196   -0.763080
  C     -0.705406   -0.115121   -1.595075
  C      1.497784    1.138531   -1.094043
  C      2.585869    1.348255   -0.238316
  C      2.695774    0.619533    0.954141
  C      1.717926   -0.322211    1.296310
  H     -3.217539    0.013658    1.364015
  H     -3.376132    0.934545   -0.161434
  H     -1.934437    1.162289    0.875001
  H     -0.240470   -2.542240    0.382980
  H     -0.793979   -1.563220    1.758931
  H     -1.145627    0.771936   -2.065158
  H     -0.495796   -0.850354   -2.386759
  H      1.403192    1.714501   -2.013930
  H      3.343558    2.086206   -0.497013
  H      3.539126    0.791331    1.621115
  H      1.794295   -0.879594    2.229225
