58
  Isotropic shielding for P: 301.726 ppm
  O      3.469291    0.204624    1.181875
  C      2.590284   -0.464237    0.600490
  C      1.346375    0.113488    0.093785
  C      1.032084    1.389571   -0.324747
  O     -0.254616    1.433618   -0.791085
  P     -1.244221    0.035533   -0.489696
  O      0.292223   -0.746632   -0.066968
  N     -2.525656    0.902748   -1.246393
  C     -2.957539    2.239390   -0.858059
  C     -3.459644    0.117030   -2.030090
  C     -2.653600   -1.102475   -2.466062
  N     -1.683920   -1.342380   -1.389274
  C     -0.929042   -2.589990   -1.534133
  N     -1.772589    0.071873    1.101363
  C     -3.222344   -0.060473    1.422885
  C     -3.239468   -0.603390    2.863343
  C     -1.943597   -0.031075    3.466772
  C     -0.941637   -0.177696    2.312136
  C      1.774842    2.637539   -0.495975
  C      1.307178    3.565605   -1.459416
  C      1.970894    4.773914   -1.668886
  C      3.108429    5.097253   -0.916525
  C      3.569873    4.195381    0.049828
  C      2.914039    2.980379    0.264482
  C      2.792192   -1.940227    0.421447
  C      3.394498   -2.675556    1.457632
  C      3.653851   -4.038829    1.297013
  C      3.341095   -4.673864    0.087144
  C      2.761168   -3.941205   -0.956769
  C      2.475904   -2.584336   -0.786362
  H     -2.313395    2.637877   -0.070198
  H     -2.924748    2.932901   -1.714005
  H     -3.992764    2.222636   -0.477451
  H     -3.823550    0.688826   -2.896296
  H     -4.343758   -0.186385   -1.434354
  H     -3.291144   -1.986750   -2.593527
  H     -2.134433   -0.915796   -3.423570
  H     -1.639775   -3.386968   -1.792052
  H     -0.175927   -2.533244   -2.336659
  H     -0.426469   -2.859586   -0.606451
  H     -3.724736   -0.740488    0.723464
  H     -3.727021    0.913824    1.369731
  H     -4.143562   -0.302109    3.404749
  H     -3.194574   -1.701326    2.854334
  H     -1.612315   -0.559595    4.368197
  H     -2.079696    1.029878    3.719667
  H     -0.507378   -1.187930    2.301820
  H     -0.119994    0.543950    2.378394
  H      0.427427    3.323780   -2.048798
  H      1.599059    5.466892   -2.422307
  H      3.623116    6.043151   -1.077420
  H      4.443956    4.441983    0.651101
  H      3.270421    2.289804    1.019440
  H      3.645916   -2.172162    2.389238
  H      4.101916   -4.606103    2.111320
  H      3.550186   -5.734739   -0.041710
  H      2.525949   -4.428609   -1.901614
  H      2.020248   -2.019491   -1.594694
