42
  Isotropic shielding for P: 293.288 ppm
  C     -4.233802   -2.656399    0.124461
  C     -5.035306   -1.626777   -0.687365
  O     -4.347284   -0.349787   -0.523986
  C     -3.081225   -0.557925    0.187821
  C     -2.812641   -2.065275    0.083931
  C     -2.033365    0.374006   -0.418407
  P     -0.441916    0.435726    0.581201
  C      0.321082    1.968886   -0.122047
  C      0.830397    2.924355    0.772294
  C      1.434869    4.097497    0.302909
  C      1.532531    4.330014   -1.073126
  C      1.022787    3.386145   -1.975793
  C      0.423388    2.215196   -1.502998
  C      0.548729   -0.898197   -0.291612
  C      1.924999   -1.120923    0.323567
  C      2.997109   -0.044271    0.049882
  C      4.335325   -0.838989    0.016168
  C      3.891702   -2.320002    0.111483
  O      2.488412   -2.339443   -0.245375
  H     -4.599240   -2.700323    1.159119
  H     -4.294175   -3.662991   -0.304925
  H     -6.070174   -1.513743   -0.337530
  H     -5.050449   -1.881433   -1.758596
  H     -3.239014   -0.283748    1.245681
  H     -2.171155   -2.429836    0.894275
  H     -2.327053   -2.294976   -0.874952
  H     -2.428350    1.398650   -0.406995
  H     -1.838016    0.097769   -1.463922
  H      0.758885    2.745081    1.844696
  H      1.828149    4.826226    1.010408
  H      2.001859    5.240663   -1.442541
  H      1.095717    3.562709   -3.048278
  H      0.040273    1.488511   -2.217482
  H     -0.032725   -1.822808   -0.185638
  H      0.638353   -0.675400   -1.363905
  H      1.823022   -1.269168    1.415088
  H      2.804229    0.435714   -0.916196
  H      2.987844    0.735634    0.818139
  H      4.997055   -0.572689    0.848348
  H      4.877309   -0.649071   -0.917076
  H      4.416842   -2.987957   -0.580050
  H      4.014820   -2.700647    1.139922
