16
  Isotropic shielding for P: -23.296 ppm
  C     -2.292286   -0.019595    0.840967
  C     -1.058989    0.291386    0.025210
  C     -1.138656    1.208967   -1.042837
  N     -0.134049    1.578701   -1.840641
  P      1.418751    1.002418   -1.704273
  C      1.362212   -0.113251   -0.350713
  C      0.160719   -0.329712    0.333458
  C      2.620965   -0.839691    0.071464
  H     -2.156841    0.288156    1.887543
  H     -2.497579   -1.098866    0.846372
  H     -3.172845    0.497816    0.443743
  H     -2.113747    1.666835   -1.245640
  H      0.167514   -1.035003    1.170469
  H      2.883282   -0.590914    1.109587
  H      3.474513   -0.578957   -0.566559
  H      2.477233   -1.928291    0.022052
