45
  Isotropic shielding for P: 220.302 ppm
  C      2.834358   -1.593250   -1.282987
  C      2.587729   -0.257014   -0.548452
  C      1.269350   -0.316080    0.277094
  P     -0.383400   -0.181695   -0.542263
  S     -0.688412   -1.352155   -2.124338
  C     -0.578769    1.601804   -0.948860
  C     -0.971681    1.993926   -2.234776
  C     -1.134340    3.349028   -2.542400
  C     -0.906801    4.323330   -1.564047
  C     -0.519268    3.936935   -0.274756
  C     -0.356398    2.583197    0.032990
  C     -1.585535   -0.364748    0.861569
  C     -2.057111   -1.760833    1.368278
  C     -0.886578   -2.746395    1.565971
  C     -3.093544   -2.367610    0.396571
  C     -2.743427   -1.520385    2.735529
  C      2.593502    0.906546   -1.561909
  C      3.730266   -0.037130    0.473659
  H      3.806309   -1.565258   -1.794368
  H      2.054263   -1.789810   -2.025309
  H      2.848001   -2.430170   -0.571115
  H      1.266105    0.498042    1.015217
  H      1.246386   -1.251436    0.847634
  H     -1.141546    1.232469   -2.993304
  H     -1.436412    3.642370   -3.546659
  H     -1.030647    5.378388   -1.803129
  H     -0.341552    4.689126    0.492185
  H     -0.053165    2.303513    1.039406
  H     -1.116240    0.185682    1.690047
  H     -2.465339    0.217032    0.556081
  H     -0.137271   -2.341087    2.258745
  H     -0.391270   -2.980582    0.615830
  H     -1.261533   -3.687604    1.989823
  H     -3.476114   -3.315276    0.799916
  H     -2.653299   -2.558973   -0.587227
  H     -3.944821   -1.685338    0.265059
  H     -3.150877   -2.462178    3.127509
  H     -3.570932   -0.804357    2.638806
  H     -2.029210   -1.122549    3.469340
  H      3.573400    0.962004   -2.054969
  H      1.833178    0.769502   -2.339799
  H      2.406706    1.868198   -1.067676
  H      3.608312    0.919683    0.999513
  H      3.744920   -0.840612    1.222727
  H      4.702508   -0.028258   -0.037455
