49
  Isotropic shielding for P: 277.674 ppm
  C      0.942075    0.929829    3.804039
  C      0.524611    1.600974    2.496404
  O      1.124972    0.933264    1.368955
  P      0.172484    0.149341    0.105240
  O     -0.380733    1.541308   -0.579560
  C      0.171699    2.885747   -0.444051
  C     -0.910857    3.835448    0.051170
  C     -0.876581   -0.860054    1.288075
  C     -1.973590   -1.146846    0.235957
  C     -1.040622   -0.941613   -1.035250
  C     -0.361166   -2.262179   -1.449314
  C     -1.701276   -0.341853   -2.278136
  C     -2.625310   -2.534050    0.377637
  C     -3.078501   -0.074423    0.341795
  C      1.774329   -0.394331   -0.607206
  C      2.626510   -1.286329    0.059165
  C      3.805534   -1.727612   -0.551659
  C      4.152386   -1.265696   -1.827941
  C      3.308410   -0.368186   -2.493589
  C      2.118657    0.055913   -1.890893
  H      2.036345    0.916079    3.895232
  H      0.578727   -0.104859    3.848163
  H      0.531527    1.478758    4.663595
  H     -0.571898    1.619412    2.408039
  H      0.860937    2.649976    2.488271
  H      0.513594    3.169512   -1.448597
  H      1.037068    2.869989    0.223280
  H     -1.251319    3.553960    1.054907
  H     -0.513991    4.859157    0.094826
  H     -1.774854    3.830478   -0.625726
  H     -0.286737   -1.754346    1.535595
  H     -1.198228   -0.396793    2.224677
  H     -1.107297   -2.966077   -1.847524
  H      0.377356   -2.082946   -2.239389
  H      0.157624   -2.762221   -0.622720
  H     -0.950405   -0.174528   -3.063161
  H     -2.454814   -1.033980   -2.691280
  H     -2.190325    0.614974   -2.078811
  H     -3.297487   -2.741698   -0.467480
  H     -3.225576   -2.577995    1.297630
  H     -1.881299   -3.336845    0.426687
  H     -3.578615   -0.158701    1.316870
  H     -2.677295    0.940946    0.253808
  H     -3.838607   -0.209138   -0.438607
  H      2.371360   -1.638632    1.056868
  H      4.456878   -2.426952   -0.028871
  H      5.074191   -1.602464   -2.299892
  H      3.572697   -0.001718   -3.484699
  H      1.457615    0.737804   -2.422427
