34
  Isotropic shielding for P: 309.759 ppm
  C     -3.677359    1.674026    0.923374
  C     -3.638738    0.963550   -0.282314
  C     -2.518098    0.191191   -0.608387
  C     -1.422723    0.120381    0.268551
  C     -1.467754    0.836005    1.476367
  C     -2.587811    1.608529    1.801204
  P      0.040208   -0.892082   -0.144068
  O     -0.452511   -1.882440   -1.414757
  C     -1.121099   -3.108059   -1.032722
  C     -1.319617   -3.028160    0.491656
  O     -0.261103   -2.185485    0.962292
  N      1.346931   -0.466960    0.881913
  C      2.313968    0.392628    0.367458
  C      1.988023    0.748278   -0.964899
  N      0.810645    0.134765   -1.346358
  C      2.832435    1.588225   -1.695535
  C      3.998548    2.076519   -1.078375
  C      4.317707    1.721481    0.239292
  C      3.474751    0.865875    0.974090
  H     -4.549821    2.273983    1.177687
  H     -4.482505    1.007102   -0.969691
  H     -2.497232   -0.357240   -1.547687
  H     -0.625299    0.791085    2.163830
  H     -2.610187    2.158309    2.741158
  H     -2.074540   -3.172561   -1.569767
  H     -0.476491   -3.949061   -1.318877
  H     -2.297455   -2.588827    0.742034
  H     -1.230707   -4.008486    0.972126
  H      1.491755   -0.945081    1.763533
  H      0.507963    0.152486   -2.313364
  H      2.586680    1.855906   -2.722258
  H      4.658965    2.738784   -1.636056
  H      5.223635    2.107677    0.703168
  H      3.718638    0.577558    1.995681
