31
  Isotropic shielding for P: 232.449 ppm
  C     -1.305448    2.710700    1.333370
  C     -0.033793    1.962151    0.904268
  P     -0.009779    1.149815   -0.647198
  O     -0.030221    1.855771   -2.002100
  C     -1.354343   -0.102299   -0.591760
  C     -1.895592   -0.561423   -1.804214
  C     -2.924515   -1.509695   -1.814156
  C     -3.435210   -2.004249   -0.607898
  C     -2.910119   -1.548345    0.607694
  C     -1.874220   -0.608923    0.613053
  C      1.556530    0.179033   -0.446736
  C      1.587145   -1.203140   -0.156398
  C      2.784193   -1.826522    0.226510
  C      3.967966   -1.086114    0.318085
  C      3.960458    0.278254   -0.003963
  C      2.771210    0.901783   -0.392319
  Li     1.111665    0.423255    1.769724
  H     -1.524858    3.608493    0.728138
  H     -1.227925    3.044858    2.378465
  H     -2.194137    2.067550    1.274231
  H      0.859124    2.610042    0.959866
  H     -1.511431   -0.162188   -2.740655
  H     -3.331109   -1.858222   -2.762389
  H     -4.240752   -2.737071   -0.614187
  H     -3.308507   -1.920551    1.550532
  H     -1.481022   -0.252455    1.563198
  H      0.669408   -1.785582   -0.197688
  H      2.783529   -2.887891    0.468560
  H      4.889610   -1.564868    0.643406
  H      4.878144    0.860649    0.061657
  H      2.773997    1.966889   -0.619295
