23
  Isotropic shielding for P: 430.428 ppm
  P      4.476229   -0.266793    0.317774
  C      2.635478   -0.236626   -0.075062
  N      2.299477    1.077291   -0.650139
  C      0.878145    1.191486   -1.080580
  C     -0.128051    1.033535    0.033993
  C     -0.958642   -0.008299    0.169547
  C     -1.954815   -0.189762    1.293765
  C     -3.381378   -0.158631    0.789669
  C     -4.234756   -1.187983    0.836398
  H      4.529969   -1.617740    0.776535
  H      4.953783   -0.585774   -0.988667
  H      2.382221   -1.012235   -0.807435
  H      2.096686   -0.476040    0.859406
  H      2.495549    1.807818    0.040140
  H      0.703220    0.432264   -1.856215
  H      0.768974    2.179820   -1.550769
  H     -0.128376    1.820974    0.795178
  H     -0.954287   -0.794125   -0.592308
  H     -1.808323    0.610228    2.036162
  H     -1.775465   -1.151116    1.800041
  H     -3.699850    0.785758    0.339156
  H     -3.946840   -2.145887    1.272965
  H     -5.248752   -1.108262    0.445844
