34
  Isotropic shielding for P: 254.043 ppm
  C      0.772293    1.953481    2.643651
  C      1.116130    0.518676    2.319543
  C      2.104746   -0.174634    2.903383
  P      0.180729   -0.306655    1.020461
  O      0.478276   -1.746548    0.791365
  O      0.344430    0.621614   -0.314763
  C      1.467526    0.459031   -1.153506
  C      2.592320    1.257528   -0.940751
  C      3.686633    1.125985   -1.804017
  C      3.647227    0.207690   -2.860769
  C      2.507068   -0.582342   -3.057462
  C      1.406780   -0.461092   -2.200919
  O     -1.341917    0.065450    1.423718
  C     -2.431269   -0.423413    0.663200
  C     -2.971381   -1.670496    0.977648
  C     -4.080654   -2.124883    0.254641
  C     -4.632341   -1.336600   -0.763297
  C     -4.074408   -0.086265   -1.059313
  C     -2.964516    0.379861   -0.344678
  H      1.460980    2.346514    3.400496
  H      0.834921    2.586736    1.748518
  H     -0.254236    2.034612    3.024791
  H      2.316726   -1.207378    2.635461
  H      2.729244    0.284544    3.670445
  H      2.604917    1.968526   -0.118103
  H      4.569240    1.743968   -1.648272
  H      4.500182    0.109622   -3.529761
  H      2.471139   -1.296433   -3.878427
  H      0.514137   -1.067115   -2.335710
  H     -2.528791   -2.267097    1.771637
  H     -4.512310   -3.096083    0.490263
  H     -5.495518   -1.694311   -1.321517
  H     -4.501617    0.530839   -1.847815
  H     -2.516688    1.346765   -0.560146
