20
  Isotropic shielding for P: 147.031 ppm
  C     -2.766357   -0.145562   -0.370560
  P     -1.403290   -0.030117    0.815279
  S     -1.917122   -0.023016    2.708716
  O     -0.480095   -1.261042    0.316180
  C      0.926002   -1.358878    0.754052
  C      1.839190   -0.683252   -0.263781
  C      1.728028    0.851099   -0.336855
  C      0.344212    1.398987   -0.679935
  O     -0.564423    1.314306    0.484802
  H     -2.381140   -0.078145   -1.394914
  H     -3.282956   -1.101607   -0.233571
  H     -3.464106    0.676267   -0.178651
  H      1.126949   -2.432895    0.813873
  H      1.025126   -0.924327    1.757630
  H      1.637169   -1.119542   -1.253113
  H      2.873602   -0.951730   -0.002766
  H      2.419301    1.214402   -1.111681
  H      2.052011    1.302684    0.612340
  H      0.392069    2.469986   -0.899020
  H     -0.104267    0.882381   -1.538023
