37
  Isotropic shielding for P: 277.623 ppm
  C      0.558055    3.638982   -0.570731
  C     -0.745694    2.869230   -0.400209
  O     -0.492389    1.644700    0.429781
  P      0.093961    0.316414   -0.207233
  O     -0.263596    0.023544   -1.617877
  O      1.671610    0.442188    0.102065
  C      2.590081   -0.449614   -0.505378
  C      2.826877   -1.693796    0.078313
  C      3.774672   -2.540747   -0.509139
  C      4.468067   -2.138325   -1.657541
  C      4.215150   -0.881875   -2.223072
  C      3.268486   -0.026490   -1.647596
  O     -0.330459   -0.811423    0.867843
  C     -1.646034   -1.338705    0.843325
  C     -1.869339   -2.543527    0.178272
  C     -3.157544   -3.091104    0.193824
  C     -4.196939   -2.433709    0.864537
  C     -3.947734   -1.224871    1.526619
  C     -2.663508   -0.667121    1.521066
  C     -1.832920    3.640012    0.332830
  H      0.963210    3.933413    0.405851
  H      1.308027    3.040543   -1.100705
  H      0.367345    4.546763   -1.157677
  H     -1.114476    2.515198   -1.370041
  H      2.280862   -1.988220    0.971152
  H      3.970290   -3.515199   -0.065123
  H      5.204601   -2.800220   -2.109282
  H      4.752651   -0.564207   -3.114818
  H      3.054007    0.951723   -2.071626
  H     -1.049167   -3.035032   -0.339808
  H     -3.346751   -4.031141   -0.321472
  H     -5.197118   -2.862919    0.872402
  H     -4.752062   -0.711909    2.050985
  H     -2.450591    0.269910    2.029156
  H     -1.483356    3.954809    1.324640
  H     -2.094862    4.536238   -0.243876
  H     -2.733808    3.026391    0.449642
