61
  Isotropic shielding for P: 253.298 ppm
  C      0.664206    2.648404   -2.270584
  C     -0.033752    1.284076   -2.191247
  N     -0.651402    0.995007   -0.876741
  P     -0.447057   -0.512000   -0.156750
  N      0.959030   -1.160640   -0.505131
  C      2.234659   -0.614369   -0.477667
  C      2.574584    0.663858    0.034083
  C      3.893169    1.127040    0.024259
  C      4.948747    0.355129   -0.487097
  C      4.620977   -0.917385   -0.990297
  C      3.308231   -1.389778   -0.988642
  C      6.369738    0.877083   -0.523554
  N     -1.694284   -1.501430   -0.701253
  C     -1.822199   -2.844952   -0.089596
  C     -3.279027   -3.295995    0.070300
  C     -2.064035   -1.442023   -2.139122
  C     -3.386573   -0.713242   -2.405133
  N     -0.755465   -0.412243    1.487177
  C      0.366179   -0.432077    2.450289
  C      0.602499    0.895610    3.182472
  C     -2.110954   -0.224054    2.053904
  C     -2.453482   -1.195253    3.192607
  C     -1.751800    1.902155   -0.473229
  C     -1.334057    2.994914    0.520446
  H     -0.046739    3.476171   -2.159838
  H      1.141372    2.750898   -3.254960
  H      1.437274    2.744223   -1.500407
  H     -0.808490    1.235851   -2.975907
  H      0.688447    0.490385   -2.400803
  H      1.792518    1.301428    0.436113
  H      4.105715    2.118106    0.429320
  H      5.412054   -1.553522   -1.391275
  H      3.083592   -2.381091   -1.382655
  H      7.096651    0.076746   -0.330013
  H      6.523144    1.665999    0.223976
  H      6.618340    1.306542   -1.506963
  H     -1.271316   -3.580936   -0.700407
  H     -1.334374   -2.816895    0.889235
  H     -3.309889   -4.280293    0.557166
  H     -3.846099   -2.587406    0.686433
  H     -3.782169   -3.387615   -0.900211
  H     -1.260731   -0.972499   -2.718787
  H     -2.130869   -2.475609   -2.505475
  H     -3.627761   -0.752546   -3.476900
  H     -3.324866    0.339485   -2.109452
  H     -4.210763   -1.176578   -1.849509
  H      0.177063   -1.225375    3.187434
  H      1.267939   -0.725059    1.908528
  H     -0.283244    1.212216    3.747850
  H      0.864718    1.694777    2.479724
  H      1.430877    0.780083    3.894585
  H     -2.825912   -0.363832    1.239652
  H     -2.230669    0.809331    2.415590
  H     -3.506080   -1.056521    3.472236
  H     -2.315188   -2.239489    2.887467
  H     -1.846764   -1.015128    4.087947
  H     -2.150474    2.363107   -1.388206
  H     -2.576118    1.319207   -0.049604
  H     -2.193591    3.643231    0.742565
  H     -0.529300    3.617742    0.114997
  H     -0.985829    2.556936    1.460958
