45
  Isotropic shielding for P: 117.491 ppm
  S      1.491203    0.537313   -2.538041
  P      1.161781    0.157621   -0.658017
  O      0.155678    1.221248    0.112241
  C     -1.150654    0.653956    0.146237
  C     -1.124258   -0.684796   -0.087865
  O      0.184885   -1.150751   -0.378639
  C     -2.149390   -1.718805   -0.120155
  C     -2.003759   -2.808675   -1.003732
  C     -2.969365   -3.816139   -1.046889
  C     -4.089316   -3.755512   -0.208704
  C     -4.232189   -2.682228    0.682375
  C     -3.268870   -1.674572    0.734177
  C     -2.222510    1.626994    0.318068
  C     -3.477196    1.456105   -0.300114
  C     -4.467236    2.429625   -0.164561
  C     -4.222051    3.592788    0.578836
  C     -2.973133    3.776240    1.184546
  C     -1.978653    2.804580    1.054829
  C      2.611273   -0.046900    0.426618
  C      3.497243   -1.256448   -0.028707
  C      4.726408   -0.794334   -0.829636
  C      5.647590    0.120985    0.017288
  C      4.846058    0.982094    1.030450
  C      3.425280    1.277253    0.515571
  H     -1.136292   -2.855617   -1.657331
  H     -2.846643   -4.648969   -1.737559
  H     -4.840598   -4.542443   -0.241903
  H     -5.090848   -2.638426    1.350022
  H     -3.372905   -0.856662    1.442633
  H     -3.665218    0.573566   -0.905498
  H     -5.427482    2.289647   -0.658068
  H     -4.993736    4.354564    0.673567
  H     -2.769273    4.680571    1.755722
  H     -1.007018    2.955584    1.519044
  H      2.177995   -0.268906    1.411520
  H      2.911071   -1.980991   -0.607476
  H      3.827455   -1.781930    0.877600
  H      4.386313   -0.259870   -1.726208
  H      5.286478   -1.670352   -1.182570
  H      6.219362    0.775168   -0.655522
  H      6.382004   -0.488901    0.561880
  H      5.372464    1.925297    1.226748
  H      4.772569    0.459144    1.995260
  H      3.490985    1.751025   -0.473840
  H      2.904697    1.980956    1.175798
