17
  Isotropic shielding for P: 246.298 ppm
  O      2.525113   -1.186971    0.810162
  P      2.009903    0.216295    0.173437
  O      2.515857    1.431130    0.876601
  C      0.216865    0.125381    0.037772
  C     -0.557260    1.234393    0.417330
  C     -1.951497    1.179601    0.319812
  C     -2.575394    0.020007   -0.155129
  C     -1.805742   -1.088858   -0.533037
  C     -0.413011   -1.039660   -0.437064
  O      2.465496    0.023455   -1.363370
  H      2.518231   -1.173615    1.788478
  H     -0.067555    2.132272    0.787033
  H     -2.548620    2.040633    0.614874
  H     -3.660865   -0.021852   -0.229810
  H     -2.291466   -1.991283   -0.900087
  H      0.181944   -1.903603   -0.726177
  H      3.437900    0.002776   -1.480825
