46
  Isotropic shielding for P: 281.895 ppm
  C     -1.884474    2.380917    0.767025
  N     -1.244988    1.597699   -0.293586
  P     -0.728951    0.022939   -0.100215
  O      0.232756   -0.225484    1.314426
  C      1.611840   -0.396524    1.205309
  C      1.989418    0.466153   -0.128310
  O      0.882980    0.318244   -0.924629
  C      3.263413   -0.027640   -0.938641
  F      3.541545    0.809322   -1.975317
  F      4.374544   -0.083748   -0.156469
  F      3.073975   -1.251759   -1.485488
  C      2.196128    2.028016    0.158626
  F      2.200533    2.720514   -1.010962
  F      3.371764    2.297083    0.795832
  F      1.188977    2.548138    0.897132
  C      2.266234    0.053669    2.573170
  F      1.922156   -0.781315    3.590924
  F      3.622458    0.049443    2.487083
  F      1.868518    1.288319    2.952499
  C      1.847051   -1.968148    1.047920
  F      3.163621   -2.306543    1.061542
  F      1.241631   -2.645983    2.057257
  F      1.290560   -2.433364   -0.096628
  N     -1.117646   -0.993438   -1.387769
  C     -0.392358   -1.392657   -2.598577
  C     -2.524142   -1.438904   -1.367460
  C     -3.171737   -0.712800   -0.171103
  N     -2.110319   -0.519279    0.840106
  C     -1.972884   -1.709007    1.714070
  C     -1.071045    2.313293   -1.560635
  H     -2.937764    2.589050    0.517446
  H     -1.361796    3.341480    0.887420
  H     -1.853296    1.841120    1.713923
  H     -0.560313   -2.465940   -2.769701
  H     -0.764595   -0.844201   -3.478398
  H      0.674418   -1.216591   -2.497159
  H     -2.568721   -2.535144   -1.269918
  H     -3.015331   -1.161147   -2.311066
  H     -4.000827   -1.285538    0.255816
  H     -3.554240    0.264656   -0.488534
  H     -1.576159   -2.599442    1.196752
  H     -2.969804   -1.957156    2.098307
  H     -1.323482   -1.485367    2.561663
  H     -0.745183    1.631972   -2.349462
  H     -2.037109    2.747156   -1.860418
  H     -0.337560    3.128234   -1.473898
