23
  Isotropic shielding for P: 91.700 ppm
  S      0.928992   -0.030437   -3.233979
  P      0.389557   -0.011982   -1.358744
  N      0.634863    1.433114   -0.454926
  C     -0.661381    1.752424    0.234094
  C     -1.777767    1.038346   -0.568822
  N     -1.265374   -0.303589   -0.984446
  C     -1.301117   -1.364830    0.078330
  C      0.039498   -2.135209   -0.020280
  N      1.125970   -1.143616   -0.290254
  C      1.612641   -0.375979    0.905882
  C      1.776788    1.095850    0.449894
  H     -0.815571    2.838061    0.250041
  H     -0.644263    1.388885    1.271345
  H     -2.694136    0.923467    0.017880
  H     -2.018115    1.607559   -1.475756
  H     -1.406659   -0.908806    1.073060
  H     -2.156087   -2.030374   -0.090735
  H      0.259504   -2.692893    0.895104
  H      0.010099   -2.844762   -0.856915
  H      0.887180   -0.444706    1.729170
  H      2.566517   -0.792998    1.250718
  H      1.800838    1.787367    1.297627
  H      2.708021    1.214810   -0.118288
