34
  Isotropic shielding for P: 100.292 ppm
  C     -2.278706    1.866302    1.783848
  O     -1.455703    2.231872    0.644203
  P     -1.417316    1.137778   -0.623305
  N     -0.252754   -0.041104   -0.134554
  C     -0.634994   -1.419106   -0.202319
  C     -0.319622   -2.276087    0.867295
  C     -0.699209   -3.618947    0.827585
  C     -1.413602   -4.123099   -0.269104
  C     -1.728702   -3.271658   -1.333784
  C     -1.329181   -1.930034   -1.311589
  C      1.112052    0.258255    0.191286
  C      2.140202   -0.419731   -0.487436
  C      3.478027   -0.138356   -0.203103
  C      3.809244    0.834818    0.750062
  C      2.786168    1.513983    1.421334
  C      1.442884    1.223810    1.155312
  O     -0.416831    2.034140   -1.593937
  C     -0.979716    3.228497   -2.204161
  H     -2.466670    2.784897    2.347871
  H     -3.235300    1.431274    1.461032
  H     -1.747727    1.144458    2.419295
  H      0.219773   -1.881176    1.725733
  H     -0.448467   -4.271937    1.662401
  H     -1.714542   -5.168925   -0.294239
  H     -2.268826   -3.654256   -2.198618
  H     -1.540082   -1.282807   -2.159813
  H      1.882719   -1.166253   -1.235905
  H      4.264018   -0.672563   -0.735168
  H      4.852355    1.057276    0.968154
  H      3.030785    2.265814    2.170492
  H      0.654676    1.742727    1.689427
  H     -1.031729    4.042813   -1.471335
  H     -1.984361    3.030380   -2.604744
  H     -0.308664    3.506948   -3.022312
