35
  Isotropic shielding for P: 249.669 ppm
  C     -2.614812    4.344405    0.013230
  C     -1.693904    3.184340    0.406594
  S     -2.200552    1.693937   -0.588311
  P     -1.089992   -0.005635    0.090311
  S     -2.670707   -1.193754   -0.911995
  C     -1.864279   -2.785437   -1.417520
  C     -1.449571   -3.701896   -0.265358
  O     -1.311591   -0.890718    1.501224
  C     -0.508911   -0.455317    2.571438
  C      0.235706    0.602846    2.241985
  O      0.046319    1.016805    0.945389
  O      0.048702   -0.599760   -0.938634
  C      1.439454   -0.467840   -0.779264
  C      2.115434    0.470350   -1.559466
  C      3.508480    0.556330   -1.458585
  C      4.207499   -0.288428   -0.586038
  C      3.509384   -1.227439    0.184027
  C      2.116482   -1.324372    0.088922
  H     -2.530540    4.581096   -1.055184
  H     -2.327769    5.238683    0.582753
  H     -3.665228    4.119302    0.236716
  H     -1.790664    2.936614    1.466530
  H     -0.648116    3.405255    0.182359
  H     -2.639432   -3.260480   -2.033464
  H     -1.017127   -2.543702   -2.065420
  H     -0.657504   -3.250167    0.340551
  H     -1.070821   -4.651193   -0.671478
  H     -2.300369   -3.923460    0.390862
  H     -0.609581   -1.003323    3.498095
  H      0.935547    1.168906    2.845263
  H      1.553929    1.122046   -2.225372
  H      4.046130    1.286822   -2.060774
  H      5.290895   -0.217427   -0.509271
  H      4.047645   -1.889363    0.860354
  H      1.560066   -2.048225    0.679330
