39
  Isotropic shielding for P: 32.212 ppm
  C      0.063535    1.389496   -0.592464
  N      0.535747    1.134890    0.783601
  C      1.545387    0.094238    0.947850
  O      0.811328   -1.190421    1.104588
  C     -0.426130   -0.882983    1.749006
  C     -0.489575    0.700517    1.765616
  O     -1.817299    1.118703    1.481774
  P     -2.841242   -0.177185    1.026476
  N     -1.553097   -1.344570    0.887139
  N     -3.097233    0.135015   -0.684127
  C     -3.816729    1.406959   -0.916983
  C     -3.781560   -0.993004   -1.360664
  C     -0.500732   -1.509172    3.136459
  C      2.562211   -0.011729   -0.158878
  C      3.697038    0.811344   -0.115342
  C      4.638270    0.775378   -1.149225
  C      4.456888   -0.096083   -2.230765
  C      3.330813   -0.927629   -2.271454
  C      2.384878   -0.884107   -1.241266
  H     -0.322320    0.505274   -1.120703
  H     -0.736436    2.131999   -0.546552
  H      0.895057    1.808613   -1.167392
  H      2.057271    0.271035    1.907478
  H     -0.214898    1.093535    2.753624
  H     -1.216165   -1.370420   -0.080849
  H     -3.821886    1.609102   -1.995937
  H     -4.865720    1.381978   -0.567137
  H     -3.295673    2.228883   -0.415073
  H     -3.810739   -0.783900   -2.437832
  H     -3.226493   -1.925195   -1.208099
  H     -4.820679   -1.140814   -1.011891
  H     -1.451869   -1.250471    3.621567
  H     -0.437616   -2.600433    3.055939
  H      0.321690   -1.142829    3.762730
  H      3.840634    1.482351    0.731090
  H      5.514723    1.420150   -1.106993
  H      5.191628   -0.130445   -3.033731
  H      3.187666   -1.610629   -3.107539
  H      1.509527   -1.527541   -1.273736
