34
  Isotropic shielding for P: 157.688 ppm
  C      1.026272   -4.042290    1.825928
  C      0.088634   -3.206163    0.976596
  O      0.534134   -1.795500    1.078483
  P     -0.094605   -0.653865    0.155419
  Se    -0.232045   -1.006431   -1.914521
  O      0.784066    0.630570    0.608259
  C      1.997035    0.969479   -0.035523
  C      2.017978    2.128671   -0.808957
  C      3.220030    2.510101   -1.415920
  C      4.373320    1.732730   -1.248833
  C      4.326880    0.571685   -0.466746
  C      3.132561    0.180953    0.150095
  O     -1.485179   -0.351548    0.932785
  C     -2.503405    0.439420    0.349753
  C     -3.660777   -0.204481   -0.083940
  C     -4.697481    0.566235   -0.622344
  C     -4.563461    1.956931   -0.724657
  C     -3.390600    2.581103   -0.281260
  C     -2.347610    1.822826    0.263652
  H      0.999824   -3.721843    2.874645
  H      0.710315   -5.092651    1.776806
  H      2.056550   -3.972451    1.456169
  H     -0.946490   -3.253305    1.334627
  H      0.121228   -3.494610   -0.080335
  H      1.108193    2.711622   -0.930788
  H      3.251468    3.413112   -2.022902
  H      5.305348    2.031503   -1.724901
  H      5.221394   -0.033749   -0.331695
  H      3.080291   -0.714978    0.763393
  H     -3.739320   -1.285952   -0.001329
  H     -5.607416    0.076862   -0.965013
  H     -5.371074    2.552292   -1.146394
  H     -3.283679    3.661802   -0.355809
  H     -1.432380    2.291823    0.615354
