28
  Isotropic shielding for P: 264.963 ppm
  O      4.152240   -1.668577   -1.412276
  P      3.243251   -1.608159   -0.235765
  O      3.495400   -0.377220    0.781662
  C      2.874453    0.950627    0.582026
  C      1.391586    0.692764    0.370991
  C      1.163620   -0.214776   -0.842166
  O      1.654233   -1.559776   -0.593887
  C     -0.339952   -0.083431   -1.059168
  O     -1.057802   -0.833713   -0.072808
  C     -2.126656   -0.007203    0.446736
  O     -1.683192    1.372485    0.227857
  C     -0.577817    1.402151   -0.651176
  O      0.635322    1.865301    0.015019
  C     -3.420662   -0.241028   -0.333985
  C     -2.255315   -0.264563    1.940512
  H      3.307839   -2.705202    0.631713
  H      3.089220    1.512099    1.494642
  H      3.333371    1.444118   -0.283405
  H      0.978456    0.214736    1.272659
  H      1.675913    0.204950   -1.720442
  H     -0.671625   -0.319283   -2.077483
  H     -0.767528    2.107907   -1.464531
  H     -3.759779   -1.274068   -0.191557
  H     -4.202840    0.438775    0.024110
  H     -3.259782   -0.061754   -1.403691
  H     -3.028178    0.386033    2.365783
  H     -2.543837   -1.307720    2.115298
  H     -1.299941   -0.065374    2.438434
