42
  Isotropic shielding for P: 165.481 ppm
  C      4.522396   -0.448190    1.041874
  C      3.598122    0.092895   -0.061049
  C      2.679374    1.220868    0.437532
  C      1.766308    1.832281   -0.645114
  C      0.781723    0.893505   -1.379868
  C     -0.399159    0.276605   -0.585089
  C     -1.031893    1.305948    0.382248
  N     -2.354378    0.841097    0.862688
  C     -2.781751    1.500829    2.100234
  P     -2.614123   -0.864432    0.727181
  N     -2.508227   -1.019765   -0.992738
  C     -1.476882   -0.159581   -1.614068
  C     -3.758467   -1.071127   -1.756357
  N     -1.027774   -1.416544    1.143279
  C      0.038496   -0.979222    0.211145
  C     -0.881135   -2.811344    1.570672
  H      5.173812   -1.247973    0.664552
  H      3.935831   -0.857678    1.876803
  H      5.164347    0.348307    1.444561
  H      2.994997   -0.733364   -0.463356
  H      4.203543    0.468412   -0.901555
  H      2.079160    0.856142    1.283825
  H      3.307356    2.029390    0.844911
  H      1.206835    2.669647   -0.204660
  H      2.411320    2.279547   -1.418039
  H      1.333976    0.072622   -1.859411
  H      0.343396    1.478439   -2.202703
  H     -1.154510    2.276012   -0.125937
  H     -0.354599    1.463847    1.240037
  H     -3.753147    1.103230    2.418238
  H     -2.891318    2.581621    1.926022
  H     -2.058116    1.363883    2.926658
  H     -1.941479    0.749089   -2.041391
  H     -0.999736   -0.707369   -2.443350
  H     -4.204696   -0.069705   -1.909647
  H     -4.488029   -1.701116   -1.233151
  H     -3.570589   -1.510486   -2.747363
  H      0.270709   -1.783999   -0.512093
  H      0.950154   -0.785743    0.788957
  H     -0.875367   -3.518788    0.719209
  H     -1.703284   -3.083391    2.243672
  H      0.066703   -2.934301    2.115545
