33
  Isotropic shielding for P: 267.146 ppm
  C      0.251425   -3.051562    1.630449
  O      0.728608   -1.731866    1.307024
  P     -0.135344   -0.650103    0.307337
  O     -0.368463   -1.835052   -0.791067
  C     -1.208901   -1.778663   -1.977266
  C     -1.434328   -0.271785    1.578991
  C     -2.455126    0.635139    0.963145
  C     -2.131162    1.043035   -0.280984
  O     -0.951793    0.587717   -0.794505
  C     -2.909615    1.948621   -1.185072
  C      1.370853    0.378759    0.176110
  C      2.529554   -0.148996   -0.411663
  C      3.676706    0.643092   -0.536913
  C      3.681598    1.955547   -0.049434
  C      2.529119    2.479618    0.549999
  C      1.371809    1.699968    0.647905
  H      0.818736   -3.391258    2.505315
  H      0.420274   -3.743076    0.794507
  H     -0.819433   -3.059891    1.881177
  H     -0.789300   -1.095118   -2.720261
  H     -1.211839   -2.802465   -2.365347
  H     -2.229231   -1.474649   -1.725447
  H     -1.841594   -1.228132    1.933527
  H     -0.894516    0.168405    2.432386
  H     -3.369750    0.927691    1.470205
  H     -2.312093    2.831458   -1.455242
  H     -3.167200    1.432171   -2.121204
  H     -3.833252    2.282418   -0.699137
  H      2.537551   -1.175458   -0.772059
  H      4.568103    0.231570   -1.008148
  H      4.577938    2.567640   -0.137040
  H      2.527093    3.499303    0.932279
  H      0.473375    2.125721    1.090435
