14
  Isotropic shielding for P: 41.225 ppm
  Cl     3.325134   -0.197484   -1.562980
  P      2.494639    0.911828    0.046449
  C      0.765030    0.326193    0.013575
  C     -0.201174    1.352450   -0.010491
  C     -1.565886    1.052541   -0.036779
  C     -1.983800   -0.282722   -0.039696
  C     -1.044067   -1.322038   -0.016107
  C      0.305610   -0.998759    0.010088
  F      1.211827   -2.021638    0.033736
  Cl     3.254735   -0.177972    1.703659
  H      0.127850    2.391028   -0.008277
  H     -2.297215    1.857394   -0.054900
  H     -3.044694   -0.524310   -0.060300
  H     -1.347889   -2.366607   -0.017781
