28
  Isotropic shielding for P: 268.533 ppm
  C      2.709171   -2.591532    0.096173
  C      1.429403   -1.823768   -0.130353
  O      0.304698   -2.321898   -0.092947
  O      1.654283   -0.529021   -0.430098
  C      0.605275    0.429754   -0.682325
  P     -1.130378    0.016361   -0.626664
  C     -2.161454   -0.699502    0.733847
  C     -1.900370    1.659581   -0.853723
  C     -1.541362   -0.947848   -2.115197
  O      0.939522    1.584818    0.134577
  C      0.977209    1.450882    1.507382
  O      0.620866    0.442268    2.093459
  C      1.536375    2.694061    2.153959
  H      2.621568   -3.155375    1.032718
  H      3.580497   -1.932512    0.137872
  H      2.843063   -3.318598   -0.716496
  H     -3.220001   -0.648381    0.446453
  H     -1.999559   -0.109567    1.641244
  H     -1.868054   -1.735831    0.911671
  H     -2.966310    1.518548   -1.065795
  H     -1.794866    2.245825    0.065266
  H     -1.425036    2.190374   -1.683509
  H     -1.116639   -0.452850   -2.994111
  H     -1.138962   -1.960079   -2.027090
  H     -2.633073   -0.993198   -2.208775
  H      2.631615    2.678824    2.061538
  H      1.270706    2.713261    3.214421
  H      1.171912    3.595499    1.649306
