42
  Isotropic shielding for P: 284.740 ppm
  C      0.088114    2.675376   -1.196094
  N      0.624862    1.299127   -1.298967
  P      0.335371    0.147170   -0.167960
  O     -1.082463    0.891617    0.497436
  C     -2.187020    0.068393    0.688656
  C     -2.010617   -1.059827   -0.464796
  O     -0.608574   -1.199148   -0.551332
  C     -2.614368   -2.497532   -0.168923
  F     -1.980558   -3.111181    0.852273
  F     -2.494899   -3.314852   -1.245129
  F     -3.933140   -2.406401    0.133185
  C     -2.505111   -0.613442   -1.915595
  F     -2.000998   -1.449389   -2.855649
  F     -2.064071    0.623074   -2.238331
  F     -3.858209   -0.631729   -2.013348
  C     -3.493723    0.962954    0.608187
  F     -3.577297    1.799360    1.673189
  F     -3.507341    1.741205   -0.495187
  F     -4.609439    0.190637    0.601462
  C     -2.069895   -0.506523    2.177799
  F     -0.978146   -1.302671    2.303377
  F     -3.167146   -1.210936    2.553782
  F     -1.900632    0.508730    3.057281
  O      1.055023    0.484630    1.315065
  C      2.375282    0.097159    1.334976
  C      2.705859   -0.685307    0.233184
  O      1.644362   -0.897392   -0.588770
  C      3.990972   -1.179924    0.065258
  Cl     4.347584   -2.146400   -1.333445
  C      4.954719   -0.865975    1.047935
  C      4.613755   -0.075032    2.161951
  C      3.299017    0.417992    2.313640
  Cl     2.807788    1.401572    3.657733
  Cl     5.810910    0.314085    3.365248
  Cl     6.579896   -1.463113    0.862144
  C      1.259117    1.019966   -2.607726
  H     -0.111520    2.945592   -0.158840
  H      0.853881    3.354042   -1.590334
  H     -0.829580    2.792389   -1.786356
  H      0.554074    1.288088   -3.405743
  H      1.516902   -0.033301   -2.706855
  H      2.167261    1.626919   -2.714379
