38
  Isotropic shielding for P: 249.386 ppm
  C     -3.865638   -1.763451   -0.596249
  C     -2.445268   -1.240303   -0.584618
  C     -2.173276   -0.041258   -1.138881
  C     -0.828902    0.652120   -1.190331
  O     -0.714146    1.449482   -2.395662
  C     -0.632412    1.549254   -0.002355
  C     -1.023672    1.343118    1.303217
  C     -0.537715    2.343336    2.196758
  C      0.214848    3.303303    1.560751
  S      0.340957    2.990389   -0.138564
  P      0.524051   -0.662826   -1.308363
  O      0.676576   -1.058402   -2.766136
  C     -0.073828   -1.917531   -0.188601
  C     -1.396388   -2.089536    0.052633
  C     -1.853589   -3.185360    0.984229
  C      2.033431    0.036418   -0.602217
  C      2.968976    0.614203   -1.476422
  C      4.101533    1.254543   -0.965545
  C      4.301473    1.323966    0.418396
  C      3.374361    0.741014    1.292258
  C      2.244457    0.094999    0.785816
  H     -3.922006   -2.746053   -1.085253
  H     -4.523992   -1.071072   -1.131114
  H     -4.254378   -1.891267    0.423157
  H     -2.976956    0.541221   -1.591562
  H     -0.443736    0.830859   -3.110210
  H     -1.629609    0.497316    1.612018
  H     -0.746538    2.355293    3.263350
  H      0.681311    4.187063    1.981634
  H      0.659702   -2.581917    0.267098
  H     -2.491037   -3.910207    0.459926
  H     -0.997524   -3.715877    1.412741
  H     -2.457904   -2.768395    1.802462
  H      2.805399    0.563668   -2.550722
  H      4.824760    1.701066   -1.645960
  H      5.181177    1.827658    0.816056
  H      3.532455    0.790187    2.368177
  H      1.522940   -0.347217    1.467986
