34
  Isotropic shielding for P: 270.193 ppm
  Br    -4.190516   -4.411779    0.602001
  C     -2.862030   -3.126179    0.030486
  C     -1.830121   -3.544636   -0.812210
  C     -0.883482   -2.605248   -1.228788
  C     -0.947481   -1.267655   -0.798329
  C     -1.997659   -0.881165    0.048742
  C     -2.963345   -1.804753    0.464994
  P      0.365472   -0.124173   -1.411702
  C      1.715383   -0.412500   -0.186821
  C      1.553919   -1.127903    1.009896
  C      2.626806   -1.309185    1.889916
  C      3.865651   -0.757793    1.563045
  C      4.061020   -0.040184    0.381256
  C      2.981562    0.118551   -0.491720
  Br     5.355164   -1.000513    2.773709
  C     -0.285201    1.516483   -0.871823
  C     -1.198857    2.156172   -1.729066
  C     -1.751933    3.396319   -1.400194
  C     -1.364283    4.006009   -0.205172
  C     -0.449519    3.406760    0.660516
  C      0.082873    2.157632    0.321295
  Br    -2.109679    5.730784    0.256453
  H     -1.767601   -4.576801   -1.147046
  H     -0.083716   -2.924167   -1.896613
  H     -2.073576    0.145579    0.397571
  H     -3.773089   -1.494698    1.120646
  H      0.586979   -1.549920    1.272019
  H      2.491483   -1.865787    2.813816
  H      5.033791    0.379176    0.137953
  H      3.131847    0.667401   -1.420957
  H     -1.488933    1.682089   -2.666306
  H     -2.461490    3.878631   -2.067453
  H     -0.156932    3.895013    1.586620
  H      0.787495    1.688545    1.003363
