47
  Isotropic shielding for P: 226.869 ppm
  C      6.182668    1.641766   -0.332009
  C      5.077355    1.474005   -1.345906
  O      5.212053    1.614064   -2.559133
  O      3.893531    1.155791   -0.755190
  C      2.748848    1.010937   -1.569518
  C      1.549634    0.791412   -0.964413
  C      0.253027    0.728934   -1.572399
  P     -0.968775    0.418852   -0.431707
  N      0.059720    0.412857    0.965325
  N      1.505380    0.634281    0.476386
  C      1.828763   -0.641508    1.086174
  C      2.876985   -1.496336    1.361214
  C      2.504077   -2.617927    2.140173
  C      1.190681   -2.815042    2.602551
  C      0.140981   -1.907513    2.324475
  C      0.529253   -0.839772    1.542103
  C     -1.859054   -1.157083   -0.448450
  C     -1.305716   -2.228233   -1.167255
  C     -1.914412   -3.484699   -1.121141
  C     -3.070664   -3.674238   -0.353319
  C     -3.620038   -2.607481    0.369792
  C     -3.018141   -1.347718    0.323658
  C     -2.223837    1.708906   -0.247149
  C     -1.974670    2.820439    0.576506
  C     -2.882287    3.881799    0.605358
  C     -4.030459    3.849582   -0.198781
  C     -4.275259    2.747991   -1.026711
  C     -3.379346    1.674263   -1.048400
  H      7.028036    0.999575   -0.609262
  H      6.535571    2.681697   -0.362794
  H      5.850774    1.402247    0.681663
  H      2.890329    1.120034   -2.635999
  H      0.059500    1.031412   -2.595433
  H      3.893469   -1.347836    1.007182
  H      3.262920   -3.357713    2.388464
  H      0.971287   -3.701933    3.194082
  H     -0.873288   -2.068454    2.679001
  H     -0.404119   -2.067713   -1.755940
  H     -1.489267   -4.314169   -1.683311
  H     -3.545454   -4.653375   -0.319351
  H     -4.517337   -2.756600    0.967763
  H     -3.444677   -0.521473    0.887582
  H     -1.077231    2.850815    1.190723
  H     -2.693437    4.736593    1.252544
  H     -4.732419    4.681646   -0.178833
  H     -5.165770    2.720363   -1.652370
  H     -3.579382    0.816955   -1.687943
