54
  Isotropic shielding for P: 299.784 ppm
  C     -1.905414    0.616093   -2.492771
  N     -1.563772   -0.630191   -1.803596
  C     -2.256874   -1.837072   -2.291905
  C     -2.028758   -2.918056   -1.226851
  N     -2.123124   -2.200862    0.053699
  P     -1.345602   -0.666314   -0.121162
  O      0.213925   -1.419956    0.030114
  C      1.289028   -0.552227    0.096360
  C      0.893824    0.750605    0.212950
  N     -0.503781    0.828184    0.228549
  N     -1.178165    1.938693    0.710844
  C     -2.437377    1.575662    0.893503
  N     -2.751271    0.246467    0.574406
  C     -4.041734   -0.219488    0.757427
  C     -5.024713    0.587808    1.256626
  C     -4.723199    1.946940    1.597909
  C     -3.454562    2.430726    1.416340
  C      1.725987    1.966484    0.289214
  C      2.502845    2.346107   -0.819156
  C      3.319100    3.479737   -0.759264
  C      3.360466    4.253406    0.407182
  C      2.579736    3.887850    1.511829
  C      1.766395    2.752378    1.454064
  C      2.610694   -1.167577    0.095552
  C      3.764264   -0.502626    0.573436
  C      5.008501   -1.133132    0.556541
  C      5.139976   -2.445356    0.077726
  C      4.003135   -3.121443   -0.381981
  C      2.755184   -2.493512   -0.375977
  C     -1.902789   -2.999180    1.258677
  H     -1.318982    1.444859   -2.085653
  H     -1.664029    0.516711   -3.559050
  H     -2.978844    0.860540   -2.402237
  H     -1.858493   -2.138394   -3.270228
  H     -3.337301   -1.638255   -2.405426
  H     -2.805535   -3.693011   -1.276256
  H     -1.045372   -3.405709   -1.357098
  H     -4.200134   -1.250938    0.468134
  H     -6.028976    0.190867    1.377061
  H     -5.503393    2.589707    2.000983
  H     -3.179091    3.453276    1.664530
  H      2.468285    1.741797   -1.723756
  H      3.918496    3.761109   -1.623839
  H      3.995095    5.136901    0.455331
  H      2.608413    4.485680    2.421628
  H      1.166792    2.464490    2.314305
  H      3.683075    0.502899    0.973295
  H      5.881574   -0.601211    0.932514
  H      6.112978   -2.933649    0.069872
  H      4.087967   -4.142111   -0.753200
  H      1.880239   -3.022739   -0.743898
  H     -2.671488   -3.781952    1.318629
  H     -0.909593   -3.479674    1.276815
  H     -1.993713   -2.361540    2.146856
