38
  Isotropic shielding for P: 266.138 ppm
  C      0.876660    2.847396    0.990417
  C     -0.189453    1.956046    0.314477
  P     -0.020269    0.215800    1.112793
  Ge    -1.713915   -1.154547    0.182234
  C     -2.272594   -0.875150   -1.709181
  C     -3.316141   -0.907807    1.335611
  C     -1.066523   -3.022908    0.401692
  C      1.520922   -0.454979    0.338283
  C      2.691354   -0.449277    1.121900
  C      3.903248   -0.936057    0.617730
  C      3.963997   -1.450875   -0.682220
  C      2.807699   -1.470517   -1.472690
  C      1.601383   -0.974604   -0.967972
  C     -1.598610    2.474623    0.670108
  C      0.015390    1.986315   -1.209906
  H      0.804543    3.872581    0.596543
  H      1.891469    2.480638    0.789434
  H      0.735274    2.887423    2.078081
  H     -2.712397    0.119753   -1.836919
  H     -1.428889   -0.985363   -2.398414
  H     -3.030223   -1.632117   -1.950931
  H     -3.056746   -1.083558    2.386197
  H     -4.091723   -1.623941    1.035554
  H     -3.714244    0.108014    1.234719
  H     -0.232749   -3.225682   -0.278793
  H     -1.887821   -3.715475    0.178186
  H     -0.732116   -3.189903    1.432383
  H      2.649762   -0.061514    2.139082
  H      4.795710   -0.918694    1.241977
  H      4.902961   -1.837299   -1.075864
  H      2.845088   -1.870851   -2.485158
  H      0.720010   -0.990847   -1.603277
  H     -2.382242    1.911284    0.149106
  H     -1.690021    3.528980    0.369681
  H     -1.791367    2.413303    1.749588
  H     -0.098887    3.020328   -1.570937
  H     -0.716810    1.364716   -1.734503
  H      1.018371    1.644566   -1.489012
