23
  Isotropic shielding for P: 435.705 ppm
  C      3.255594    0.099654   -0.074469
  C      1.743265    0.052549   -0.048309
  C      0.987534    1.226879    0.068912
  C     -0.414174    1.212404    0.069182
  C     -1.166043    2.520355    0.185601
  C     -1.090731   -0.027390   -0.037882
  C     -0.347256   -1.223144   -0.180506
  C      1.054348   -1.159897   -0.174811
  C     -1.023722   -2.567651   -0.337366
  P     -2.936910   -0.064777   -0.152542
  H      3.643361    0.855926    0.620202
  H      3.624115    0.362065   -1.077801
  H      3.688455   -0.872394    0.191376
  H      1.500797    2.185000    0.161458
  H     -0.473712    3.368921    0.156529
  H     -1.892050    2.644960   -0.631338
  H     -1.735099    2.577392    1.125159
  H      1.620201   -2.086951   -0.275364
  H     -1.569203   -2.854134    0.573881
  H     -0.286641   -3.349510   -0.550895
  H     -1.758368   -2.559097   -1.155772
  H     -3.183752   -1.205513    0.662174
  H     -3.240108    0.864355    0.882584
