47
  Isotropic shielding for P: 246.193 ppm
  C     -2.355220   -1.019844    1.213764
  C     -1.200662   -0.012640    1.295112
  C     -1.113688    1.035244    0.122399
  O     -0.103037    0.551864   -0.837376
  P      0.768439   -0.698238   -0.253984
  N      2.333751   -0.639456   -0.403402
  C      3.195817    0.297841    0.174782
  C      4.588573    0.102081    0.008878
  C      5.518709    0.990443    0.552809
  C      5.094412    2.110045    1.283145
  C      3.719813    2.321167    1.456079
  C      2.783622    1.435834    0.914127
  N      0.124966   -0.657533    1.270157
  C      0.681809   -1.276716    2.469036
  N      0.159223   -2.007422   -1.114606
  C      0.317511   -1.967076   -2.582419
  C      0.421158   -3.342620   -0.545036
  C     -2.411557    1.313544   -0.590641
  C     -2.842464    0.528838   -1.670663
  C     -4.077918    0.779754   -2.275994
  C     -4.898193    1.813564   -1.805862
  C     -4.470969    2.601866   -0.730504
  C     -3.230897    2.355190   -0.130842
  H     -2.276565   -1.730820    2.045820
  H     -3.323425   -0.511604    1.291612
  H     -2.326464   -1.581028    0.273794
  H     -1.284786    0.555057    2.232699
  H     -0.714548    1.969166    0.536255
  H      4.921866   -0.766696   -0.558043
  H      6.583045    0.807662    0.405331
  H      5.819208    2.802779    1.707269
  H      3.369196    3.186015    2.019532
  H      1.723909    1.623265    1.069704
  H      0.725088   -0.542162    3.285616
  H      0.086122   -2.139444    2.801901
  H      1.699374   -1.619380    2.255090
  H      0.080888   -0.965913   -2.955921
  H      1.339984   -2.233037   -2.899267
  H     -0.384647   -2.682014   -3.030919
  H      0.225785   -3.337946    0.531790
  H      1.457935   -3.677340   -0.719195
  H     -0.261508   -4.062656   -1.014659
  H     -2.209378   -0.274775   -2.037444
  H     -4.401668    0.167070   -3.116204
  H     -5.859602    2.007816   -2.278789
  H     -5.097459    3.413767   -0.364173
  H     -2.895749    2.976389    0.699641
