45
  Isotropic shielding for P: 64.890 ppm
  C     -3.756478    0.517033    0.700332
  C     -2.635807    0.117158   -0.272848
  C     -1.986767   -1.296239   -0.043193
  C     -2.786099   -2.282363    0.819210
  C     -0.531510   -0.999835    0.448749
  C     -0.180607    0.265037   -0.432461
  C     -1.459157    1.147301   -0.228631
  C     -1.667260    2.328461   -1.182014
  C     -0.024715   -0.169111   -1.913274
  P      1.369021    1.188697    0.158783
  S      1.125196    2.252244    1.792037
  C      2.976425    0.160433    0.163405
  C      4.145442    1.144490    0.402799
  C      2.929273   -0.849739    1.330634
  C      3.188155   -0.591595   -1.165618
  Cl     1.791691    2.512234   -1.484379
  C     -0.480858   -0.831003    1.977765
  H     -4.106672    1.533596    0.474766
  H     -4.620469   -0.154725    0.620116
  H     -3.412718    0.506100    1.742572
  H     -3.064792    0.130153   -1.285486
  H     -1.892253   -1.768638   -1.028029
  H     -2.994073   -1.901461    1.824904
  H     -2.238809   -3.229368    0.924146
  H     -3.749067   -2.507575    0.341572
  H      0.135234   -1.825893    0.167908
  H     -1.409090    1.548021    0.791295
  H     -2.653463    2.775698   -0.998735
  H     -0.916904    3.112435   -1.036030
  H     -1.635286    2.014963   -2.233230
  H      0.553721   -1.093102   -1.993334
  H      0.455288    0.594241   -2.527962
  H     -1.010734   -0.356505   -2.348627
  H      4.269158    1.843080   -0.430488
  H      4.007794    1.715694    1.326944
  H      5.066315    0.553359    0.494890
  H      2.769334   -0.352019    2.292909
  H      3.902069   -1.358504    1.369617
  H      2.159687   -1.614078    1.187926
  H      3.133459    0.073157   -2.033490
  H      4.191928   -1.037527   -1.144181
  H      2.467095   -1.404237   -1.292191
  H     -1.172065   -0.060733    2.335213
  H      0.513305   -0.570405    2.341896
  H     -0.764140   -1.778833    2.450010
