41
  Isotropic shielding for P: 157.606 ppm
  C      4.500354    0.997231   -2.147546
  O      3.167116    0.570855   -1.824784
  C      2.435810    1.584347   -1.125272
  C      1.054964    1.020905   -0.801745
  O      0.349195    2.112730   -0.136503
  C     -0.939779    1.845547    0.288870
  O     -1.870657    1.885402   -0.881439
  P     -3.260803    1.087412   -0.543224
  S     -4.873355    2.171050   -0.230798
  N     -2.651555    0.298136    0.802008
  C     -1.202102    0.474662    0.958467
  C     -0.367702   -0.664291    0.345901
  C      1.085344   -0.214337    0.105944
  O      1.737322    0.126108    1.341777
  C      2.658922   -0.873212    1.814189
  O     -0.473694   -1.783967    1.238282
  C     -0.240091   -3.052388    0.598604
  C     -3.420385   -0.576820    1.687415
  C     -3.457060   -0.034920   -1.961266
  H      4.984184    0.164488   -2.668261
  H      4.484545    1.882439   -2.804626
  H      5.068313    1.241058   -1.234777
  H      2.326956    2.486199   -1.750989
  H      2.953771    1.863980   -0.193722
  H      0.532404    0.765110   -1.735352
  H     -1.224399    2.668148    0.953765
  H     -0.959558    0.552613    2.026434
  H     -0.794687   -0.934705   -0.633234
  H      1.642716   -1.004867   -0.414690
  H      3.138437   -0.456176    2.706340
  H      2.141278   -1.805230    2.081378
  H      3.426743   -1.087819    1.054884
  H      0.783080   -3.128195    0.201112
  H     -0.956941   -3.211238   -0.222370
  H     -0.384176   -3.819719    1.365733
  H     -3.128548   -0.394468    2.729992
  H     -3.262994   -1.639331    1.459006
  H     -4.485642   -0.342888    1.580715
  H     -3.700424    0.550288   -2.855344
  H     -4.283432   -0.722692   -1.748830
  H     -2.533574   -0.601546   -2.123244
