36
  Isotropic shielding for P: 222.312 ppm
  C     -1.282378    2.927675   -0.976462
  C      0.068618    2.242940   -0.731921
  P      0.111966    0.836974    0.441856
  Cl    -0.454214    1.555055    2.344935
  O     -1.501011    0.345913    0.084813
  C     -2.152078   -0.885671    0.247021
  C     -2.849843   -0.987973    1.634916
  F     -3.543642    0.133988    1.952084
  F     -3.714408   -2.041621    1.688372
  F     -1.914059   -1.190195    2.605423
  C     -3.163077   -0.993589   -0.930288
  F     -2.527577   -0.764321   -2.111504
  F     -3.720705   -2.232490   -1.002827
  F     -4.172427   -0.085426   -0.825617
  O      1.832419    1.108659    0.930949
  C      2.317612   -0.153331    0.519970
  C      0.979249   -0.786367    0.026364
  C      0.844214   -1.361526   -1.388317
  C      3.417594    0.059814   -0.565539
  F      4.469040    0.774986   -0.078767
  F      2.917348    0.766990   -1.617564
  F      3.910340   -1.113150   -1.053274
  C      2.893703   -0.914749    1.756955
  F      3.931440   -0.259507    2.341322
  F      3.323098   -2.167312    1.427462
  F      1.926935   -1.053212    2.709768
  H     -1.740250    3.260031   -0.037814
  H     -1.112822    3.812146   -1.603684
  H     -1.985264    2.267671   -1.491386
  H      0.808936    2.945747   -0.334066
  H      0.481794    1.843432   -1.668966
  H     -1.493728   -1.762371    0.176604
  H      0.660327   -1.544357    0.750038
  H      1.587169   -2.156236   -1.524805
  H     -0.139286   -1.816940   -1.525661
  H      0.985067   -0.611774   -2.170387
