55
  Isotropic shielding for P: 255.816 ppm
  C      1.977786    3.941979   -1.942184
  C      2.466886    3.451312   -0.569902
  C      2.287847    1.937642   -0.373354
  C      2.785550    1.440072    0.995911
  C      2.359345    0.000829    1.343756
  C      2.846540   -1.059365    0.341338
  C      2.559666   -2.510532    0.770238
  C      1.087421   -2.837177    1.008090
  O      0.231680   -2.517708   -0.153524
  P      0.238715   -3.444201   -1.464504
  O      1.288396   -3.162396   -2.483564
  O     -1.225199   -3.235139   -2.071243
  C     -2.434427   -3.565389   -1.281154
  C     -3.519170   -2.544264   -1.596696
  C     -3.179413   -1.096120   -1.196140
  C     -2.995282   -0.890192    0.318172
  C     -2.837396    0.584932    0.737633
  C     -1.592956    1.275757    0.151301
  C     -1.365762    2.711215    0.666461
  C     -0.946670    2.788376    2.144843
  H      0.910161    3.718904   -2.080234
  H      2.111614    5.026605   -2.053491
  H      2.528823    3.449694   -2.756339
  H      3.529449    3.713388   -0.441732
  H      1.920448    3.981760    0.225857
  H      1.222962    1.685112   -0.486269
  H      2.814848    1.405691   -1.179925
  H      2.402400    2.114058    1.777954
  H      3.884603    1.517428    1.032812
  H      1.261998   -0.030441    1.412060
  H      2.739302   -0.251787    2.346742
  H      2.392383   -0.879708   -0.641764
  H      3.933580   -0.952329    0.202930
  H      2.967999   -3.204137    0.021305
  H      3.079061   -2.730166    1.717016
  H      0.660178   -2.239137    1.817697
  H      0.954622   -3.899519    1.252079
  H      0.277659   -4.756636   -0.946429
  H     -2.738929   -4.575500   -1.578900
  H     -2.175959   -3.569244   -0.216508
  H     -4.428703   -2.873803   -1.069772
  H     -3.741893   -2.591971   -2.672665
  H     -2.275308   -0.779848   -1.733325
  H     -3.992725   -0.443161   -1.548984
  H     -3.865630   -1.317775    0.841442
  H     -2.115991   -1.452114    0.664818
  H     -3.736296    1.148573    0.436747
  H     -2.798050    0.629857    1.835811
  H     -0.703527    0.666425    0.376518
  H     -1.674494    1.304271   -0.944583
  H     -2.284653    3.299642    0.511753
  H     -0.589374    3.189862    0.052851
  H     -0.765146    3.827615    2.450772
  H     -1.717799    2.377174    2.809554
  H     -0.021171    2.221590    2.316620
