40
  Isotropic shielding for P: 187.103 ppm
  S      0.952183    0.255138   -3.169849
  P      0.695414   -0.250404   -1.292739
  N     -0.595255   -1.295770   -0.932809
  C     -1.622704   -0.636145   -0.256656
  N     -1.332647    0.561956    0.178596
  N     -0.019743    0.884442   -0.195470
  C      0.504026    2.147729    0.148207
  C     -0.255248    3.058551    0.907063
  C      0.289420    4.296832    1.258236
  C      1.585564    4.652555    0.865049
  C      2.337419    3.744955    0.108820
  C      1.808653    2.503500   -0.250113
  C     -2.933423   -1.259846   -0.058540
  C     -3.104890   -2.647704   -0.223832
  C     -4.363858   -3.228645   -0.048224
  C     -5.464258   -2.435691    0.296043
  C     -5.298365   -1.053199    0.466640
  C     -4.045828   -0.466940    0.289175
  C      2.187441   -0.883669   -0.483236
  C      2.135731   -1.202591    0.885466
  C      3.283008   -1.666294    1.532654
  C      4.481007   -1.814110    0.820192
  C      4.531254   -1.498860   -0.542737
  C      3.386535   -1.032345   -1.195812
  H     -0.788638   -2.102090   -1.519772
  H     -1.259340    2.789670    1.217450
  H     -0.310710    4.989761    1.846364
  H      2.002683    5.618897    1.141790
  H      3.347291    3.999873   -0.209186
  H      2.414746    1.823572   -0.840548
  H     -2.257057   -3.283527   -0.470363
  H     -4.482348   -4.302835   -0.178807
  H     -6.445144   -2.888862    0.427385
  H     -6.151712   -0.429900    0.728335
  H     -3.919815    0.607027    0.401398
  H      1.209290   -1.083791    1.443129
  H      3.244235   -1.909781    2.592840
  H      5.374419   -2.172874    1.328730
  H      5.461134   -1.612529   -1.097159
  H      3.419833   -0.776258   -2.252110
