42
  Isotropic shielding for P: 307.121 ppm
  C     -3.130146   -1.085932    1.323415
  C     -2.632013    0.089904    0.458890
  C     -3.650040    1.231814    0.496314
  O     -1.380022    0.588962    0.997845
  P     -0.039859   -0.367188    0.511895
  O     -0.866691   -0.912210   -0.796602
  C     -2.221366   -0.348178   -0.987983
  C     -3.084105   -1.452324   -1.596320
  C     -2.073464    0.828278   -1.961618
  O      1.310306   -1.231307   -0.100848
  C      2.572473   -0.653941    0.324065
  C      2.278592    0.883058    0.250768
  O      0.876272    0.979274    0.713130
  C      2.309028    1.439989   -1.178505
  C      3.118937    1.746436    1.189635
  C      3.656794   -1.125431   -0.647729
  C      2.901986   -1.135787    1.751160
  H     -2.463040   -1.952917    1.263220
  H     -3.175052   -0.756376    2.368315
  H     -4.134303   -1.403040    1.018485
  H     -4.575665    0.937146   -0.014587
  H     -3.896605    1.469479    1.538453
  H     -3.255649    2.133996    0.019202
  H     -0.132217   -1.187631    1.648159
  H     -4.124382   -1.111888   -1.671925
  H     -3.057398   -2.363958   -0.992068
  H     -2.728672   -1.691185   -2.605892
  H     -3.054776    1.225848   -2.245403
  H     -1.569670    0.477476   -2.870071
  H     -1.479115    1.636818   -1.522458
  H      1.871169    2.445110   -1.178136
  H      3.338803    1.514306   -1.546796
  H      1.734321    0.807806   -1.863917
  H      4.182769    1.636509    0.944716
  H      2.848606    2.802501    1.069028
  H      2.969695    1.465962    2.236534
  H      4.605624   -0.614425   -0.440297
  H      3.371841   -0.933565   -1.686558
  H      3.816098   -2.203770   -0.524810
  H      3.905262   -0.815054    2.055492
  H      2.872803   -2.231918    1.764498
  H      2.183074   -0.762848    2.489200
