16
  Isotropic shielding for P: -32.010 ppm
  C     -1.027263   -0.321628    1.147378
  C     -0.402381    0.611803    0.094517
  C      0.940952    0.084860   -0.470792
  P      2.329660    0.099126    0.763797
  Cl     3.940579   -0.238947   -0.584842
  Cl     2.144077   -1.846591    1.601023
  C     -1.378493    0.845874   -1.076269
  H     -1.175350   -1.329878    0.735309
  H     -0.401843   -0.413779    2.043242
  H     -2.005903    0.065260    1.459998
  H     -0.207952    1.586550    0.570082
  H      0.834657   -0.915232   -0.911532
  H      1.292468    0.765643   -1.260472
  H     -1.600592   -0.100916   -1.589239
  H     -2.325013    1.263770   -0.708644
  H     -0.957600    1.542284   -1.813454
