38
  Isotropic shielding for P: 129.115 ppm
  C      0.668960    2.710085   -2.570162
  O      1.376651    2.065333   -1.475277
  P      0.517811    1.829366   -0.055464
  N     -0.416768    0.404456   -0.428824
  C     -1.862779    0.598338   -0.664480
  C     -2.737852   -0.050381    0.394818
  C     -3.980995   -0.589803    0.034027
  C     -4.831813   -1.150141    0.993575
  C     -4.407276   -1.163443    2.318052
  C     -3.179573   -0.645517    2.717335
  C     -2.347238   -0.085800    1.741426
  F     -5.234029   -1.717426    3.272161
  C      0.099674   -0.865083   -0.649811
  O     -0.626097   -1.774401   -1.091246
  C      1.522651   -1.090044   -0.293031
  C      2.292377   -0.167958    0.472273
  N      1.760995    1.072616    0.840653
  C      2.503784    1.941417    1.773615
  C      3.595085   -0.541818    0.871064
  C      4.131504   -1.771070    0.493986
  C      3.387173   -2.669081   -0.285056
  C      2.093358   -2.322467   -0.660292
  H      1.428003    3.048913   -3.281420
  H     -0.004875    1.996239   -3.062470
  H      0.088843    3.572828   -2.211999
  H     -2.040186    1.682743   -0.677035
  H     -2.125250    0.210065   -1.654618
  H     -4.290325   -0.578899   -1.010488
  H     -5.795858   -1.574261    0.721522
  H     -2.884374   -0.680229    3.763794
  H     -1.381198    0.317062    2.038413
  H      1.881957    2.812982    2.001439
  H      2.709635    1.404254    2.707234
  H      3.452737    2.290301    1.342979
  H      4.197414    0.139961    1.462264
  H      5.143607   -2.025106    0.805697
  H      3.810915   -3.625274   -0.584682
  H      1.483252   -3.008652   -1.242271
