42
  Isotropic shielding for P: 258.837 ppm
  C     -1.926465   -2.746218   -1.031650
  C     -2.063409   -1.230950   -1.229652
  N     -1.215276   -0.437629   -0.306315
  P      0.338844   -0.078324   -0.722521
  O      0.836407   -0.878364   -1.883382
  O      0.360238    1.517338   -0.926292
  C      1.645247    2.223930   -1.181691
  C      1.830697    3.247241   -0.067703
  C      1.563043    2.833603   -2.576498
  O      1.236362   -0.192304    0.615909
  C      1.550177   -1.536222    1.160443
  C      1.419725   -1.437505    2.675679
  C      2.943855   -1.941491    0.690464
  C     -1.849214    0.244105    0.860110
  C     -2.775418    1.392127    0.419691
  C     -2.570520   -0.756359    1.776878
  H     -0.893167   -3.065042   -1.214310
  H     -2.581338   -3.278484   -1.736074
  H     -2.203889   -3.040469   -0.012756
  H     -3.103733   -0.922688   -1.074318
  H     -1.811168   -0.969667   -2.264243
  H      2.453009    1.481499   -1.146168
  H      1.868130    2.753557    0.910220
  H      2.769909    3.795845   -0.217103
  H      1.003151    3.968965   -0.070362
  H      2.494022    3.368758   -2.805092
  H      0.729335    3.545773   -2.634878
  H      1.416010    2.052766   -3.332067
  H      0.801481   -2.238925    0.769709
  H      0.402939   -1.145594    2.961981
  H      2.126824   -0.697760    3.074145
  H      1.643541   -2.410794    3.131172
  H      3.693502   -1.226467    1.054628
  H      3.193200   -2.936216    1.082599
  H      2.988504   -1.976227   -0.403595
  H     -1.020448    0.677983    1.432003
  H     -3.163972    1.919547    1.300837
  H     -2.229494    2.109406   -0.203226
  H     -3.634959    1.015118   -0.149843
  H     -2.947941   -0.233669    2.665171
  H     -3.428310   -1.219789    1.272689
  H     -1.889430   -1.550303    2.104813
