40
  Isotropic shielding for P: 169.753 ppm
  C      5.073894    0.126355    0.013941
  N      3.694099   -0.334657   -0.074573
  C      3.088021   -0.971188   -1.110590
  C      1.786872   -1.257587   -0.719152
  C      1.682340   -0.736030    0.595018
  N      2.845134   -0.172391    0.989548
  N      0.601313   -0.786998    1.490373
  P     -1.019731   -0.149595    1.371916
  C     -1.929178   -1.265828    0.104078
  C     -3.430753   -1.155165    0.481966
  C     -1.781505   -0.950060   -1.397216
  C     -1.473675   -2.716884    0.381118
  C     -0.824300    1.623043    0.671350
  C     -2.240885    2.209034    0.475087
  C      0.004089    1.814254   -0.616197
  C     -0.123285    2.396727    1.817397
  H      5.559885   -0.050890   -0.949528
  H      5.098991    1.198262    0.242613
  H      5.609148   -0.422697    0.798490
  H      3.619255   -1.180130   -2.031577
  H      1.040894   -1.780253   -1.296904
  H      0.928833   -0.694017    2.450001
  H     -3.600737   -1.439892    1.527986
  H     -3.819824   -0.141090    0.336195
  H     -4.015180   -1.832941   -0.157551
  H     -0.740103   -0.946214   -1.727724
  H     -2.222995    0.019041   -1.652743
  H     -2.315409   -1.717363   -1.979024
  H     -1.542628   -2.964833    1.448786
  H     -0.442087   -2.894099    0.061536
  H     -2.128446   -3.407868   -0.170080
  H     -2.163743    3.292929    0.302326
  H     -2.752741    1.771813   -0.389421
  H     -2.870415    2.055029    1.362009
  H      0.017687    2.886347   -0.869505
  H     -0.412510    1.276762   -1.470926
  H      1.041063    1.493729   -0.482670
  H     -0.697919    2.343204    2.751383
  H      0.883549    2.006107    2.009917
  H     -0.026918    3.455934    1.536050
