32
  Isotropic shielding for P: 235.912 ppm
  C     -5.309433    0.905070   -0.441191
  C     -4.061792    0.411055    0.264956
  N     -3.726950    0.934768    1.409764
  N     -3.399339   -0.590797   -0.399026
  C     -2.102832   -1.137496    0.002602
  C     -0.904593   -0.257872   -0.402449
  C      0.431830   -0.831918    0.092215
  C      1.629837    0.046142   -0.305199
  C      2.977845   -0.520002    0.194219
  P      4.442786    0.444671   -0.354611
  O      5.771913   -0.198727   -0.128504
  O      4.297919    1.905552    0.352381
  O      4.077943    0.782103   -1.892827
  N      3.123718   -0.635672    1.664137
  H     -5.987619    0.070946   -0.666135
  H     -5.044486    1.382278   -1.395095
  H     -5.829611    1.632676    0.187111
  H     -2.856225    0.523451    1.767825
  H     -3.722991   -0.821179   -1.332601
  H     -2.104949   -1.290002    1.091645
  H     -2.009925   -2.130637   -0.455179
  H     -0.889758   -0.160387   -1.498425
  H     -1.044180    0.753914    0.005629
  H      0.393457   -0.937261    1.186433
  H      0.573669   -1.845245   -0.317008
  H      1.496476    1.059753    0.103145
  H      1.660521    0.143046   -1.398450
  H      3.131457   -1.522264   -0.232674
  H      4.835884    1.972423    1.165850
  H      4.828925    1.165742   -2.389686
  H      2.597739   -1.442176    2.002256
  H      2.722967    0.188243    2.118588
