31
  Isotropic shielding for P: 214.932 ppm
  O      4.304571    1.904346    2.703692
  C      3.519758    1.672503    1.612793
  O      3.500895    2.413322    0.642783
  C      2.705905    0.404089    1.783891
  C      1.815752    0.102502    0.573583
  P      0.804246   -1.397032    0.809680
  O      0.064479   -1.441003    2.114249
  C     -0.242551   -1.533240   -0.693444
  N     -1.151650   -0.394115   -0.811657
  C     -2.349032   -0.483157    0.037170
  C     -2.999530    0.911696    0.107260
  O     -2.823239    1.660982   -1.124328
  C     -2.780043    0.782951   -2.264240
  C     -1.527879   -0.121682   -2.218876
  O      1.823103   -2.672748    0.732207
  H      4.808675    2.733182    2.545092
  H      3.409058   -0.417122    1.982067
  H      2.105950    0.514085    2.697614
  H      1.113765    0.924207    0.384811
  H      2.414675   -0.030116   -0.337275
  H      0.446204   -1.532337   -1.549775
  H     -0.752001   -2.517892   -0.682674
  H     -3.062504   -1.238668   -0.349184
  H     -2.057186   -0.795061    1.044669
  H     -4.074630    0.814374    0.334166
  H     -2.524734    1.518915    0.887528
  H     -2.759103    1.422893   -3.152979
  H     -3.698035    0.174220   -2.303320
  H     -0.674938    0.360957   -2.714762
  H     -1.753902   -1.057779   -2.767384
  H      2.393917   -2.683071   -0.062754
