49
  Isotropic shielding for P: 229.700 ppm
  C     -7.639153    1.207867    1.258674
  C     -6.875006    0.500294    0.127702
  C     -5.448417    0.087869    0.528025
  C     -4.685595   -0.631887   -0.597653
  C     -3.272659   -1.112621   -0.210046
  C     -2.266407    0.024010    0.048187
  C     -0.853218   -0.455751    0.437540
  C     -0.084097   -1.147264   -0.702005
  C      1.300221   -1.690938   -0.290115
  C      2.289242   -0.651944    0.276993
  C      2.625184    0.480738   -0.707778
  C      3.568323    1.565897   -0.144719
  P      5.302224    1.126235    0.154569
  O      6.168065    2.294496    0.509474
  O      5.368573   -0.071291    1.245898
  C      5.260027    0.239186    2.668188
  O      5.696341    0.330090   -1.186481
  C      7.067767   -0.139821   -1.381949
  H     -7.731754    0.555480    2.138904
  H     -8.652306    1.492218    0.943474
  H     -7.116324    2.121861    1.575017
  H     -6.825612    1.161364   -0.752236
  H     -7.433716   -0.394465   -0.190137
  H     -5.497263   -0.573892    1.409114
  H     -4.894428    0.984174    0.845769
  H     -5.279867   -1.500255   -0.923623
  H     -4.611985    0.036432   -1.471701
  H     -2.892835   -1.762162   -1.011864
  H     -3.339955   -1.743763    0.691964
  H     -2.647953    0.672215    0.850174
  H     -2.198616    0.656657   -0.852825
  H     -0.274359    0.410042    0.789915
  H     -0.929161   -1.144749    1.295660
  H      0.023146   -0.439738   -1.538991
  H     -0.677108   -1.987386   -1.090682
  H      1.762327   -2.178896   -1.163184
  H      1.158002   -2.481401    0.463787
  H      3.211577   -1.171814    0.565617
  H      1.884873   -0.212363    1.201141
  H      3.054939    0.059080   -1.627194
  H      1.699510    0.991779   -1.005560
  H      3.614018    2.425689   -0.828065
  H      3.189715    1.951239    0.814101
  H      6.012738    0.981592    2.954506
  H      5.436669   -0.700332    3.197924
  H      4.254782    0.612601    2.898472
  H      7.769479    0.698631   -1.312028
  H      7.313424   -0.903028   -0.635233
  H      7.096925   -0.571773   -2.385117
