38
  Isotropic shielding for P: 242.351 ppm
  N      4.051887   -3.260444   -2.084887
  C      3.637725   -1.984872   -1.896437
  N      3.927757   -1.052052   -2.840108
  C      3.494597    0.212199   -2.656163
  N      2.787196    0.713852   -1.629831
  C      2.516427   -0.229826   -0.707676
  C      2.892478   -1.580729   -0.763637
  N      2.441340   -2.261207    0.359679
  C      1.812543   -1.335445    1.069085
  N      1.825761   -0.081323    0.482454
  C      1.213345    1.172729    0.938139
  C      1.217770    1.386583    2.475504
  C      0.007808    2.274804    2.668865
  C     -0.785886    2.297222    1.589675
  C     -0.268387    1.403319    0.476451
  C     -1.086522    0.111546    0.353366
  O     -2.436171    0.485642    0.002352
  C     -3.312364   -0.640261   -0.033794
  P     -5.009232   -0.115695   -0.452761
  O     -5.965243   -1.258367   -0.520603
  O     -4.925996    0.773032   -1.805200
  O     -5.277196    1.012459    0.663498
  H      3.953021   -3.942152   -1.342135
  H      4.678492   -3.470361   -2.853812
  H      3.756787    0.916951   -3.447165
  H      1.322899   -1.510721    2.019185
  H      1.813449    1.966479    0.482178
  H      2.156622    1.843707    2.813151
  H      1.102255    0.446947    3.035563
  H     -0.185085    2.801053    3.601823
  H     -1.724891    2.839161    1.508041
  H     -0.285334    1.902450   -0.502131
  H     -1.095620   -0.440219    1.308342
  H     -0.673778   -0.547756   -0.427493
  H     -3.005268   -1.376999   -0.796776
  H     -3.352141   -1.157029    0.940642
  H     -5.069758    0.237879   -2.611806
  H     -6.151091    1.447043    0.584225
