44
  Isotropic shielding for P: 280.092 ppm
  C     -1.111598    3.591231   -1.226130
  C     -1.671795    2.867264    0.002116
  N     -0.624180    2.571876    0.999036
  C     -0.195994    3.431743    1.983209
  C      0.825864    2.780631    2.650322
  N      1.036945    1.538221    2.097705
  C      0.149506    1.436943    1.099652
  P     -0.011836   -0.012380    0.041748
  O     -0.029663    0.282924   -1.435223
  C      1.331547   -1.085567    0.578929
  N      1.155588   -2.190270    1.315486
  C      2.415643   -2.711157    1.500885
  C      3.357400   -1.915335    0.874215
  N      2.662948   -0.881508    0.290757
  C      3.256796    0.191241   -0.530932
  C      3.381013   -0.210027   -2.003854
  C     -1.490991   -0.829242    0.665984
  N     -2.200390   -0.385333    1.711914
  C     -3.238207   -1.277469    1.855408
  C     -3.153304   -2.266151    0.891949
  N     -2.039431   -1.977354    0.138778
  C     -1.584035   -2.738026   -1.041495
  C     -2.264880   -2.266636   -2.330172
  H     -0.650877    4.545053   -0.940944
  H     -0.364137    2.968377   -1.729849
  H     -1.926671    3.798178   -1.931267
  H     -2.141768    1.920702   -0.281021
  H     -2.430457    3.475214    0.506907
  H     -0.646946    4.406900    2.116920
  H      1.409010    3.139186    3.490807
  H      2.581203   -3.618349    2.070650
  H      4.434591   -1.988758    0.794035
  H      2.633282    1.083346   -0.417860
  H      4.237652    0.417489   -0.099023
  H      2.392925   -0.418167   -2.428790
  H      4.014010   -1.099048   -2.114266
  H      3.837963    0.612583   -2.568540
  H     -3.982391   -1.168252    2.635967
  H     -3.770783   -3.129973    0.680470
  H     -1.799641   -3.793703   -0.843680
  H     -0.497259   -2.630854   -1.109406
  H     -3.352904   -2.389728   -2.264759
  H     -1.899131   -2.863390   -3.175407
  H     -2.034521   -1.212721   -2.521330
