48
  Isotropic shielding for P: 269.962 ppm
  C     -6.420808    0.943490    3.314177
  C     -5.247041    0.540022    2.405152
  C     -4.020199    0.168833    3.231237
  O     -2.906459   -0.315525    2.390979
  P     -2.013451    0.707844    1.544158
  O     -1.788281    2.061288    2.121990
  N     -0.647499   -0.254502    1.378969
  C      0.470232    0.113064    0.589044
  N      0.830512    1.333583    0.339705
  N      1.166136   -0.965491    0.109341
  C      2.348961   -0.818357   -0.738001
  C      3.640881   -0.555108    0.074382
  C      4.829945   -0.347142   -0.836588
  C      5.106235    0.922021   -1.374632
  C      6.177516    1.112108   -2.254878
  C      6.992661    0.030712   -2.614002
  C      6.726803   -1.239221   -2.086662
  C      5.653347   -1.423836   -1.206993
  O     -2.677860    0.871760    0.094018
  C     -3.056960   -0.306059   -0.712899
  C     -2.820008    0.009212   -2.182729
  C     -1.337291    0.189461   -2.543296
  H     -7.299155    1.211768    2.714450
  H     -6.159857    1.809718    3.937466
  H     -6.705942    0.119416    3.982465
  H     -4.995787    1.368581    1.728688
  H     -5.528275   -0.317592    1.778184
  H     -3.661073    1.018329    3.824754
  H     -4.230134   -0.671220    3.901560
  H     -0.720767   -1.225715    1.672903
  H      0.247732    1.994494    0.859791
  H      0.694974   -1.862200    0.100762
  H      2.192055    0.001235   -1.451278
  H      2.456818   -1.746827   -1.310105
  H      3.482513    0.333064    0.698251
  H      3.816584   -1.409754    0.740911
  H      4.477008    1.767629   -1.096485
  H      6.378642    2.104177   -2.657453
  H      7.828958    0.177159   -3.295980
  H      7.357106   -2.085414   -2.357529
  H      5.453178   -2.414001   -0.796926
  H     -2.458355   -1.168840   -0.392577
  H     -4.113791   -0.508140   -0.504981
  H     -3.252141   -0.822092   -2.760488
  H     -3.393321    0.909227   -2.449672
  H     -0.765064   -0.720656   -2.317053
  H     -0.887787    1.014518   -1.978818
  H     -1.221283    0.405575   -3.613012
