29
  Isotropic shielding for P: 236.205 ppm
  C     -2.955695    1.906407    1.276178
  C     -1.568581    2.519213    1.420295
  O     -0.648173    2.065069    0.362531
  P      0.065447    0.619072    0.446995
  O      0.456863    0.201636    1.827687
  C      1.391409    0.870721   -0.774196
  C      1.959753   -0.420734   -1.366866
  C      2.987132   -0.171339   -2.471679
  Cl     4.445316    0.790698   -1.897723
  O      2.494853   -1.208745   -0.286029
  O     -0.952524   -0.393908   -0.290005
  C     -1.457771   -1.622982    0.344986
  C     -0.804842   -2.843914   -0.283858
  H     -3.629287    2.369474    2.010145
  H     -3.360225    2.088209    0.272720
  H     -2.942271    0.825941    1.461551
  H     -1.599454    3.606606    1.297277
  H     -1.121572    2.284248    2.393528
  H      2.180704    1.449727   -0.278379
  H      0.980391    1.487775   -1.582899
  H      1.143123   -0.973174   -1.862377
  H      3.388434   -1.116817   -2.846604
  H      2.548008    0.400019   -3.294068
  H      2.741019   -2.084169   -0.639837
  H     -1.261291   -1.569360    1.420699
  H     -2.540771   -1.610757    0.178883
  H     -1.232510   -3.753629    0.159528
  H      0.276661   -2.843760   -0.102747
  H     -0.984242   -2.871430   -1.366030
