30
  Isotropic shielding for P: 174.915 ppm
  N      1.981047   -2.035239   -2.205216
  N      1.435034   -1.613724   -0.948392
  P      1.226903   -0.027901   -0.499216
  S      0.823419    1.165146   -1.970671
  O      2.521849    0.456813    0.431955
  C      3.601411    1.115237   -0.133522
  C      4.293547    1.963550    0.966740
  Cl     5.695629    2.845643    0.265737
  Cl     3.072381    3.172604    1.544273
  Cl     4.828655    0.944415    2.348857
  Cl     4.783402   -0.100550   -0.866103
  O      0.249592   -0.122469    0.785394
  C     -1.118951   -0.465651    0.616062
  C     -1.501823   -1.797916    0.761449
  C     -2.861120   -2.104721    0.646982
  C     -3.798245   -1.096488    0.388920
  C     -3.400670    0.242655    0.246067
  C     -2.034731    0.551981    0.367609
  C     -4.404345    1.336839   -0.042554
  H      1.327088   -1.749556   -2.937579
  H      2.867594   -1.550735   -2.379827
  H      1.566793   -2.301198   -0.208034
  H      3.312219    1.769103   -0.963437
  H     -0.757931   -2.564444    0.962494
  H     -3.189909   -3.136322    0.760346
  H     -4.853593   -1.351674    0.302174
  H     -1.683977    1.576968    0.269814
  H     -5.431118    0.959423    0.021009
  H     -4.254623    1.748139   -1.051209
  H     -4.295422    2.169969    0.664676
