39
  Isotropic shielding for P: 241.296 ppm
  C     -5.115451   -1.384158   -1.859888
  C     -4.159762   -1.286988   -0.659894
  C     -3.132610   -0.151662   -0.806609
  C     -2.180728   -0.064413    0.388138
  N     -1.225471    1.059652    0.219630
  C     -0.237090    1.174399    1.316223
  P      0.040630    3.020797    1.550863
  O      1.337572    3.550998    1.032619
  O     -1.306048    3.552335    0.875606
  O     -0.200796    3.342215    3.122442
  C      1.069797    0.442427    1.077968
  C      1.914352    0.130808    2.178918
  C      3.119076   -0.490433    1.940160
  C      3.491885   -0.809130    0.607068
  C      2.572750   -0.458705   -0.440434
  N      1.379738    0.164907   -0.178877
  C      2.909819   -0.764626   -1.785392
  C      4.107836   -1.389843   -2.079586
  C      5.016322   -1.736381   -1.045947
  C      4.713814   -1.451861    0.272633
  H     -5.682965   -0.451579   -1.988360
  H     -4.560813   -1.568835   -2.790815
  H     -5.836668   -2.202004   -1.729916
  H     -3.628305   -2.243012   -0.534193
  H     -4.740659   -1.130610    0.262322
  H     -2.545279   -0.305851   -1.726066
  H     -3.655727    0.810212   -0.920951
  H     -1.642043   -1.019668    0.511757
  H     -2.745470    0.118227    1.312586
  H     -0.692184    0.916897   -0.646058
  H     -0.695357    0.824086    2.248736
  H     -1.642481    2.691016    0.392402
  H      0.639245    3.531741    3.586038
  H      1.598616    0.384554    3.189165
  H      3.789863   -0.747275    2.759403
  H      2.204975   -0.493779   -2.569588
  H      4.360111   -1.620190   -3.113439
  H      5.954182   -2.228410   -1.297688
  H      5.405223   -1.715554    1.072424
