23
  Isotropic shielding for P: 271.870 ppm
  C     -2.994207   -1.709894   -0.803322
  C     -1.704112   -1.185009   -0.201173
  O     -1.111247   -0.232300   -1.166263
  P      0.118928    0.704778   -0.771989
  O      0.495079    1.590323   -1.905703
  O      1.215141   -0.335499   -0.257673
  C      2.527529    0.143085    0.230038
  C      3.445410   -1.059166    0.348002
  O     -0.261429    1.468519    0.592556
  C     -1.151630    2.629833    0.541731
  H     -2.803577   -2.218967   -1.756354
  H     -3.448478   -2.431074   -0.111047
  H     -3.708432   -0.894419   -0.971663
  H     -1.882111   -0.655467    0.742196
  H     -0.975543   -1.986385   -0.032589
  H      2.364992    0.630600    1.198634
  H      2.913682    0.879982   -0.484632
  H      3.593370   -1.536578   -0.628555
  H      4.422874   -0.731144    0.725555
  H      3.035147   -1.798241    1.047477
  H     -1.220698    2.998211    1.567941
  H     -0.728187    3.399768   -0.111761
  H     -2.142596    2.329245    0.182295
