27
  Isotropic shielding for P: 236.583 ppm
  C      2.573046    1.850210   -1.067886
  C      2.039291    0.598148   -0.417803
  C      0.893593    0.024776   -0.868842
  P      0.267876   -1.520181   -0.231454
  O      0.570324   -2.714387   -1.088883
  C      0.979121   -1.598303    1.446154
  C      2.342935   -0.969202    1.539296
  C      2.779000    0.002569    0.715633
  Cl     4.411363    0.648035    1.017792
  O     -1.333033   -1.365941   -0.080399
  C     -1.955021   -0.227772    0.620502
  C     -3.256856    0.126514   -0.085053
  C     -3.055313    0.648798   -1.516135
  H      2.716788    2.646698   -0.325571
  H      1.881015    2.201929   -1.839130
  H      3.552439    1.665655   -1.529161
  H      0.367237    0.469410   -1.713268
  H      1.016516   -2.650682    1.757751
  H      0.294889   -1.089613    2.146155
  H      2.988148   -1.313406    2.345000
  H     -1.260731    0.623500    0.616708
  H     -2.128408   -0.539558    1.658057
  H     -3.912050   -0.757007   -0.087649
  H     -3.757947    0.889607    0.529520
  H     -2.571683   -0.105847   -2.148791
  H     -4.017878    0.907453   -1.975378
  H     -2.424660    1.548699   -1.520163
