35
  Isotropic shielding for P: 221.531 ppm
  Cl     6.761699   -0.461657    1.019764
  C      5.321178   -0.943957    0.177095
  C      5.024709   -2.189705   -0.316515
  C      3.755206   -2.212860   -0.969153
  C      3.104293   -0.999156   -0.973967
  S      4.062990    0.216274   -0.154040
  C      1.743594   -0.687372   -1.507182
  P      0.392929   -1.007274   -0.273048
  O      0.491661   -2.376293    0.356322
  C      0.480499    0.328949    1.021937
  C     -0.383042    1.540376    0.865880
  C     -1.447945    1.910953    1.655674
  C     -2.088847    3.117196    1.245479
  C     -1.493120    3.656035    0.134820
  S     -0.136639    2.708792   -0.414981
  Cl    -1.961751    5.094076   -0.719001
  C     -1.131959   -0.756134   -1.278928
  C     -2.366315   -0.583561   -0.447103
  C     -2.755555   -1.249504    0.694200
  C     -3.956962   -0.742117    1.273485
  C     -4.467878    0.307311    0.550327
  S     -3.502622    0.679732   -0.846261
  Cl    -5.894552    1.233798    0.905385
  H      5.687960   -3.044171   -0.221597
  H      3.329156   -3.105169   -1.420348
  H      1.519515   -1.353153   -2.352248
  H      1.655890    0.346048   -1.866381
  H      0.198752   -0.177870    1.952606
  H      1.544090    0.590352    1.110580
  H     -1.781878    1.315107    2.500163
  H     -2.953914    3.555212    1.733289
  H     -0.968178    0.113715   -1.926788
  H     -1.188988   -1.638511   -1.934578
  H     -2.179515   -2.063766    1.124174
  H     -4.414663   -1.121799    2.181837
