37
  Isotropic shielding for P: 190.898 ppm
  C      2.905084    2.666887    0.980625
  S      4.104663    2.504230   -0.411720
  P      3.059763    1.168797   -1.684639
  S      4.199206    0.856514   -3.252108
  N      1.547708    1.745076   -1.927180
  C      0.511104    1.204942   -1.303374
  S     -1.119884    1.856495   -1.476964
  C     -1.731524    0.572380   -0.386899
  N     -0.808130   -0.243052    0.046214
  C      0.443133    0.072338   -0.437278
  C      1.631315   -0.648603   -0.163602
  N      2.819416   -0.257826   -0.741929
  C      3.933999   -1.099389   -0.227247
  C      3.184815   -2.269069    0.432581
  N      1.816614   -1.732060    0.610235
  C      0.791290   -2.564358    1.237749
  C     -3.151221    0.484633   -0.053029
  C     -3.616612   -0.551635    0.784636
  C     -4.966611   -0.654868    1.111200
  C     -5.867166    0.285247    0.597975
  C     -5.437827    1.322242   -0.233005
  C     -4.083468    1.415705   -0.553196
  Cl    -7.578883    0.156935    1.008121
  H      3.334115    3.411584    1.658771
  H      1.940238    3.021548    0.608529
  H      2.794975    1.713912    1.505880
  H      4.580994   -1.412405   -1.049737
  H      4.521368   -0.521151    0.496392
  H      3.144076   -3.157290   -0.214693
  H      3.607445   -2.552761    1.401426
  H      0.521166   -3.402497    0.577996
  H      1.200001   -2.965619    2.171723
  H     -0.095512   -1.965740    1.442392
  H     -2.910285   -1.278515    1.176791
  H     -5.318544   -1.456233    1.755948
  H     -6.148078    2.045868   -0.624604
  H     -3.758445    2.227638   -1.201284
