38
  Isotropic shielding for P: 230.646 ppm
  O      1.394825    0.177535    2.415987
  C      1.744294    0.055759    1.237239
  C      0.712208   -0.318768    0.213264
  C      1.079413   -0.494143   -1.101410
  O      0.147042   -0.899478   -2.072167
  P     -1.258467   -1.576527   -1.624235
  O     -2.205109   -1.696416   -2.756887
  C     -1.743378   -0.551789   -0.154990
  N     -0.542865   -0.493571    0.688556
  C     -2.131021    0.865386   -0.704497
  C     -3.100307    1.560870    0.263841
  C     -4.453487    0.807595    0.328100
  C     -4.273867   -0.720981    0.128229
  C     -2.906698   -1.193038    0.645986
  Cl    -0.675661   -3.406273   -0.857916
  C      2.424995   -0.286942   -1.598907
  O      2.709702   -0.447706   -2.799274
  C      3.460104    0.115594   -0.592980
  C      3.132694    0.266586    0.773695
  C      4.124911    0.624936    1.697341
  C      5.438047    0.836915    1.268985
  C      5.762376    0.690452   -0.085192
  C      4.776278    0.330824   -1.011804
  H     -0.661068   -0.358094    1.692640
  H     -1.214628    1.449123   -0.846652
  H     -2.606783    0.763071   -1.688816
  H     -3.252828    2.599265   -0.055803
  H     -2.639919    1.604882    1.261027
  H     -5.131481    1.195535   -0.443880
  H     -4.930214    1.003253    1.298067
  H     -4.365226   -0.980004   -0.935271
  H     -5.066739   -1.270140    0.650443
  H     -2.788426   -0.886889    1.695948
  H     -2.825690   -2.285568    0.633121
  H      3.857009    0.736360    2.745264
  H      6.205485    1.115912    1.988174
  H      6.784434    0.854978   -0.421397
  H      5.020047    0.211494   -2.064627
