22
  Isotropic shielding for P: 232.428 ppm
  O     -0.367534   -2.301165    1.400300
  P     -0.725187   -1.709078   -0.061463
  O     -0.613745   -2.786365   -1.085780
  O     -2.215909   -1.097663    0.153586
  C     -2.450130    0.240681   -0.414300
  C     -1.599824    1.301527    0.299290
  N     -0.260558    0.768022    0.649199
  C      0.292103   -0.199198   -0.321342
  C      1.789188   -0.464792   -0.086972
  C      2.674562    0.735448   -0.465705
  H     -3.516904    0.437445   -0.280480
  H     -2.234094    0.206675   -1.488674
  H     -2.091009    1.620471    1.227650
  H     -1.545618    2.174811   -0.374294
  H      0.391747    1.537858    0.794837
  H     -0.434848   -1.617587    2.099702
  H      0.156955    0.105399   -1.377332
  H      2.081835   -1.335417   -0.689334
  H      1.945771   -0.734338    0.966513
  H      3.734244    0.482268   -0.334362
  H      2.519475    1.019603   -1.515327
  H      2.469377    1.615398    0.158389
