29
  Isotropic shielding for P: 242.747 ppm
  C     -1.810803    2.814272   -1.385495
  C     -1.734013    1.735753   -0.320812
  O     -0.393321    1.119862   -0.399329
  P      0.006593   -0.086361    0.576778
  O     -0.204491    0.130013    2.039194
  C      1.743006   -0.361343    0.111788
  C      1.973087   -0.672055   -1.384988
  O      3.337187   -0.196038   -1.668017
  C      3.755570    0.681506   -0.706059
  O      4.839125    1.229036   -0.775861
  C      2.684980    0.832776    0.366726
  O     -0.809721   -1.326231   -0.051078
  C     -1.173556   -2.495973    0.775896
  C     -2.600204   -2.362437    1.283200
  H     -1.673691    2.387055   -2.386622
  H     -1.046984    3.584084   -1.219128
  H     -2.798587    3.291979   -1.344778
  H     -1.859776    2.147506    0.687529
  H     -2.481563    0.949856   -0.484576
  H      2.072077   -1.219977    0.712670
  H      1.945909   -1.739387   -1.613487
  H      1.292049   -0.125815   -2.045893
  H      3.135593    0.839642    1.362520
  H      2.190887    1.801634    0.209028
  H     -0.458250   -2.590701    1.601153
  H     -1.057695   -3.355025    0.106886
  H     -2.696384   -1.504054    1.958331
  H     -2.877966   -3.271787    1.833646
  H     -3.299361   -2.237689    0.446781
