32
  Isotropic shielding for P: 187.179 ppm
  C     -1.516849   -3.842530    0.862075
  C     -2.370499   -2.926957   -0.000863
  O     -1.698825   -1.638627   -0.255544
  P     -1.676392   -0.444958    0.824608
  S     -3.263399   -0.263197    1.960119
  N     -0.319332   -0.685556    1.789927
  C      0.915937   -0.363588    1.591924
  C      1.604575    0.170460    0.406616
  C      2.699486    1.032704    0.626422
  C      3.384863    1.595410   -0.450644
  C      3.018347    1.259657   -1.760793
  C      1.965837    0.362072   -1.987264
  C      1.254639   -0.173899   -0.914127
  O     -1.450812    0.770882   -0.212360
  C     -1.288049    2.147319    0.290053
  C     -0.872052    3.017457   -0.882049
  H     -2.017594   -4.815653    0.956310
  H     -1.381282   -3.426397    1.867716
  H     -0.530418   -4.002425    0.409455
  H     -2.527933   -3.340191   -1.001990
  H     -3.343327   -2.719823    0.460177
  H      1.579237   -0.499011    2.459318
  H      2.991699    1.272818    1.648145
  H      4.210545    2.281640   -0.271695
  H      3.561682    1.684285   -2.603351
  H      1.699867    0.080633   -3.004592
  H      0.451126   -0.879377   -1.097733
  H     -0.526700    2.150717    1.079951
  H     -2.246050    2.463759    0.720044
  H      0.088931    2.688098   -1.292927
  H     -1.628351    2.988378   -1.676400
  H     -0.768704    4.055803   -0.540530
