45
  Isotropic shielding for P: 160.213 ppm
  C      4.916968    0.279715    1.590930
  C      3.427963    0.442643    1.323547
  O      3.102781    0.083717   -0.071969
  C      2.829378   -1.208213   -0.328510
  O      2.867313   -2.118256    0.484022
  C      2.510470   -1.443551   -1.808969
  N      1.896092   -0.290955   -2.464373
  C      2.481558    0.442016   -3.493460
  C      1.754437    1.516112   -3.870058
  S      0.271905    1.647060   -2.935250
  C      0.701041    0.198839   -1.997531
  N      0.091459   -0.385110   -0.996836
  P     -1.219826    0.234007   -0.200197
  S     -2.696838    0.919709   -1.323091
  S     -1.751512   -1.308787    1.149705
  C     -2.622890   -2.528974    0.006422
  C     -2.149800   -3.940226    0.374719
  C     -4.140736   -2.358499    0.103296
  S     -0.251493    1.606630    1.117267
  C     -1.558624    2.768508    1.820908
  C     -1.925796    3.874328    0.826642
  C     -2.771570    2.041261    2.405888
  H      5.223909   -0.768791    1.501675
  H      5.137583    0.618700    2.611978
  H      5.507364    0.885548    0.892389
  H      3.108990    1.485628    1.401218
  H      2.817139   -0.176529    1.987236
  H      1.846324   -2.310845   -1.871130
  H      3.443950   -1.677594   -2.332915
  H      3.430233    0.107423   -3.896945
  H      1.982918    2.231202   -4.649730
  H     -2.279012   -2.277788   -1.003306
  H     -2.404918   -4.185435    1.414580
  H     -1.066214   -4.044749    0.247653
  H     -2.650091   -4.671072   -0.276246
  H     -4.492546   -2.568200    1.122257
  H     -4.634440   -3.063394   -0.581592
  H     -4.441278   -1.341547   -0.170267
  H     -0.972414    3.201218    2.643692
  H     -1.031978    4.397566    0.467405
  H     -2.576360    4.605883    1.327648
  H     -2.464080    3.465348   -0.034838
  H     -2.470285    1.271789    3.124964
  H     -3.371421    1.569829    1.619870
  H     -3.405457    2.773533    2.925804
