41
  Isotropic shielding for P: 230.302 ppm
  O      2.970858    0.783321    0.919750
  C      2.939879    0.214637   -0.180064
  N      4.082240   -0.122734   -0.906698
  C      5.428270    0.035127   -0.538592
  C      6.404419   -0.331976   -1.490564
  C      7.760426   -0.213542   -1.194268
  C      8.188980    0.271519    0.048738
  C      7.208908    0.627169    0.974630
  C      5.842086    0.522415    0.717153
  Cl     7.711854    1.242417    2.559901
  N      1.776900   -0.158262   -0.829915
  C      0.436883    0.056270   -0.432007
  C     -0.569764   -0.434879   -1.281697
  C     -1.923920   -0.270362   -0.978045
  C     -2.292340    0.397429    0.197732
  C     -1.295695    0.891939    1.051289
  C      0.055541    0.727926    0.747456
  O     -3.598692    0.615725    0.598903
  C     -4.651569    0.101662   -0.235578
  P     -6.250883    0.540070    0.581364
  O     -6.458704    2.031665    0.713706
  C     -7.485369   -0.300162   -0.458168
  C     -6.221188   -0.341452    2.173288
  H      3.943568   -0.522122   -1.831337
  H      6.088640   -0.711769   -2.461447
  H      8.499220   -0.501684   -1.939915
  H      9.244771    0.367771    0.285506
  H      5.112042    0.809190    1.461397
  H      1.878004   -0.664018   -1.705647
  H     -0.291586   -0.955069   -2.198103
  H     -2.670044   -0.664533   -1.661228
  H     -1.589800    1.410092    1.962436
  H      0.812091    1.114424    1.418210
  H     -4.630559    0.562505   -1.235244
  H     -4.577835   -0.991158   -0.345105
  H     -8.476999   -0.154917   -0.012973
  H     -7.474083    0.139786   -1.462422
  H     -7.270933   -1.373590   -0.524332
  H     -7.186328   -0.198439    2.673842
  H     -6.045355   -1.412591    2.017824
  H     -5.424031    0.073397    2.800125
