27
  Isotropic shielding for P: 237.018 ppm
  O     -2.854376    0.177151    1.923242
  C     -2.226315    0.547250    0.943719
  C     -0.934517    1.372228    1.038751
  P     -0.075166    1.192121   -0.585640
  O      0.101294    2.469608   -1.370199
  C     -1.291900   -0.008069   -1.279550
  C     -2.614778    0.234811   -0.508250
  C     -3.641654   -0.891555   -0.646387
  C      1.497506    0.319440   -0.294520
  C      2.672566    0.842817   -0.852587
  C      3.893791    0.191998   -0.646921
  C      3.953408   -0.978863    0.114680
  C      2.771989   -1.486275    0.664210
  C      1.543532   -0.857102    0.471736
  Cl     2.836205   -2.964446    1.630055
  H     -1.200244    2.431399    1.169068
  H     -0.332732    1.065044    1.900199
  H     -0.933876   -1.031426   -1.105331
  H     -1.394264    0.145910   -2.358869
  H     -3.052748    1.178069   -0.883344
  H     -3.226417   -1.838052   -0.276243
  H     -3.920241   -1.024573   -1.698519
  H     -4.548750   -0.666120   -0.073800
  H      2.626222    1.754414   -1.443234
  H      4.806999    0.595916   -1.079831
  H      4.898433   -1.489834    0.280617
  H      0.646034   -1.281961    0.915147
