48
  Isotropic shielding for P: 233.071 ppm
  C      3.502007    0.326284    2.144334
  O      2.358367   -0.105490    1.339488
  P      2.588834   -0.684443   -0.141309
  O      3.594999   -1.785573   -0.263674
  C      0.941762   -1.233693   -0.676570
  C     -0.378390   -0.440101   -0.464064
  S     -0.247058    1.184737   -1.415401
  C      0.493974    2.402042   -0.222653
  C      1.190162    3.461640   -1.020041
  C      0.739233    4.715761   -1.153094
  C     -0.773620   -0.233333    1.027783
  C     -0.915167   -1.615477    1.720711
  C     -2.030692   -2.440882    1.037772
  C     -1.699609   -2.632179   -0.460394
  C     -1.543829   -1.247598   -1.147038
  C     -2.900025   -0.511386   -1.019135
  C     -3.249240   -0.309331    0.471690
  C     -2.127338    0.508276    1.147276
  C     -3.372662   -1.684178    1.165604
  O      3.023779    0.656277   -0.930927
  C      3.489575    0.569341   -2.310146
  H      3.953829    1.221107    1.702607
  H      4.240824   -0.479290    2.212862
  H      3.100418    0.555705    3.134011
  H      0.869923   -2.227834   -0.221347
  H      1.065355   -1.414504   -1.754215
  H     -0.301888    2.829840    0.396677
  H      1.201515    1.867139    0.414492
  H      2.108840    3.154378   -1.520954
  H      1.278489    5.455945   -1.742812
  H     -0.181939    5.043000   -0.668703
  H      0.004853    0.339508    1.538914
  H     -1.170002   -1.450300    2.777722
  H      0.036451   -2.161347    1.710044
  H     -2.109319   -3.424407    1.523219
  H     -2.518543   -3.172574   -0.956978
  H     -0.801470   -3.249024   -0.583674
  H     -1.296635   -1.390171   -2.209338
  H     -3.674302   -1.120907   -1.507762
  H     -2.869855    0.454640   -1.534992
  H     -4.201342    0.235047    0.554539
  H     -2.355449    0.649477    2.213999
  H     -2.066054    1.505088    0.694879
  H     -4.180471   -2.270026    0.701619
  H     -3.631427   -1.550745    2.226978
  H      4.278505   -0.185314   -2.399841
  H      3.884316    1.557453   -2.559990
  H      2.650116    0.327221   -2.972273
