27
  Isotropic shielding for P: 249.281 ppm
  C     -3.020186   -1.982975    0.129307
  C     -2.319319   -0.906234   -0.685359
  O     -2.143904    0.256639    0.158978
  C     -1.404536    1.316211   -0.479048
  C      0.075367    0.998131   -0.590114
  C      0.729699    0.990246   -1.760187
  P      0.912130    0.606881    0.967650
  O      0.388128    1.386667    2.124833
  O      2.496483    0.735601    0.690439
  C      3.121986    2.056990    0.633119
  O      0.762727   -0.972070    1.224226
  C      1.340959   -1.971252    0.326457
  H     -3.992925   -1.627619    0.493672
  H     -3.188749   -2.871039   -0.493741
  H     -2.408854   -2.277480    0.992023
  H     -2.916135   -0.620375   -1.568721
  H     -1.342846   -1.265050   -1.044501
  H     -1.552966    2.196912    0.157453
  H     -1.813294    1.527417   -1.480588
  H      1.794246    0.778093   -1.833396
  H      0.205132    1.212477   -2.690627
  H      2.688993    2.648957   -0.181382
  H      4.182748    1.878139    0.442142
  H      2.990240    2.575106    1.588823
  H      2.431201   -1.970706    0.424384
  H      1.054061   -1.767115   -0.711337
  H      0.929913   -2.932452    0.643793
