52
  Isotropic shielding for P: 181.485 ppm
  C      2.831900    2.046936   -1.261651
  C      1.397926    1.956227   -0.711779
  N      1.290553    1.368424    0.631813
  P      0.542194   -0.120986    1.032921
  C     -1.157113   -0.001527    0.370403
  C     -1.968526    1.118261    0.194799
  C     -1.676257    2.578740    0.338200
  N     -3.267430    0.711041   -0.121856
  C     -3.329160   -0.670649   -0.088121
  C     -2.023873   -1.155376    0.228072
  C     -1.835562   -2.546127    0.344121
  C     -2.919436   -3.402633    0.141646
  C     -4.198910   -2.899239   -0.182463
  C     -4.419640   -1.524580   -0.300069
  C     -4.413348    1.588633   -0.340115
  N      1.192652   -1.397793    0.077393
  C      2.138285   -2.286096    0.788976
  C      3.625053   -1.907662    0.661140
  C      1.400222   -1.402581   -1.391777
  C      0.149084   -1.251811   -2.265441
  C      1.849553    2.165162    1.743586
  C      3.255462    1.751726    2.209622
  H      2.811263    2.415765   -2.297036
  H      3.442139    2.741875   -0.671692
  H      3.324306    1.066709   -1.252431
  H      0.775889    1.365878   -1.391421
  H      0.966420    2.972179   -0.701184
  H     -2.430067    3.068134    0.969954
  H     -0.698490    2.722550    0.796301
  H     -1.680700    3.096799   -0.632668
  H     -0.851612   -2.944524    0.574429
  H     -2.777835   -4.478935    0.232620
  H     -5.026727   -3.589664   -0.337497
  H     -5.407640   -1.136124   -0.539146
  H     -4.927636    1.821091    0.603606
  H     -5.120899    1.097526   -1.015203
  H     -4.086082    2.522440   -0.804771
  H      1.853566   -2.292365    1.848723
  H      1.991763   -3.310916    0.408696
  H      3.954990   -1.924592   -0.385241
  H      4.244709   -2.623335    1.219795
  H      3.810776   -0.904587    1.061924
  H      2.140592   -0.642684   -1.686490
  H      1.858290   -2.373027   -1.631507
  H     -0.578606   -2.042697   -2.057109
  H      0.452481   -1.324524   -3.319273
  H     -0.351921   -0.289937   -2.123137
  H      1.164678    2.110030    2.602336
  H      1.858375    3.217705    1.422175
  H      3.983852    1.802471    1.392201
  H      3.596094    2.414436    3.018666
  H      3.244301    0.724226    2.594658
