44
  Isotropic shielding for P: 217.002 ppm
  C     -0.068699   -3.497192   -1.201298
  C      0.737159   -2.239665   -0.795464
  C      0.035111   -0.972094   -1.235739
  N     -0.614932   -0.173550   -0.448756
  P     -0.827722   -0.325429    1.215548
  S     -1.949502   -1.854145    1.806348
  C     -1.566046    1.281795    1.654680
  C     -1.915214    2.235762    0.687754
  C     -2.491675    3.450319    1.081044
  C     -2.713935    3.719004    2.435588
  C     -2.359015    2.768582    3.403897
  C     -1.789507    1.554595    3.015914
  C      0.827071   -0.266556    1.994814
  C      1.732788    0.729839    1.589740
  C      3.001230    0.796004    2.170918
  C      3.368880   -0.124672    3.162193
  C      2.465154   -1.112520    3.569665
  C      1.195154   -1.184739    2.985969
  C      0.031813   -0.636170   -2.686609
  C     -0.921607    0.273883   -3.191076
  C     -0.944095    0.607051   -4.543977
  C     -0.008090    0.043454   -5.423525
  C      0.943093   -0.860378   -4.937519
  C      0.959817   -1.203705   -3.582781
  H      0.453131   -4.396636   -0.852313
  H     -1.064526   -3.475157   -0.743764
  H     -0.184324   -3.565680   -2.289044
  H      1.738341   -2.285387   -1.241529
  H      0.871871   -2.229291    0.288761
  H     -1.735192    2.026208   -0.362423
  H     -2.764626    4.186072    0.326079
  H     -3.160568    4.664600    2.738911
  H     -2.527070    2.974575    4.459717
  H     -1.521002    0.817122    3.770648
  H      1.450100    1.450172    0.824330
  H      3.702415    1.566042    1.853380
  H      4.357321   -0.069847    3.615551
  H      2.747241   -1.827897    4.340497
  H      0.488661   -1.954001    3.291313
  H     -1.647655    0.704988   -2.507134
  H     -1.692439    1.304171   -4.917548
  H     -0.023580    0.305623   -6.480182
  H      1.673776   -1.301054   -5.613503
  H      1.710897   -1.904199   -3.228876
