53
  Isotropic shielding for P: 245.215 ppm
  O     -0.222269    2.008573    3.206492
  C     -1.323469    2.316436    2.323053
  C     -1.655240    1.097719    1.464172
  O     -2.811530    1.366062    0.626921
  C     -2.652258    0.697829   -0.649086
  C     -1.317800   -0.064969   -0.598608
  C     -0.540841    0.732125    0.470343
  N      0.581204    0.085682    1.163655
  C      1.738644   -0.204125    0.287128
  P      3.010243   -1.095330    1.282256
  O      3.650977   -0.324069    2.384040
  O      2.153767   -2.387046    1.725289
  C      2.683445   -3.310838    2.734029
  O      4.139502   -1.598382    0.251372
  C      3.872021   -2.576666   -0.805570
  C      2.350144    1.051614   -0.306112
  C      2.641772    1.102740   -1.675982
  C      3.225493    2.239320   -2.246394
  C      3.501876    3.319323   -1.415846
  C      3.221775    3.310704   -0.051886
  C      2.645865    2.163751    0.498956
  F      4.070168    4.446020   -1.964263
  N     -3.831673   -0.163512   -0.888869
  C     -4.226232   -1.070812    0.071296
  C     -5.313160   -1.871575   -0.067868
  C     -6.118597   -1.793721   -1.268369
  O     -7.131316   -2.461651   -1.520416
  N     -5.648524   -0.845260   -2.200056
  C     -4.544211   -0.012267   -2.088883
  O     -4.223785    0.782109   -2.975182
  H      0.390860    1.424601    2.696421
  H     -1.079097    3.168419    1.666240
  H     -2.179188    2.594091    2.951600
  H     -1.867669    0.236957    2.122666
  H     -2.672050    1.445929   -1.444087
  H     -1.468153   -1.099039   -0.261614
  H     -0.833032   -0.082191   -1.579116
  H     -0.161860    1.659454    0.020775
  H      0.260765   -0.786447    1.592513
  H      1.465642   -0.882274   -0.539450
  H      3.604120   -3.778331    2.367602
  H      2.874997   -2.772468    3.667786
  H      1.908644   -4.066464    2.881097
  H      3.306383   -3.424703   -0.406586
  H      4.851292   -2.909638   -1.157897
  H      3.320470   -2.103150   -1.624570
  H      2.407220    0.248775   -2.309270
  H      3.453320    2.290031   -3.308622
  H      3.452848    4.179918    0.559818
  H      2.421801    2.136746    1.561297
  H     -3.609093   -1.097509    0.963889
  H     -5.595699   -2.572136    0.710295
  H     -6.178610   -0.750761   -3.066099
