57
  Isotropic shielding for P: 251.186 ppm
  C     -0.693691    5.123004    1.353350
  C     -0.987805    4.475469   -0.009459
  C     -1.051963    2.941743    0.064471
  C     -1.359479    2.296422   -1.308535
  C     -1.452750    0.782404   -1.251504
  C     -2.568899    0.205493   -0.761198
  P     -2.941448   -1.532170   -0.568568
  O     -4.293781   -1.751049    0.035319
  O     -2.718734   -2.138367   -2.041367
  C     -2.884261   -3.584075   -2.287419
  C     -2.892219   -3.798471   -3.790471
  O     -1.747761   -2.268264    0.241843
  C     -1.682403   -2.143592    1.706593
  C     -0.666810   -3.148722    2.220739
  C     -0.270303   -0.013044   -1.789831
  C      1.066902    0.324797   -1.114659
  C      1.123472   -0.108843    0.360477
  C      2.379029    0.373610    1.109671
  C      3.699717   -0.194839    0.560164
  C      4.950837    0.239656    1.350360
  C      5.024503   -0.329935    2.778214
  O     -0.201278    0.181134   -3.235990
  H      0.270381    4.778146    1.753455
  H     -0.653446    6.217744    1.275404
  H     -1.470921    4.866080    2.087030
  H     -1.942221    4.858502   -0.403364
  H     -0.212491    4.770370   -0.733682
  H     -1.828944    2.638016    0.781566
  H     -0.098991    2.557767    0.454009
  H     -2.313444    2.699320   -1.676008
  H     -0.588744    2.608144   -2.026225
  H     -3.389007    0.843643   -0.425780
  H     -3.824519   -3.911421   -1.826619
  H     -2.048700   -4.106394   -1.806221
  H     -1.954815   -3.447315   -4.239800
  H     -3.730480   -3.266364   -4.257257
  H     -2.998837   -4.870151   -4.004580
  H     -2.680985   -2.335244    2.117081
  H     -1.389461   -1.113719    1.948552
  H     -0.968011   -4.172422    1.965066
  H      0.326811   -2.955741    1.798772
  H     -0.599387   -3.070127    3.313932
  H     -0.461449   -1.082951   -1.677136
  H      1.851848   -0.183706   -1.690254
  H      1.262744    1.405135   -1.199247
  H      0.233762    0.265993    0.884200
  H      1.068929   -1.205962    0.411130
  H      2.419504    1.475047    1.077933
  H      2.272596    0.098436    2.168726
  H      3.821841    0.116257   -0.487452
  H      3.641626   -1.296368    0.551289
  H      5.846540   -0.076345    0.794460
  H      4.986150    1.340275    1.390865
  H      4.187373    0.014807    3.399022
  H      4.996785   -1.429250    2.761065
  H      5.954552   -0.025432    3.276961
  H      0.183040    1.062365   -3.405097
