49
  Isotropic shielding for P: 212.001 ppm
  C      2.299662    1.614827    2.734037
  O      1.748347    0.510006    1.991694
  C      2.160638    0.481283    0.608627
  P      0.831779   -0.499631   -0.269916
  O      0.850806   -1.947121    0.170938
  C     -0.862252    0.304397    0.115390
  C     -1.761038    0.582870   -1.153302
  C     -2.249008    2.063706   -0.935519
  C     -2.345546    2.123165    0.610442
  C     -0.849287    1.747500    0.813791
  C     -0.195484    2.753426   -0.125361
  C     -1.031561    2.951116   -1.158846
  C     -1.532253   -0.697792    1.032983
  S     -1.202288   -0.739441    2.761375
  C     -2.260058   -2.100456    2.911777
  C     -2.779954   -2.443680    1.688069
  N     -2.356935   -1.639827    0.641186
  C     -3.731886   -3.573537    1.418078
  C      1.235694   -0.389127   -2.117557
  O      2.312986   -1.308976   -2.380070
  C      1.885541   -2.635920   -2.754967
  C      1.652244    0.983482   -2.639439
  C      3.540915   -0.165585    0.440012
  H      3.396700    1.558961    2.787846
  H      1.884250    1.545933    3.744450
  H      2.009467    2.575607    2.281740
  H      2.172485    1.502524    0.201849
  H     -2.599389   -0.117168   -1.173237
  H     -1.225587    0.487730   -2.098907
  H     -3.145544    2.313000   -1.509274
  H     -3.048501    1.401178    1.041504
  H     -2.568303    3.129068    0.983283
  H     -0.466685    1.727310    1.832667
  H      0.800455    3.165086    0.002789
  H     -0.848998    3.543460   -2.052139
  H     -2.442777   -2.564649    3.874285
  H     -3.298184   -4.284065    0.700472
  H     -3.968954   -4.113412    2.341311
  H     -4.668727   -3.198824    0.982602
  H      0.330734   -0.733240   -2.640649
  H      1.244912   -2.593580   -3.650237
  H      2.797605   -3.197077   -2.983860
  H      1.343674   -3.122919   -1.935460
  H      0.888332    1.736898   -2.432065
  H      2.592458    1.311095   -2.181415
  H      1.800169    0.921116   -3.724849
  H      3.525127   -1.199566    0.802403
  H      3.847927   -0.169784   -0.611139
  H      4.286191    0.400535    1.012811
