47
  Isotropic shielding for P: 203.014 ppm
  C      3.693426    3.223592   -0.931464
  C      3.757082    2.043607   -1.894546
  O      2.481430    1.319874   -1.933549
  C      2.274533    0.371744   -0.960507
  O      3.138408    0.079468   -0.116461
  C      0.974199   -0.230412   -0.988308
  C     -0.067345   -0.153410   -1.941614
  C     -0.089865    0.487766   -3.209264
  C     -1.178389    0.347795   -4.045295
  C     -2.303398   -0.426513   -3.662856
  C     -2.303510   -1.014313   -2.421913
  N     -1.228779   -0.875819   -1.594663
  C     -1.233581   -1.308168   -0.171026
  P      0.597674   -1.581428    0.106768
  S      1.285088   -3.333617   -0.537429
  C      0.596151   -1.518687    1.931371
  C     -0.574209   -2.363693    2.450816
  C     -1.626061   -2.812613    1.733568
  C     -1.952035   -2.578143    0.263193
  C     -0.441720   -2.697444    3.919753
  C     -1.893302   -0.100302    0.577878
  O     -3.105482    0.000040    0.669916
  O     -1.012717    0.808484    1.006216
  C     -1.554929    2.021717    1.658880
  C     -0.365318    2.866740    2.072930
  H      4.635907    3.785805   -0.980430
  H      2.873692    3.901485   -1.201012
  H      3.547768    2.883919    0.100504
  H      4.554461    1.343436   -1.625420
  H      3.901079    2.377088   -2.927425
  H      0.777620    1.065746   -3.504207
  H     -1.168131    0.831664   -5.020105
  H     -3.156094   -0.557510   -4.321415
  H     -3.130883   -1.600902   -2.036186
  H      1.543598   -1.945074    2.282781
  H      0.536192   -0.487891    2.297915
  H     -2.360261   -3.420854    2.262626
  H     -1.620267   -3.426650   -0.352298
  H     -3.037482   -2.483056    0.146257
  H     -1.304862   -3.266968    4.282164
  H      0.470478   -3.285468    4.101707
  H     -0.349925   -1.779062    4.518967
  H     -2.159504    1.698060    2.513333
  H     -2.201534    2.528158    0.933692
  H     -0.728168    3.782114    2.557797
  H      0.237827    3.151760    1.202425
  H      0.270830    2.327936    2.785738
