51
  Isotropic shielding for P: 188.761 ppm
  C     -5.707426    1.419627    1.325645
  C     -5.357314    0.164174    0.537436
  O     -3.973457   -0.261662    0.807688
  C     -2.992212    0.327517    0.076171
  O     -3.194594    1.147267   -0.815943
  C     -1.644790   -0.124418    0.472498
  C     -1.311449   -0.887840    1.523787
  C      0.168140   -1.119562    1.618266
  N      0.673109   -0.266120    0.501852
  C     -0.430997    0.298064   -0.332243
  C     -0.439037   -0.203563   -1.771903
  C     -0.762205   -1.534010   -2.073388
  C     -0.721231   -1.991407   -3.392949
  C     -0.357291   -1.119613   -4.428665
  C     -0.042651    0.212063   -4.134824
  C     -0.086438    0.665488   -2.811274
  P      2.269040   -0.107520    0.077413
  S      3.061701   -1.310738   -1.254325
  O      2.404448    1.406296   -0.465811
  C      2.106046    2.546138    0.429224
  C      1.822753    3.758797   -0.438761
  O      2.925186   -0.169828    1.547906
  C      4.359898   -0.434225    1.764711
  C      4.533357   -1.772140    2.462621
  C      0.545483   -2.610523    1.517230
  H     -6.763297    1.669679    1.155572
  H     -5.096042    2.271623    1.006510
  H     -5.561037    1.258372    2.400966
  H     -5.472044    0.312527   -0.541051
  H     -5.958177   -0.693409    0.854883
  H     -2.003202   -1.314976    2.243558
  H      0.552399   -0.730442    2.574121
  H     -0.356595    1.393848   -0.359342
  H     -1.043630   -2.218277   -1.275229
  H     -0.972900   -3.027458   -3.615380
  H     -0.322683   -1.476598   -5.456882
  H      0.238207    0.896547   -4.934011
  H      0.164376    1.699474   -2.580328
  H      2.983216    2.697263    1.069463
  H      1.248342    2.288818    1.062312
  H      0.938795    3.593849   -1.066442
  H      1.633626    4.628245    0.204819
  H      2.679826    3.986948   -1.084542
  H      4.713816    0.399801    2.380711
  H      4.878734   -0.412877    0.800137
  H      5.596896   -1.929674    2.688060
  H      4.188072   -2.592855    1.822777
  H      3.972760   -1.796942    3.405450
  H      1.632077   -2.734682    1.568343
  H      0.183733   -3.041966    0.577214
  H      0.096763   -3.159101    2.355451
