59
  Isotropic shielding for P: 235.355 ppm
  C      5.425781   -2.443528   -2.714122
  C      5.785222   -2.261412   -1.228795
  C      4.575515   -2.324813   -0.275393
  C      3.568019   -1.175192   -0.447647
  C      2.398851   -1.260061    0.549646
  C      1.396354   -0.116239    0.357610
  S      0.049561   -0.272959    1.609331
  C     -1.417309    0.686690    0.908854
  C     -2.251398   -0.294204    0.040454
  P     -1.533401   -1.031683   -1.457752
  O     -0.796274   -0.124271   -2.386957
  O     -2.879593   -1.693391   -2.068004
  C     -2.804798   -2.416102   -3.337339
  O     -0.568362   -2.271791   -1.086436
  C     -1.008735   -3.360685   -0.219621
  C     -2.287443    1.114325    2.144512
  C     -1.506954    2.066864    3.082832
  C     -1.088916    3.337641    2.310753
  C     -0.211103    2.934103    1.105706
  C     -0.994024    1.987607    0.163580
  C     -2.260884    2.738996   -0.329692
  C     -3.148413    3.132677    0.873747
  C     -3.557081    1.866655    1.661375
  C     -2.350100    4.072913    1.804515
  H      4.777669   -1.636042   -3.078752
  H      6.328269   -2.452427   -3.340114
  H      4.896269   -3.394158   -2.873709
  H      6.503895   -3.042134   -0.936893
  H      6.303265   -1.298667   -1.091210
  H      4.940176   -2.320851    0.763888
  H      4.054492   -3.286160   -0.417182
  H      3.162665   -1.177751   -1.470145
  H      4.090666   -0.213266   -0.320517
  H      1.879402   -2.220213    0.423563
  H      2.793302   -1.243450    1.577679
  H      1.891023    0.854443    0.486367
  H      0.969482   -0.153259   -0.647119
  H     -3.156759    0.196655   -0.332215
  H     -2.596397   -1.123087    0.672307
  H     -3.826774   -2.726872   -3.567187
  H     -2.158710   -3.295916   -3.237081
  H     -2.424016   -1.757070   -4.125445
  H     -0.268812   -4.156661   -0.335543
  H     -1.028024   -3.015186    0.819549
  H     -1.997620   -3.721671   -0.524170
  H     -2.584645    0.209405    2.694740
  H     -2.155761    2.336270    3.929273
  H     -0.623249    1.566041    3.493412
  H     -0.516132    3.999490    2.976846
  H      0.711267    2.455981    1.455207
  H      0.081673    3.830035    0.538613
  H     -0.376518    1.730012   -0.702274
  H     -2.827094    2.134684   -1.049476
  H     -1.939721    3.644041   -0.865603
  H     -4.051025    3.646166    0.511870
  H     -4.200547    1.222561    1.049942
  H     -4.149122    2.149659    2.543748
  H     -2.975058    4.381856    2.656178
  H     -2.062343    4.985501    1.260593
