47
  Isotropic shielding for P: 27.160 ppm
  Cl     3.938590    2.313553    0.708514
  P      1.851543    2.314752    1.218113
  C      0.922605    1.017278    0.313706
  C     -0.340317    1.593044   -0.038074
  C     -1.436570    0.743242   -0.260633
  C     -1.335961   -0.638616   -0.158521
  C     -0.050158   -1.176002    0.028184
  C      1.099474   -0.409687    0.218724
  C      2.469506   -1.140829    0.144957
  C      3.322737   -1.035542    1.432709
  C      3.234846   -0.568427   -1.081596
  C      2.306024   -2.661122   -0.121307
  C     -2.540070   -1.580022   -0.301848
  C     -2.627864   -2.473424    0.964352
  C     -3.870095   -0.811752   -0.450986
  C     -2.342919   -2.475378   -1.554483
  C     -0.652679    3.091347   -0.245756
  C     -1.045869    3.850017    1.045466
  C      0.380593    3.862484   -1.097470
  Cl     1.910835    1.439573    3.174430
  H     -2.386364    1.206703   -0.510968
  H      0.046271   -2.253189    0.002665
  H      2.768589   -1.427629    2.294106
  H      3.639188   -0.020895    1.662083
  H      4.228998   -1.642474    1.304563
  H      3.384650    0.510062   -1.011682
  H      4.219583   -1.048889   -1.160564
  H      2.676372   -0.778022   -2.003555
  H      1.800378   -3.175183    0.706238
  H      3.306289   -3.100014   -0.222061
  H      1.758770   -2.866866   -1.049090
  H     -1.721434   -3.075554    1.097613
  H     -2.766162   -1.858468    1.863428
  H     -3.482259   -3.158184    0.880185
  H     -4.698730   -1.528351   -0.511697
  H     -3.887783   -0.201056   -1.362775
  H     -4.053980   -0.153506    0.408004
  H     -2.266632   -1.860488   -2.460930
  H     -3.200097   -3.152437   -1.667572
  H     -1.434773   -3.084513   -1.475952
  H     -1.566638    3.069999   -0.854748
  H     -1.465966    4.830057    0.781523
  H     -0.186398    4.016612    1.704451
  H     -1.805386    3.291959    1.607562
  H     -0.051614    4.823482   -1.407247
  H      1.305872    4.085396   -0.551820
  H      0.644815    3.297060   -1.999932
