66
  Isotropic shielding for P: 273.171 ppm
  C     -0.739515    3.697583   -0.848881
  C     -0.821343    3.137346    0.574920
  N     -1.795070    2.035137    0.686736
  C     -3.139430    2.236572    0.958701
  C     -3.876304    3.399227    1.223281
  C     -5.241396    3.237289    1.465696
  C     -5.853442    1.960505    1.443858
  C     -5.116488    0.807289    1.177311
  C     -3.740552    0.950883    0.929882
  N     -2.782842   -0.002890    0.633726
  C     -1.637690    0.666105    0.486665
  P     -0.100017   -0.258957    0.138450
  N      1.039034    0.823362    0.195287
  C      2.382005    0.766698   -0.154549
  C      2.893002    0.041145   -1.258648
  C      4.255781    0.050592   -1.563507
  C      5.181867    0.782193   -0.799462
  C      4.676588    1.512718    0.289243
  C      3.315558    1.511001    0.604593
  C      6.653385    0.805832   -1.155703
  N      0.096303   -1.458585    1.291687
  C      1.023674   -1.204377    2.422657
  C      2.404917   -1.844960    2.229352
  C     -0.931980   -2.501220    1.518113
  C     -0.354540   -3.906508    1.725718
  N     -0.497629   -1.111565   -1.256177
  C     -1.041143   -0.310346   -2.382352
  C     -2.495615   -0.633616   -2.751602
  C      0.233234   -2.344289   -1.626971
  C     -0.669783   -3.515683   -2.037042
  H     -0.046525    4.548641   -0.869650
  H     -1.720582    4.042629   -1.198796
  H     -0.367209    2.934131   -1.541790
  H     -1.143495    3.911918    1.280178
  H      0.148098    2.749139    0.888817
  H     -3.415571    4.384331    1.237708
  H     -5.851288    4.114502    1.675041
  H     -6.921850    1.883395    1.638579
  H     -5.584173   -0.175812    1.159917
  H      2.212912   -0.531483   -1.883389
  H      4.608537   -0.527950   -2.418985
  H      5.363940    2.091420    0.908220
  H      2.951885    2.074812    1.462874
  H      6.860814    1.521388   -1.966660
  H      7.265709    1.101641   -0.294435
  H      6.998542   -0.178371   -1.499894
  H      1.139335   -0.123010    2.555942
  H      0.545897   -1.591732    3.333151
  H      2.887908   -1.451699    1.327839
  H      2.330839   -2.934499    2.135223
  H      3.048211   -1.616007    3.090758
  H     -1.606671   -2.496033    0.659998
  H     -1.537306   -2.219266    2.395364
  H      0.265831   -3.963317    2.628136
  H     -1.180937   -4.620454    1.843620
  H      0.253049   -4.223104    0.869571
  H     -0.382397   -0.458891   -3.251171
  H     -0.968346    0.753863   -2.124683
  H     -2.824408    0.032636   -3.561517
  H     -2.607284   -1.667189   -3.096317
  H     -3.152715   -0.482423   -1.888449
  H      0.921215   -2.112987   -2.456248
  H      0.851866   -2.636512   -0.773653
  H     -0.052970   -4.412674   -2.185601
  H     -1.415449   -3.735834   -1.264152
  H     -1.196385   -3.314076   -2.976621
