55
  Isotropic shielding for P: 239.382 ppm
  Cl    -2.734636    6.450926    0.234831
  C     -2.204789    4.761814    0.271301
  C     -2.804801    3.837446   -0.583000
  C     -2.381562    2.504342   -0.548060
  C     -1.371330    2.090285    0.329788
  C     -0.788065    3.045492    1.177823
  C     -1.194875    4.381393    1.157979
  C     -0.853800    0.657946    0.401688
  P     -1.990316   -0.667669   -0.226647
  O     -2.207863   -0.580139   -1.714049
  N     -3.391286   -0.521506    0.672466
  C     -3.539731    0.139227    1.973205
  C     -4.515743   -1.401852    0.319067
  N     -1.316377   -2.158433    0.148678
  C     -1.284415   -2.674334    1.521855
  C     -0.412938   -2.850946   -0.779226
  C      0.471492    0.470240   -0.290934
  C      0.917253    0.861680   -1.587266
  C      0.177841    1.629650   -2.639364
  N      2.173257    0.454486   -1.823326
  N      2.556239   -0.231184   -0.676130
  C      1.549728   -0.212462    0.250921
  O      1.619118   -0.765866    1.488124
  C      3.845352   -0.819934   -0.566233
  C      3.981748   -2.116207   -0.043830
  C      5.256368   -2.680880    0.075233
  C      6.385654   -1.971793   -0.348628
  C      6.237642   -0.687414   -0.890584
  C      4.973007   -0.103090   -0.992671
  H     -3.588962    4.148800   -1.268757
  H     -2.842338    1.787169   -1.221507
  H     -0.001574    2.741641    1.867708
  H     -0.737695    5.111318    1.821532
  H     -0.682565    0.421298    1.461307
  H     -3.689921   -0.600592    2.776727
  H     -2.662813    0.738278    2.220497
  H     -4.414130    0.806455    1.952970
  H     -4.365052   -1.821936   -0.680016
  H     -5.451668   -0.824707    0.316014
  H     -4.618534   -2.229181    1.040251
  H     -0.289858   -2.553332    1.978755
  H     -2.018061   -2.154312    2.143433
  H     -1.536309   -3.745257    1.518565
  H     -0.483789   -2.398783   -1.770915
  H     -0.700029   -3.911185   -0.853164
  H      0.632949   -2.803516   -0.438075
  H     -0.042150    2.652049   -2.304966
  H      0.782103    1.684661   -3.552077
  H     -0.778971    1.145800   -2.865858
  H      2.540363   -1.009496    1.711132
  H      3.100450   -2.688538    0.236822
  H      5.359930   -3.685475    0.481352
  H      7.374688   -2.418008   -0.262965
  H      7.112708   -0.132418   -1.224244
  H      4.849251    0.897851   -1.397532
