65
  Isotropic shielding for P: 267.862 ppm
  C     -3.792863   -2.617114   -1.578542
  C     -2.996708   -1.395018   -1.106116
  N     -1.560823   -1.455825   -1.477920
  P     -0.432565   -0.848006   -0.409619
  N      0.974752   -0.993233   -1.121453
  C      2.220279   -0.528522   -0.811694
  C      3.319525   -0.992596   -1.597128
  C      4.614704   -0.575217   -1.352020
  C      4.912843    0.336175   -0.308807
  C      3.830990    0.802944    0.473176
  C      2.528531    0.389692    0.234177
  C      6.303728    0.759973   -0.075115
  O      7.243925    0.339490   -0.777217
  C      6.595559    1.737629    1.057732
  C     -0.874940    0.902465   -0.078075
  N     -0.289581    1.834954   -0.830040
  C     -0.907630    3.027950   -0.496789
  C     -1.900161    2.791893    0.489751
  N     -1.870854    1.429838    0.739314
  C     -2.750515    0.782433    1.715992
  C     -2.685741    3.818594    1.028829
  C     -2.449302    5.105658    0.542926
  C     -1.464254    5.358078   -0.442989
  C     -0.684509    4.331012   -0.973436
  N     -0.706739   -1.653841    1.030606
  C     -0.948297   -3.120387    1.010400
  C     -2.064544   -3.537518    1.974427
  C     -0.108907   -1.113538    2.279973
  C      1.221024   -1.758988    2.693292
  C     -1.263203   -1.504724   -2.931387
  C     -1.610871   -0.216842   -3.691458
  H     -4.812793   -2.555238   -1.177711
  H     -3.335862   -3.547098   -1.218139
  H     -3.867106   -2.667016   -2.670941
  H     -3.057292   -1.341660   -0.017603
  H     -3.453398   -0.473258   -1.498075
  H      3.109135   -1.694931   -2.402742
  H      5.432118   -0.947317   -1.966879
  H      4.009670    1.503091    1.286446
  H      1.728474    0.782844    0.853564
  H      6.287728    1.319286    2.025780
  H      6.041119    2.675871    0.921170
  H      7.668291    1.951039    1.081129
  H     -2.552501    1.187056    2.715511
  H     -2.569581   -0.289875    1.719735
  H     -3.795860    0.975880    1.449926
  H     -3.441788    3.627643    1.787068
  H     -3.035994    5.936595    0.930820
  H     -1.316531    6.378997   -0.790974
  H      0.074067    4.524006   -1.730044
  H     -0.020085   -3.656307    1.253016
  H     -1.215622   -3.398186   -0.012303
  H     -3.002792   -3.020538    1.737926
  H     -2.234543   -4.618746    1.889225
  H     -1.805242   -3.321759    3.018182
  H     -0.843035   -1.230133    3.088120
  H      0.033708   -0.035609    2.148046
  H      1.617087   -1.228702    3.569080
  H      1.964112   -1.694819    1.890389
  H      1.094195   -2.812023    2.970058
  H     -1.818864   -2.353626   -3.347917
  H     -0.199816   -1.729000   -3.035873
  H     -1.027236    0.630403   -3.311502
  H     -2.676211    0.032417   -3.608063
  H     -1.380214   -0.346394   -4.757419
