48
  Isotropic shielding for P: 259.793 ppm
  C      5.374986   -1.202041   -1.116986
  C      3.887680   -1.046472   -1.370465
  O      3.226093   -0.860912   -0.059531
  P      1.682349   -0.462641    0.022125
  O      0.713311   -1.408469   -0.618571
  C      1.529888    1.229698   -0.646226
  N      2.644386    1.981519   -0.556567
  C      2.601624    3.252969   -0.984043
  C      1.442958    3.823403   -1.521498
  C      0.284525    3.058948   -1.624448
  C      0.307708    1.724153   -1.176895
  N     -0.804180    0.873323   -1.229792
  C     -2.135446    1.203387   -1.368684
  O     -2.547874    2.341275   -1.631140
  C     -3.070635    0.035711   -1.202556
  C     -3.970572   -0.207780   -2.229396
  C     -4.859232   -1.305723   -2.174289
  C     -4.851246   -2.146666   -1.078989
  C     -3.971787   -1.913160    0.013447
  C     -3.061638   -0.794847   -0.032391
  C     -2.239159   -0.550115    1.105533
  C     -2.280929   -1.383385    2.206428
  C     -3.151850   -2.501514    2.234519
  C     -3.983403   -2.753879    1.161989
  O      1.423261   -0.388938    1.596259
  C      2.227670    0.444162    2.517350
  C      1.628502    0.297931    3.903806
  H      5.889893   -1.357106   -2.074206
  H      5.573566   -2.067497   -0.472675
  H      5.786058   -0.302296   -0.642985
  H      3.673602   -0.169651   -1.992713
  H      3.454860   -1.938051   -1.838909
  H      3.522516    3.828982   -0.893888
  H      1.450265    4.856312   -1.863948
  H     -0.626458    3.469546   -2.042280
  H     -0.585285   -0.116522   -1.059744
  H     -3.972684    0.445688   -3.099821
  H     -5.540949   -1.486448   -3.003356
  H     -5.527621   -2.999556   -1.030710
  H     -1.569707    0.304749    1.117591
  H     -1.641137   -1.176582    3.062515
  H     -3.169926   -3.151560    3.107746
  H     -4.671023   -3.598828    1.179650
  H      3.263411    0.088963    2.476980
  H      2.188234    1.481136    2.164653
  H      0.588877    0.647480    3.919118
  H      2.208681    0.903096    4.612822
  H      1.657835   -0.747394    4.235163
