56
  Isotropic shielding for P: 268.080 ppm
  C     -5.513603    3.018566   -1.544212
  C     -4.840768    2.426197   -0.319772
  O     -3.827313    1.463176   -0.798974
  C     -3.110498    0.820202    0.145188
  O     -3.230322    0.993992    1.349428
  C     -2.140448   -0.156623   -0.464538
  C     -0.802275    0.031997   -0.468726
  C     -0.072749    1.219607   -0.015614
  C     -0.576495    2.511077   -0.263244
  C      0.111985    3.647235    0.164918
  C      1.322640    3.504806    0.848925
  C      1.845458    2.228155    1.088512
  C      1.173942    1.076522    0.657871
  P      1.775701   -0.631117    1.064719
  C      2.379690   -1.210733   -0.581661
  C      2.548238   -2.596713   -0.750907
  C      3.013587   -3.115134   -1.963588
  C      3.300422   -2.252972   -3.029469
  C      3.124911   -0.872449   -2.873575
  C      2.670905   -0.353572   -1.656000
  C      3.352497   -0.282882    1.957647
  C      3.275636   -0.135491    3.355149
  C      4.422467    0.133877    4.108271
  C      5.667511    0.238501    3.474855
  C      5.755852    0.078376    2.086786
  C      4.605391   -0.176729    1.331338
  C     -2.688713   -1.447913   -0.971172
  O     -2.033341   -2.317353   -1.533007
  O     -4.017107   -1.540913   -0.705475
  C     -4.699527   -2.789662   -1.088497
  C     -4.547035   -3.846738   -0.002926
  H     -6.275647    3.739921   -1.221855
  H     -4.788080    3.544362   -2.177259
  H     -6.006228    2.239889   -2.139598
  H     -4.326728    3.184791    0.281669
  H     -5.543683    1.882432    0.321789
  H     -0.213540   -0.804893   -0.843596
  H     -1.498907    2.627058   -0.826885
  H     -0.292084    4.636387   -0.042426
  H      1.869786    4.383550    1.186738
  H      2.790305    2.134601    1.616586
  H      2.311865   -3.272646    0.070710
  H      3.142431   -4.190268   -2.079472
  H      3.653802   -2.655192   -3.977650
  H      3.345845   -0.197421   -3.699328
  H      2.544574    0.721137   -1.544949
  H      2.311364   -0.229007    3.854465
  H      4.346123    0.252001    5.188186
  H      6.563607    0.438138    4.060413
  H      6.721516    0.155836    1.588905
  H      4.687469   -0.290594    0.253095
  H     -5.742602   -2.485081   -1.215145
  H     -4.295211   -3.125060   -2.048795
  H     -4.930924   -3.477945    0.956321
  H     -3.498084   -4.139470    0.121010
  H     -5.123505   -4.737820   -0.285378
