56
  Isotropic shielding for P: 251.975 ppm
  O      1.053014   -1.757234    1.198111
  C      1.505453   -0.917653    0.385418
  C      0.688702   -0.265169   -0.614318
  P     -1.028050   -0.160760   -0.205881
  C     -1.694359    1.398932   -0.873298
  C     -0.907692    2.560170   -0.764083
  C     -1.395963    3.783859   -1.225484
  C     -2.667277    3.859281   -1.807162
  C     -3.446030    2.703646   -1.929868
  C     -2.964125    1.475964   -1.464988
  C     -2.015517   -1.552953   -0.818376
  C     -1.377275   -2.520408   -1.609973
  C     -2.101227   -3.609985   -2.103045
  C     -3.462310   -3.739245   -1.805753
  C     -4.100752   -2.779985   -1.008932
  C     -3.382743   -1.689978   -0.513278
  C     -1.250158   -0.063338    1.601547
  C     -0.783836    1.072984    2.282779
  C     -0.918481    1.161861    3.670760
  C     -1.526064    0.123586    4.386452
  C     -1.989859   -1.009853    3.708979
  C     -1.848629   -1.107662    2.322181
  C      1.245381    0.095624   -1.904372
  O      2.474456    0.010076   -2.138124
  C      0.348606    0.527548   -3.063642
  C      2.955726   -0.535867    0.525587
  C      3.931353   -1.534849    0.675011
  C      5.260669   -1.194260    0.908698
  C      5.595536    0.160025    1.030061
  C      4.634608    1.173953    0.916565
  C      3.317116    0.816896    0.652183
  N      6.995343    0.528048    1.290003
  O      7.275832    1.735261    1.433057
  O      7.847023   -0.381108    1.356381
  H      0.094557    2.505330   -0.347258
  H     -0.777669    4.675536   -1.140004
  H     -3.044585    4.812977   -2.172096
  H     -4.429910    2.752228   -2.392899
  H     -3.576093    0.587670   -1.585591
  H     -0.317175   -2.424248   -1.832526
  H     -1.600056   -4.357419   -2.715194
  H     -4.025118   -4.588691   -2.189023
  H     -5.157649   -2.881837   -0.769911
  H     -3.885438   -0.960084    0.116483
  H     -0.309802    1.888312    1.744543
  H     -0.551195    2.045029    4.190375
  H     -1.634640    0.196460    5.467260
  H     -2.455931   -1.825119    4.259494
  H     -2.188218   -2.004021    1.812843
  H      0.782662    0.130331   -3.987971
  H      0.343724    1.623239   -3.135485
  H     -0.689298    0.193039   -2.985888
  H      3.644872   -2.580987    0.595345
  H      6.028038   -1.955596    1.004875
  H      4.924633    2.214096    1.025036
  H      2.556215    1.586349    0.544193
