15
  Isotropic shielding for P: 228.731 ppm
  O     -2.579528   -0.043679    0.321992
  C     -1.245544   -0.292072    0.818124
  C     -0.189035   -0.068876   -0.278568
  P      1.491354   -0.357618    0.408465
  O      1.711051   -1.679806    1.080696
  O      2.386460   -0.073029   -0.919455
  N     -0.261804    1.314918   -0.782235
  H     -2.797148   -0.751433   -0.314444
  H     -1.099218    0.424943    1.636101
  H     -1.158262   -1.311531    1.217246
  H     -0.332882   -0.840481   -1.059226
  H      1.749500    0.754904    1.246134
  H      3.346407   -0.006728   -0.740591
  H      0.223574    1.391646   -1.677157
  H     -1.244723    1.538843   -0.957082
