50
  Isotropic shielding for P: 265.081 ppm
  C      2.222803    2.530689    1.519601
  C      2.655768    1.260787    0.779523
  N      1.581454    0.647267   -0.064662
  P      0.428730   -0.370206    0.578516
  F      1.039522   -0.235436    2.119780
  O     -0.569294   -0.339901   -0.921400
  C     -1.905077   -0.003997   -0.845056
  C     -2.050451    0.710823    0.623023
  O     -1.019484    0.131789    1.368831
  C     -1.764045    2.284641    0.640264
  F     -1.613980    2.726800    1.915877
  F     -0.606774    2.580407    0.011586
  F     -2.767840    3.001408    0.069877
  C     -3.408570    0.477882    1.408506
  F     -3.429353    1.158117    2.584574
  F     -3.606103   -0.820024    1.725274
  F     -4.465809    0.909801    0.672336
  C     -2.297082    0.894053   -2.096802
  F     -1.503649    1.978681   -2.228468
  F     -3.586658    1.319781   -2.005854
  F     -2.177144    0.198896   -3.258752
  C     -2.732533   -1.369016   -0.985414
  F     -2.391268   -2.017681   -2.128929
  F     -2.435019   -2.217152    0.028616
  F     -4.078454   -1.188005   -1.011153
  C      0.889322   -2.211782    0.514706
  C      0.168703   -2.980875    1.647659
  C      2.423452   -2.274382    0.761651
  C      0.619749   -2.872807   -0.852571
  C      1.859700    0.772935   -1.527241
  C      1.872615    2.215193   -2.046816
  H      1.889879    3.306373    0.821099
  H      3.074374    2.923782    2.092303
  H      1.406829    2.322049    2.219746
  H      3.474369    1.497351    0.091506
  H      3.046873    0.526959    1.487962
  H      0.480070   -4.033158    1.597146
  H     -0.919237   -2.948122    1.554772
  H      0.445936   -2.592626    2.632988
  H      2.718541   -3.331345    0.733690
  H      2.982244   -1.748369   -0.020603
  H      2.708467   -1.868461    1.735249
  H     -0.440869   -2.997249   -1.064646
  H      1.075529   -3.871928   -0.831460
  H      1.077977   -2.313487   -1.675171
  H      2.845268    0.314607   -1.701549
  H      1.131675    0.189064   -2.085347
  H      2.125097    2.200249   -3.115826
  H      2.625983    2.828052   -1.537551
  H      0.897960    2.697575   -1.931686
