34
  Isotropic shielding for P: 286.754 ppm
  F      0.914283   -0.792848    1.339263
  C      1.862922   -0.664018    0.378482
  C      1.523282   -0.218413   -0.906057
  P     -0.200717    0.126934   -1.505223
  C     -0.650323    1.648154   -0.570946
  C      0.187360    2.307948    0.342612
  C     -0.230770    3.493340    0.959222
  C     -1.491697    4.030410    0.676942
  C     -2.331236    3.383532   -0.239294
  C     -1.908088    2.209748   -0.868228
  C     -1.134877   -1.217563   -0.646741
  C     -0.890263   -2.533421   -1.081577
  C     -1.588466   -3.607204   -0.522272
  C     -2.560323   -3.377185    0.460762
  C     -2.821348   -2.068338    0.883008
  C     -2.109872   -0.993691    0.336727
  C      2.583185   -0.081131   -1.811420
  F      2.351907    0.358428   -3.076553
  C      3.904095   -0.379970   -1.478196
  C      4.198462   -0.835705   -0.193391
  C      3.171884   -0.978003    0.741361
  F      3.460956   -1.403704    1.993778
  F      5.470046   -1.130476    0.146812
  F      4.897935   -0.234119   -2.385339
  H      1.171775    1.910938    0.576512
  H      0.431203    3.994015    1.664331
  H     -1.815780    4.950309    1.160875
  H     -3.310656    3.798243   -0.472643
  H     -2.560962    1.723713   -1.593112
  H     -0.146203   -2.720663   -1.855935
  H     -1.381005   -4.621372   -0.860631
  H     -3.111988   -4.211708    0.890587
  H     -3.574747   -1.880982    1.646984
  H     -2.309978    0.014899    0.689503
