18
  Isotropic shielding for P: 201.618 ppm
  C     -3.004086    0.302524    0.094682
  C     -1.502029    0.160022    0.128898
  C     -0.703903    1.102715    0.798437
  C      0.687490    0.993385    0.809787
  C      1.299772   -0.080016    0.141563
  C      0.519667   -1.036254   -0.530573
  C     -0.867007   -0.910100   -0.531051
  P      3.085292   -0.182432    0.188048
  O      3.799180    0.897630    0.915766
  Cl     3.532976   -2.066851    0.923398
  Cl     3.698738   -0.355056   -1.783254
  H     -3.312818    0.867134   -0.798089
  H     -3.495894   -0.676421    0.048639
  H     -3.372604    0.846575    0.972122
  H     -1.176979    1.933088    1.320894
  H      1.292636    1.729516    1.332720
  H      0.989823   -1.871413   -1.045399
  H     -1.470355   -1.654246   -1.049087
