29
  Isotropic shielding for P: 280.080 ppm
  O     -0.363394   -1.509115   -1.029418
  C     -1.682022   -1.272135   -0.672762
  C     -2.732585   -2.134030   -0.999797
  C     -4.038672   -1.818994   -0.608307
  C     -4.302296   -0.644678    0.106742
  C     -3.252195    0.220950    0.434354
  C     -1.954113   -0.096107    0.044672
  O     -0.882938    0.735118    0.430078
  P     -0.237157    1.822017   -0.586175
  O     -1.027844    3.043059   -0.853814
  O      1.119489    2.186597    0.193997
  C      2.092173    1.201616    0.509600
  C      3.081211    0.901697   -0.425902
  C      4.064385   -0.035316   -0.085102
  C      4.048232   -0.651140    1.172619
  C      3.046717   -0.327793    2.097412
  C      2.056729    0.605335    1.769120
  O      0.134882    1.017609   -1.913141
  H     -0.303423   -2.322888   -1.567956
  H     -2.519985   -3.044689   -1.559318
  H     -4.849963   -2.496549   -0.866612
  H     -5.318075   -0.399979    0.409084
  H     -3.424399    1.139425    0.991170
  H      3.078939    1.392224   -1.396191
  H      4.843160   -0.280129   -0.805143
  H      4.815448   -1.377891    1.432957
  H      3.032543   -0.801115    3.077533
  H      1.269164    0.868121    2.471026
  H      0.206087    0.034576   -1.770722
