42
  Isotropic shielding for P: 220.213 ppm
  C      0.823853    0.254713   -2.656336
  P      0.932808    0.908164   -0.954263
  S      1.881947    2.660128   -0.882443
  C     -0.782329    1.045650   -0.272158
  C     -1.446239    0.009174    0.279406
  C     -1.068354   -1.423841    0.290979
  C     -0.714391   -2.057992    1.495235
  C     -0.360983   -3.408227    1.505704
  C     -0.387498   -4.154571    0.320305
  C     -0.774949   -3.541470   -0.874961
  C     -1.112991   -2.184252   -0.889220
  C     -1.365406    2.415587   -0.226671
  C     -1.615339    3.135395   -1.408664
  C     -2.183450    4.411096   -1.356144
  C     -2.499400    4.992797   -0.121240
  C     -2.249014    4.285928    1.060615
  C     -1.684948    3.006542    1.007540
  C      1.789249   -0.341062    0.060133
  C      2.033221   -0.037485    1.410505
  C      2.704387   -0.950161    2.224079
  C      3.144139   -2.170895    1.694801
  C      2.907604   -2.472597    0.350646
  C      2.232232   -1.561227   -0.467831
  H      0.242027    0.968554   -3.248351
  H      0.335704   -0.723200   -2.681834
  H      1.836077    0.183637   -3.069627
  H     -2.397567    0.242863    0.768277
  H     -0.684543   -1.479329    2.416366
  H     -0.059386   -3.879337    2.439758
  H     -0.110305   -5.207418    0.331378
  H     -0.810793   -4.115905   -1.799352
  H     -1.426024   -1.712242   -1.817971
  H     -1.377226    2.691434   -2.373154
  H     -2.380332    4.952107   -2.280583
  H     -2.936461    5.989313   -0.081571
  H     -2.487294    4.731403    2.025453
  H     -1.476735    2.462560    1.927201
  H      1.695359    0.911330    1.822814
  H      2.882729   -0.711658    3.271316
  H      3.665192   -2.884871    2.330517
  H      3.240872   -3.421971   -0.064647
  H      2.044654   -1.818462   -1.506007
