13
  Isotropic shielding for P: -38.925 ppm
  C     -1.266849    0.439760    0.678898
  C     -0.616375   -0.707060   -0.108601
  C      0.550025   -0.308805   -1.030846
  P      2.185492    0.295240   -0.388925
  Cl     2.322316   -0.774938    1.440527
  Cl     1.685802    2.243388    0.314289
  H     -2.157517    0.073528    1.206415
  H     -0.584256    0.861642    1.424580
  H     -1.579597    1.253806    0.010924
  H     -1.373745   -1.178495   -0.752546
  H     -0.275483   -1.488026    0.583686
  H      0.859947   -1.181597   -1.629975
  H      0.250242    0.471755   -1.748324
