21
  Isotropic shielding for P: 213.253 ppm
  N      4.714719   -0.258851    0.479176
  C      3.659309   -0.034910    0.912203
  C      2.326615    0.222939    1.424396
  P      1.075320   -1.014454    0.762400
  S      1.592954   -2.884667    1.150021
  C     -0.517077   -0.415002    1.342937
  C     -1.230380    0.046395    0.289524
  C     -0.506218   -0.041112   -1.031804
  C      0.739282   -0.563263   -0.946098
  C     -1.158647    0.406954   -2.303730
  C     -2.623856    0.589649    0.375215
  H      1.997925    1.233893    1.148856
  H      2.322442    0.129896    2.518768
  H     -0.845809   -0.456160    2.376512
  H      1.424737   -0.731120   -1.770539
  H     -2.082585   -0.161077   -2.484220
  H     -0.487495    0.270080   -3.157559
  H     -1.444520    1.466364   -2.241653
  H     -3.308739   -0.006302   -0.244816
  H     -2.662885    1.618955   -0.008038
  H     -2.985198    0.581794    1.408447
