15
  Isotropic shielding for P: 54.645 ppm
  C     -2.082218    0.204005    0.237093
  C     -0.611591    0.231132   -0.056230
  C      0.058238    1.282588   -0.582049
  P      1.827534    0.997957   -0.833862
  C      1.606465   -0.808559   -0.405070
  C      0.235246   -0.976211    0.280412
  Cl     2.619769    1.754833    1.080956
  H     -2.565473    1.156599   -0.004977
  H     -2.571603   -0.599485   -0.333459
  H     -2.251592   -0.022054    1.300839
  H     -0.414777    2.230977   -0.831482
  H      2.453571   -1.180886    0.179683
  H      1.618443   -1.327785   -1.374891
  H      0.339234   -1.037738    1.375770
  H     -0.261347   -1.905473   -0.032733
