19
  Isotropic shielding for P: -24.270 ppm
  Cl     3.297289    1.635508    0.744898
  P      1.974066    1.109308   -0.829890
  C      0.995491   -0.177438    0.094966
  C     -0.098912   -0.901078   -0.754670
  C     -1.051934    0.298318   -1.126437
  C     -1.014643    1.190136    0.158149
  C     -0.042315    0.397701    1.112955
  C     -0.773588   -0.894393    1.466556
  C     -0.807581   -1.661612    0.362556
  Cl     3.185644   -0.221782   -1.957217
  H      1.691875   -0.881319    0.563410
  H      0.247875   -1.491670   -1.605338
  H     -0.667999    0.839417   -2.000919
  H     -2.057294   -0.059000   -1.370470
  H     -1.999421    1.318974    0.618216
  H     -0.614845    2.189020   -0.059513
  H      0.354941    0.978777    1.948093
  H     -1.275619   -1.071787    2.414693
  H     -1.343130   -2.597180    0.219761
