12
  Isotropic shielding for P: 281.440 ppm
  C     -2.206106    0.523819    0.000028
  N     -0.746992    0.524065    0.001306
  P      0.299168   -0.579246    0.093979
  C      2.021201    0.231356    0.044169
  Cl     2.139462    1.360377    1.438387
  Cl     3.315053   -1.006807    0.149898
  Cl     2.161916    1.132854   -1.504973
  Cl     0.380693   -1.777813    1.803931
  Cl     0.409412   -2.024874   -1.411259
  H     -2.552831    1.561504   -0.076720
  H     -2.609577   -0.038250   -0.854074
  H     -2.611300    0.092916    0.926527
