26
  Isotropic shielding for P: 235.059 ppm
  O      1.095566    1.520947    1.283530
  C      0.864652    1.351641    0.081704
  C     -0.450361    1.754211   -0.550969
  C     -1.688236    1.520927    0.340490
  C     -1.851136    0.085395    0.880057
  C     -1.865587   -1.033629   -0.194245
  C     -0.525043   -1.421215   -0.792606
  O     -0.324723   -1.442637   -2.004786
  C      0.581393   -1.844014    0.173949
  P      2.214648   -1.040089   -0.141425
  O      3.139795   -1.857670   -0.982195
  C      1.893576    0.654622   -0.792796
  O      2.817481   -0.744935    1.334392
  H     -0.557686    1.255993   -1.520070
  H     -0.361303    2.830671   -0.777334
  H     -2.572012    1.788597   -0.255069
  H     -1.660790    2.208850    1.195202
  H     -1.076620   -0.125580    1.628488
  H     -2.806470    0.034867    1.418222
  H     -2.545961   -0.781528   -1.017347
  H     -2.244757   -1.951190    0.287026
  H      0.755015   -2.919700    0.026989
  H      0.303616   -1.685713    1.219847
  H      1.593926    0.594779   -1.841789
  H      2.860476    1.169690   -0.712754
  H      2.410543    0.076704    1.713591
