25
  Isotropic shielding for P: 153.226 ppm
  C     -2.853718   -0.439642    0.139228
  N     -1.657536    0.253394    0.638615
  C     -0.646462   -0.670467    1.184762
  C      0.048929   -1.640530    0.213560
  O      0.666465   -0.994611   -0.964142
  P      1.783671    0.172775   -0.889972
  S      2.094448    0.863718   -2.699931
  O      1.273207    1.247028    0.204149
  C      0.043248    2.040366    0.043155
  C     -1.193437    1.243366   -0.353681
  C      3.224356   -0.495828   -0.023138
  H     -3.638721    0.298514   -0.070463
  H     -2.674726   -1.013072   -0.791765
  H     -3.222109   -1.132396    0.905709
  H      0.102671   -0.093230    1.733138
  H     -1.154755   -1.308275    1.923233
  H      0.816264   -2.215219    0.749415
  H     -0.663813   -2.339727   -0.233476
  H     -0.088805    2.517829    1.019534
  H      0.233578    2.809516   -0.715238
  H     -1.042657    0.797023   -1.353345
  H     -1.997260    1.987091   -0.469258
  H      3.973887    0.294588    0.088682
  H      3.640182   -1.312626   -0.622625
  H      2.933194   -0.869389    0.965756
