40
  Isotropic shielding for P: 320.460 ppm
  O     -2.801419   -2.328976   -1.497813
  C     -2.022832   -1.567876   -0.970301
  O     -1.427626   -0.548491   -1.678199
  P     -0.350741    0.411526   -0.788956
  O     -0.663257   -0.437284    0.595202
  C     -1.559948   -1.570546    0.483816
  C     -2.751188   -1.352815    1.427036
  C     -0.791616   -2.865370    0.792686
  N      1.275360    0.085011   -0.831877
  C      2.031652   -0.808642   -0.002399
  C      2.150569   -0.589273    1.375794
  C      2.902550   -1.470820    2.156714
  C      3.559265   -2.558458    1.565516
  C      3.458997   -2.759923    0.183927
  C      2.690769   -1.891490   -0.599229
  O     -0.134574    1.279535   -2.347303
  C     -0.414622    2.586334   -2.303325
  O     -0.292265    3.333535   -3.260741
  C     -0.897488    3.009042   -0.914599
  O     -0.939986    1.767722   -0.126734
  C     -2.319587    3.572399   -0.972598
  C      0.105300    3.963461   -0.256940
  H     -2.383441   -1.307189    2.458561
  H     -3.267640   -0.415724    1.189092
  H     -3.458922   -2.184580    1.339272
  H      0.048305   -2.994775    0.102504
  H     -1.464030   -3.726052    0.707456
  H     -0.405253   -2.813551    1.816431
  H      1.745469    0.376846   -1.684057
  H      1.647323    0.260440    1.829306
  H      2.984002   -1.301544    3.229266
  H      4.148044   -3.240174    2.176804
  H      3.967698   -3.600150   -0.285903
  H      2.589658   -2.054011   -1.671128
  H     -3.005595    2.845637   -1.422830
  H     -2.660141    3.807717    0.042307
  H     -2.328845    4.490026   -1.570762
  H     -0.231646    4.200997    0.758618
  H      0.166759    4.890859   -0.836816
  H      1.100645    3.506833   -0.207997
