30
  Isotropic shielding for P: 63.520 ppm
  C      3.666320   -0.727675    1.647183
  C      2.744416   -0.255847    0.519352
  C      3.457898    0.690159   -0.458195
  C      2.654253    1.065214   -1.700403
  O      1.456637    1.867010   -1.391449
  P      0.222897    1.298793   -0.473976
  S      1.259336    0.578174    1.308696
  O     -0.026635   -0.122596   -1.325153
  C     -0.907930   -1.148072   -0.763645
  C     -2.266194   -0.604481   -0.385718
  C     -2.636119   -0.481112    0.961770
  C     -3.881068    0.056246    1.311389
  C     -4.766273    0.477962    0.312760
  C     -4.404555    0.356236   -1.036642
  C     -3.162973   -0.183941   -1.382309
  H      3.141825   -1.403035    2.334247
  H      4.521311   -1.268123    1.216420
  H      4.053013    0.123695    2.222536
  H      2.352307   -1.123373   -0.025356
  H      3.777916    1.598395    0.071992
  H      4.368900    0.182347   -0.814007
  H      2.339681    0.171796   -2.252540
  H      3.245063    1.705224   -2.363425
  H     -0.414535   -1.596561    0.108031
  H     -0.985783   -1.899155   -1.557902
  H     -1.942314   -0.801359    1.737845
  H     -4.157492    0.147250    2.360766
  H     -5.734408    0.897386    0.582228
  H     -5.093297    0.677907   -1.816497
  H     -2.882193   -0.278167   -2.430998
