48
  Isotropic shielding for P: 316.643 ppm
  O      0.754285   -3.782425    0.081955
  C      0.406546   -2.621335    0.095812
  N     -0.117156   -1.872816    1.111749
  P     -0.545015   -0.215984    0.919822
  O     -0.019521   -0.351450   -0.700976
  C      0.451278   -1.614666   -1.119008
  C     -0.506433   -2.139381   -2.240509
  F     -0.644524   -1.227073   -3.231995
  F     -1.738201   -2.362079   -1.699875
  F     -0.079164   -3.302037   -2.785338
  C      1.928778   -1.446877   -1.605196
  F      2.427976   -2.588490   -2.137799
  F      2.711044   -1.105694   -0.546115
  F      2.028776   -0.465279   -2.533609
  O     -2.023485    0.322471    0.624332
  C     -2.355506    1.203776   -0.442086
  C     -2.087351    2.563202   -0.292743
  C     -2.471477    3.435089   -1.318504
  C     -3.117912    2.942663   -2.458530
  C     -3.391892    1.573503   -2.572149
  C     -3.011237    0.689564   -1.556394
  O      0.405737    0.981334    1.373175
  C      1.553910    1.525324    0.736986
  C      2.764869    1.374790    1.408161
  C      3.914761    1.947181    0.853911
  C      3.838736    2.656240   -0.351077
  C      2.606330    2.800103   -0.999576
  C      1.446767    2.236210   -0.455373
  O     -1.000579   -0.631179    2.569466
  C     -0.560541   -1.971903    2.492374
  C     -1.766901   -2.957350    2.674318
  F     -1.383301   -4.250013    2.520198
  F     -2.716925   -2.685811    1.746579
  F     -2.321820   -2.815136    3.901467
  C      0.621032   -2.236573    3.486597
  F      1.605953   -1.331058    3.270256
  F      0.208334   -2.115140    4.770911
  F      1.144808   -3.476969    3.316023
  H     -1.593946    2.928505    0.604286
  H     -2.266065    4.499318   -1.220195
  H     -3.414904    3.624818   -3.252782
  H     -3.903400    1.188242   -3.452188
  H     -3.218321   -0.373816   -1.623656
  H      2.802114    0.820216    2.341746
  H      4.868527    1.834900    1.366034
  H      4.735563    3.097746   -0.781468
  H      2.539881    3.353302   -1.934539
  H      0.489568    2.342138   -0.954881
