24
  Isotropic shielding for P: 196.818 ppm
  C      3.369661    0.895216   -0.434487
  C      2.070580    0.188788   -0.170955
  C      1.880302   -1.140973   -0.255363
  C      0.503678   -1.695191    0.043887
  P     -0.370216   -0.239529    0.764996
  O     -0.551814   -0.315312    2.265287
  C      0.858858    1.019557    0.222649
  N     -1.757840    0.005911   -0.172587
  C     -2.413290    1.326100   -0.055079
  C     -2.739633   -1.099200   -0.204121
  H      3.259296    1.625450   -1.250722
  H      4.163088    0.187802   -0.704040
  H      3.690596    1.462326    0.452540
  H      2.685773   -1.822452   -0.530388
  H      0.524554   -2.518098    0.771239
  H      0.001343   -2.064588   -0.860628
  H      1.082357    1.713780    1.044254
  H      0.492256    1.615638   -0.624246
  H     -3.077495    1.466613   -0.917809
  H     -1.665449    2.125615   -0.061150
  H     -3.015538    1.413429    0.864676
  H     -2.229172   -2.061344   -0.315305
  H     -3.401557   -0.956831   -1.068217
  H     -3.360335   -1.132811    0.706871
