49
  Isotropic shielding for P: 199.756 ppm
  C      1.322935    4.717738   -0.389041
  C      1.024193    3.245848   -0.712859
  C     -0.132809    2.706431    0.143789
  N     -0.471234    1.296751   -0.109106
  C     -1.362025    0.849752   -1.134614
  C     -1.518404   -0.499289   -1.099878
  N     -0.721141   -1.087364   -0.068984
  P      0.252691    0.036210    0.709550
  C      0.593915    0.215152    2.361791
  C      1.950889   -0.163151    2.602830
  N      2.722123   -0.492745    1.568033
  N      1.979884   -0.266428    0.387986
  O      2.258723   -1.386175   -0.531656
  C      2.027545   -1.100401   -1.854201
  O      1.635106   -0.024247   -2.266438
  C      2.283802   -2.331037   -2.691726
  C      2.568535   -0.169445    3.973270
  C     -0.731746   -2.511259    0.315616
  C     -1.584177   -2.802526    1.563719
  C     -3.061289   -2.410105    1.422087
  C     -2.307219   -1.370618   -2.024115
  C     -1.982936    1.838024   -2.069412
  H      2.152651    5.095391   -1.000124
  H      0.446223    5.351954   -0.582543
  H      1.599372    4.841444    0.667650
  H      1.915104    2.629361   -0.532078
  H      0.775613    3.137489   -1.777134
  H     -1.037031    3.307524   -0.010980
  H      0.130317    2.789068    1.206616
  H     -0.126239    0.446917    3.136791
  H      1.318971   -2.816852   -2.891819
  H      2.937967   -3.046805   -2.185831
  H      2.718890   -2.025712   -3.648927
  H      2.660564    0.851956    4.369685
  H      1.940921   -0.735089    4.675629
  H      3.567398   -0.619810    3.939579
  H     -1.091523   -3.089306   -0.542195
  H      0.304178   -2.823424    0.498297
  H     -1.140317   -2.274824    2.419487
  H     -1.498196   -3.879002    1.776344
  H     -3.610934   -2.626369    2.347282
  H     -3.544228   -2.963802    0.605453
  H     -3.167625   -1.337655    1.212594
  H     -2.819956   -0.759811   -2.772533
  H     -1.657508   -2.081258   -2.556759
  H     -3.066227   -1.960332   -1.492395
  H     -1.226680    2.390355   -2.645561
  H     -2.590963    2.581717   -1.533931
  H     -2.638199    1.325757   -2.779538
