52
  Isotropic shielding for P: 307.976 ppm
  C      3.959529    2.122353   -0.335471
  N      2.940512    1.969232    0.718684
  C      3.282777    0.971393    1.745512
  C      3.269460   -0.497156    1.307442
  O      1.889299   -0.904016    1.034598
  P      1.169784   -1.142631   -0.406114
  O      2.503136   -0.690210   -1.332533
  C      2.801324   -1.581594   -2.421801
  C      2.334111   -2.953153   -1.951546
  N      1.140987   -2.654591   -1.144605
  C      0.345217   -3.830294   -0.759672
  O      0.397835    0.235801   -0.975663
  C     -0.861270    0.485803   -0.403851
  C     -1.212407   -0.508422    0.453676
  O     -0.287695   -1.524625    0.478414
  C     -2.359533   -0.666566    1.349498
  C     -2.848497   -1.958145    1.635813
  C     -3.930396   -2.133047    2.502970
  C     -4.537154   -1.025601    3.108009
  C     -4.043927    0.260691    2.845721
  C     -2.962854    0.439535    1.981688
  C     -1.522760    1.696407   -0.873630
  C     -2.928683    1.784884   -0.967946
  C     -3.539097    2.950815   -1.430210
  C     -2.764093    4.050499   -1.827556
  C     -1.367911    3.965099   -1.763629
  C     -0.751326    2.802022   -1.295070
  H      4.187531    1.193116   -0.884229
  H      3.612783    2.868250   -1.061618
  H      4.889624    2.493653    0.116816
  H      2.045628    1.721134    0.292781
  H      2.581590    1.082750    2.585665
  H      4.289009    1.201707    2.128052
  H      3.602379   -1.139126    2.133011
  H      3.896739   -0.678805    0.432461
  H      3.878408   -1.539175   -2.617013
  H      2.252197   -1.262872   -3.321461
  H      3.105855   -3.460939   -1.348251
  H      2.064496   -3.605013   -2.791828
  H      0.820314   -4.391165    0.060975
  H      0.270437   -4.492683   -1.630830
  H     -0.657187   -3.536250   -0.453519
  H     -2.379935   -2.822023    1.170712
  H     -4.299706   -3.137179    2.706570
  H     -5.378191   -1.162619    3.785617
  H     -4.494528    1.126436    3.328791
  H     -2.573318    1.438610    1.804424
  H     -3.540689    0.930551   -0.691359
  H     -4.625150    2.996684   -1.497623
  H     -3.243646    4.956748   -2.193420
  H     -0.754378    4.808165   -2.078445
  H      0.333267    2.745264   -1.249311
