44
  Isotropic shielding for P: 308.651 ppm
  C     -2.679926    2.140854   -0.226646
  C     -1.947936    1.431886   -1.383608
  C     -1.512881    2.440761   -2.457763
  C     -2.821378    0.313627   -2.004461
  O     -2.618220   -0.863425   -1.212649
  P     -0.950524   -1.012043   -0.723560
  N     -0.798270    0.654382   -0.874617
  C      0.493439    1.252623   -0.560849
  C      1.252592    0.132395    0.188947
  O      0.771465   -1.093084   -0.391400
  C      2.755080    0.236415    0.069832
  C      3.399290   -0.033878   -1.148904
  C      4.787355    0.089235   -1.259788
  C      5.550019    0.491822   -0.154102
  C      4.915056    0.765321    1.062637
  C      3.524590    0.633557    1.172309
  C     -1.418966   -1.779528    0.861592
  C     -1.485436   -3.176672    0.973603
  C     -1.817851   -3.770210    2.197006
  C     -2.075745   -2.971654    3.318285
  C     -2.005129   -1.577003    3.210114
  C     -1.682260   -0.981505    1.985534
  H     -3.086193    1.405854    0.478148
  H     -3.507730    2.749296   -0.613726
  H     -1.993656    2.802305    0.317226
  H     -2.401001    2.885946   -2.924567
  H     -0.919969    1.948720   -3.238786
  H     -0.917599    3.254112   -2.024298
  H     -2.511254    0.134707   -3.049077
  H     -3.886805    0.573818   -1.988476
  H     -0.718776   -2.014395   -1.692862
  H      0.377617    2.135722    0.080936
  H      1.034110    1.550903   -1.471598
  H      0.972580    0.169243    1.255516
  H      2.809677   -0.349975   -2.007588
  H      5.276509   -0.127330   -2.208648
  H      6.631292    0.587454   -0.241370
  H      5.500368    1.073995    1.927669
  H      3.031881    0.837618    2.122879
  H     -1.278550   -3.804425    0.107360
  H     -1.873464   -4.855175    2.274249
  H     -2.330921   -3.433535    4.270812
  H     -2.204723   -0.951214    4.078895
  H     -1.637859    0.102580    1.905596
