29
  Isotropic shielding for P: 154.650 ppm
  C      4.276724   -0.090641   -0.174169
  Sn     2.122177    0.174359   -0.266249
  C      1.466826    2.131591   -0.944107
  C      0.947257   -1.518364   -1.049208
  C      0.369600   -2.353967    0.098826
  P     -0.318415   -1.342543    1.489537
  S     -1.103718   -2.426193    2.957993
  S      1.303569   -0.141722    2.104719
  C     -1.545169   -0.234623    0.702003
  C     -1.602935    1.132738    1.008320
  C     -2.578027    1.944471    0.419745
  C     -3.496620    1.397162   -0.482918
  C     -3.442978    0.031365   -0.790851
  C     -2.475538   -0.784407   -0.198489
  H      4.494110   -1.084366    0.228923
  H      4.685274    0.003437   -1.186187
  H      4.703707    0.682470    0.472451
  H      1.851197    2.300536   -1.955953
  H      1.858827    2.894897   -0.264704
  H      0.373417    2.152443   -0.946476
  H      1.611043   -2.124114   -1.675503
  H      0.157495   -1.096651   -1.678803
  H     -0.442276   -3.013726   -0.238184
  H      1.133462   -2.987425    0.567250
  H     -0.879369    1.562456    1.696731
  H     -2.613673    3.005315    0.661915
  H     -4.250616    2.030958   -0.946803
  H     -4.153612   -0.399765   -1.494029
  H     -2.451637   -1.845289   -0.439282
