26
  Isotropic shielding for P: 240.110 ppm
  Cl     0.323032    2.246699    2.881743
  S     -0.246563    0.272994    3.277422
  P     -0.012379   -0.662970    1.394467
  O     -0.485137   -2.059842    1.628397
  O     -0.780528    0.183515    0.286002
  C     -2.278688    0.139237    0.190980
  C     -2.628110   -0.604751   -1.089699
  C     -2.759592    1.581850    0.238759
  O      1.510943   -0.423996    1.031676
  C      2.036563   -0.542856   -0.379643
  C      3.221149   -1.494187   -0.315170
  C      2.377939    0.861302   -0.852727
  H     -2.645271   -0.413876    1.064478
  H     -2.218584   -0.081071   -1.963047
  H     -2.230885   -1.626112   -1.066272
  H     -3.719354   -0.657901   -1.195487
  H     -3.855161    1.603202    0.177185
  H     -2.453581    2.062846    1.174656
  H     -2.351846    2.152209   -0.605733
  H      1.234641   -0.971986   -0.991287
  H      3.640748   -1.618745   -1.321806
  H      4.004269   -1.092620    0.340731
  H      2.912246   -2.478022    0.056779
  H      1.489616    1.502506   -0.850218
  H      2.770161    0.814789   -1.877007
  H      3.144572    1.307887   -0.206583
