51
  Isotropic shielding for P: 316.097 ppm
  F      2.772580    0.127621   -3.640754
  C      1.411484    0.272465   -3.530856
  C      0.942737    0.365032   -2.101766
  C      0.824850    1.469162   -1.345399
  C      1.423482    2.817071   -1.711937
  F      2.456529    2.714947   -2.601144
  F      1.952949    3.444992   -0.618601
  F      0.507910    3.672185   -2.267801
  C      0.120161    1.295007    0.050785
  C     -1.187720    0.501248   -0.178810
  C     -1.179863   -0.693773   -0.778819
  P      0.525997   -1.278309   -1.288317
  C      1.331812   -0.855728    0.350145
  C      1.068137    0.367615    0.830502
  C      2.151161   -1.879904    1.020806
  C      2.901472   -2.814795    0.277910
  C      3.690973   -3.772678    0.920681
  C      3.739894   -3.823836    2.318947
  C      2.989746   -2.908205    3.070186
  C      2.200773   -1.950688    2.430383
  C     -2.351056   -1.545554   -1.042269
  C     -3.627336   -0.977144   -1.244219
  C     -4.743657   -1.788468   -1.455103
  C     -4.611109   -3.183999   -1.476648
  C     -3.348992   -3.760151   -1.289509
  C     -2.229804   -2.949420   -1.081044
  C     -0.239531    2.611022    0.751379
  C      0.347157    3.040791    1.948891
  C     -0.046596    4.244192    2.547387
  C     -1.032863    5.040101    1.957180
  C     -1.628149    4.618912    0.761946
  C     -1.237611    3.414749    0.172860
  F      1.049617    1.341580   -4.303289
  F      0.861615   -0.827202   -4.145940
  H     -2.091880    0.948093    0.226368
  H      1.510294    0.732393    1.752030
  H      2.876116   -2.781770   -0.809656
  H      4.267688   -4.481080    0.327916
  H      4.348324   -4.575169    2.819634
  H      3.009929   -2.949654    4.158341
  H      1.600888   -1.261994    3.022086
  H     -3.736684    0.105487   -1.250275
  H     -5.719301   -1.331324   -1.613701
  H     -5.482211   -3.814670   -1.646205
  H     -3.234306   -4.842917   -1.306508
  H     -1.254162   -3.409311   -0.933567
  H      1.126024    2.458850    2.431646
  H      0.423628    4.556225    3.478616
  H     -1.336990    5.975748    2.423433
  H     -2.400446    5.224241    0.290001
  H     -1.713363    3.097812   -0.753321
