24
  Isotropic shielding for P: 264.450 ppm
  C      3.116356   -0.100488    0.283931
  C      2.074465   -0.974379   -0.433396
  N      0.770713   -0.981741    0.252369
  P     -0.402941   -0.022759   -0.054446
  O     -1.136948   -0.060831   -1.493981
  C     -1.623231   -1.335709   -2.016190
  O     -1.645930   -0.291383    0.930615
  C     -1.422053   -0.402321    2.370387
  O     -0.044440    1.546322    0.040073
  C     -1.045671    2.585780   -0.213379
  H      4.096366   -0.180284   -0.208561
  H      2.811012    0.954003    0.277975
  H      3.227956   -0.418261    1.329664
  H      2.443127   -2.011540   -0.462308
  H      1.992372   -0.647998   -1.484489
  H     -2.504632   -1.659194   -1.450698
  H     -1.892403   -1.152863   -3.059601
  H     -0.837067   -2.096532   -1.956647
  H     -2.411516   -0.526293    2.818075
  H     -0.948485    0.509723    2.752226
  H     -0.791981   -1.271551    2.584143
  H     -1.313678    2.596317   -1.274910
  H     -0.575247    3.531171    0.068641
  H     -1.936145    2.410912    0.400510
