37
  Isotropic shielding for P: 120.579 ppm
  C      1.731361   -3.547378   -0.953519
  O      1.127958   -2.397228   -0.305383
  C      1.829429   -1.213541   -0.377972
  O      2.968615   -1.170964   -0.845230
  C      1.041808   -0.093949    0.121971
  P     -0.682672   -0.237995    0.297213
  C     -1.434768    1.223306    1.156165
  C     -0.901092    1.367748    2.596253
  C     -2.974403    1.194545    1.128316
  C     -1.625367   -0.549014   -1.267898
  C     -1.425459    0.681494   -2.181838
  C     -1.295473   -1.855325   -2.004972
  Br    -1.339748   -1.970789    1.657577
  C      1.694967    1.181727    0.437728
  O      1.192762    2.304803    0.331609
  O      2.974759    1.016625    0.893662
  C      3.734923    2.239445    1.108673
  H      1.005699   -4.355601   -0.835641
  H      2.677820   -3.809466   -0.468264
  H      1.906504   -3.342990   -2.015883
  H     -1.071556    2.069934    0.563565
  H      0.190154    1.318045    2.652547
  H     -1.215815    2.344829    2.983686
  H     -1.318875    0.591363    3.246943
  H     -3.378292    1.244371    0.112254
  H     -3.337837    2.074438    1.674337
  H     -3.373177    0.302382    1.625174
  H     -2.669704   -0.593270   -0.931199
  H     -2.049358    0.549526   -3.075175
  H     -1.719435    1.621492   -1.702692
  H     -0.379736    0.763546   -2.501328
  H     -0.285870   -1.833087   -2.426683
  H     -2.007771   -1.962715   -2.833552
  H     -1.387363   -2.730296   -1.355095
  H      3.784150    2.829174    0.186462
  H      4.732641    1.905421    1.403653
  H      3.280119    2.839694    1.904339
