14
  Isotropic shielding for P: 98.125 ppm
  C     -2.174398   -0.043348    0.429967
  C     -0.817243   -0.565626   -0.073900
  C      0.199331    0.561449   -0.203364
  O      1.460500    0.039162   -0.773678
  P      2.813098    0.071772    0.115762
  F      3.741758    1.012745   -0.847024
  F      3.442977   -1.331270   -0.420746
  H     -2.895647   -0.865556    0.514752
  H     -2.593399    0.703092   -0.258749
  H     -2.078679    0.424883    1.419159
  H     -0.938945   -1.048974   -1.053736
  H     -0.422543   -1.324408    0.616946
  H      0.404634    1.028784    0.769848
  H     -0.141539    1.337299   -0.898534
