22
  Isotropic shielding for P: 156.875 ppm
  C     -2.063666    1.359284   -0.161717
  P     -1.155121   -0.056037    0.512465
  C      0.608603    0.093527    0.192381
  C      1.006366    0.584065   -1.065870
  C      2.365671    0.644443   -1.380612
  C      3.322426    0.223817   -0.449135
  C      2.922290   -0.265900    0.799878
  C      1.565826   -0.337399    1.125158
  Cl    -1.410169   -0.083556    2.526922
  Cl    -5.093035   -0.679809    0.868580
  C     -1.802573   -1.608605   -0.119507
  H     -2.681722    1.013517   -0.996323
  H     -2.710356    1.770076    0.618351
  H     -1.352178    2.120492   -0.495014
  H      0.271066    0.910836   -1.797982
  H      2.674568    1.025149   -2.351930
  H      4.380962    0.279892   -0.696245
  H      3.665458   -0.590848    1.525142
  H      1.260889   -0.717172    2.096553
  H     -2.881380   -1.634851    0.098684
  H     -1.624828   -1.611030   -1.203293
  H     -1.269097   -2.439786    0.353513
