15
  Isotropic shielding for P: 6.221 ppm
  Cl     3.283733    1.520578   -0.123865
  P      3.165184   -0.564600   -0.545735
  O      1.841171   -1.034778    0.269209
  C      0.527195   -0.504052    0.259451
  C     -0.417066   -1.085903   -0.585589
  C     -1.727047   -0.593137   -0.563034
  C     -2.072614    0.458240    0.295343
  C     -1.107456    1.016072    1.143062
  C      0.207084    0.534241    1.133454
  Br     2.408506   -0.416766   -2.745529
  H     -0.130945   -1.904930   -1.239594
  H     -2.476369   -1.035938   -1.216632
  H     -3.093084    0.836523    0.309357
  H     -1.374278    1.826431    1.819008
  H      0.966084    0.948014    1.790992
