28
  Isotropic shielding for P: 266.506 ppm
  C      2.453256   -0.874254    1.030528
  Ge     1.567271    0.325409   -0.298364
  C     -0.013566   -0.490158   -1.069771
  P     -1.504775   -0.524058   -0.256793
  C     -2.478696    1.037639   -0.062809
  C     -2.704640   -1.647494   -1.060206
  C     -1.321163   -1.101298    1.465840
  C      2.860202    0.674656   -1.772431
  C      1.235625    2.054286    0.658069
  H      2.709977   -1.832821    0.562069
  H      1.784073   -1.068951    1.877481
  H      3.371983   -0.408604    1.411330
  H     -0.123494   -0.327219   -2.146927
  H     -3.418299    0.862838    0.477333
  H     -2.699965    1.439599   -1.059166
  H     -1.870993    1.766563    0.485499
  H     -2.309650   -2.669066   -1.052337
  H     -3.669012   -1.618426   -0.539113
  H     -2.848312   -1.326514   -2.099201
  H     -2.304436   -1.150301    1.947385
  H     -0.689365   -0.401332    2.024081
  H     -0.854619   -2.091715    1.473591
  H      3.786210    1.106027   -1.371650
  H      2.430433    1.377605   -2.497300
  H      3.104415   -0.259570   -2.293617
  H      0.788900    2.785886   -0.026862
  H      2.174320    2.464787    1.053722
  H      0.544318    1.896185    1.495718
