36
  Isotropic shielding for P: 308.182 ppm
  C     -1.851518    2.854159   -2.359829
  O     -0.568143    3.409036   -1.923574
  P      0.137775    3.089225   -0.518902
  F     -0.311668    4.087074    0.657423
  F      1.303092    4.191266   -0.913115
  O     -0.990778    1.982228    0.063005
  C     -0.556534    0.613264   -0.076686
  C      0.976351    0.687217    0.127780
  O      1.352322    2.011035   -0.382982
  C      1.736882   -0.394963   -0.586415
  C      1.808264   -0.423015   -1.988862
  C      2.470988   -1.467970   -2.638069
  C      3.057114   -2.501090   -1.893170
  C      2.983975   -2.479352   -0.495821
  C      2.330549   -1.425741    0.154733
  C     -1.236251   -0.285774    0.923674
  C     -1.406527    0.118756    2.257130
  C     -1.988958   -0.748208    3.186115
  C     -2.395888   -2.031249    2.794293
  C     -2.223533   -2.439848    1.466802
  C     -1.649907   -1.567111    0.534368
  H     -2.043052    3.329724   -3.325167
  H     -2.639826    3.106647   -1.646573
  H     -1.780896    1.770340   -2.484670
  H     -0.767764    0.262641   -1.097610
  H      1.209243    0.683963    1.198880
  H      1.350922    0.375829   -2.570231
  H      2.527628   -1.479945   -3.725439
  H      3.570059   -3.316294   -2.401022
  H      3.440013   -3.276982    0.088412
  H      2.278243   -1.403443    1.242552
  H     -1.089331    1.113657    2.563521
  H     -2.123108   -0.424827    4.217314
  H     -2.847492   -2.705996    3.519863
  H     -2.540982   -3.433498    1.154628
  H     -1.521165   -1.880951   -0.500856
