20
  Isotropic shielding for P: -77.370 ppm
  Br     3.152762   -1.367407   -1.430464
  P      2.644276    0.801407   -0.816695
  C      0.921325    0.594336   -0.136621
  C      0.662268   -0.472319    0.939800
  C     -0.809322   -0.433254    1.400849
  C     -1.780995   -0.582036    0.215821
  C     -1.508740    0.477406   -0.866675
  C     -0.041089    0.435794   -1.342005
  Br     3.857544    1.028884    1.135989
  H      0.760606    1.596032    0.304367
  H      1.330340   -0.317036    1.795185
  H      0.889025   -1.463707    0.522746
  H     -1.000999    0.523121    1.913105
  H     -0.980587   -1.229974    2.138343
  H     -2.820085   -0.504722    0.565776
  H     -1.665044   -1.585954   -0.223534
  H     -1.729360    1.478695   -0.464669
  H     -2.171918    0.324372   -1.729618
  H      0.137214    1.224330   -2.086693
  H      0.152780   -0.527868   -1.835206
