48
  Isotropic shielding for P: 271.325 ppm
  C     -1.506787   -2.957383    1.993892
  C     -1.025053   -1.514202    2.117471
  O     -0.210419   -1.068068    0.991789
  C     -0.914791   -0.774600   -0.186093
  P      0.028659    0.535032   -1.105944
  O     -0.638177    0.888451   -2.395857
  O      0.198670    1.736811   -0.077609
  Si    -0.782000    3.064043    0.373604
  C      0.060967    3.748193    1.898026
  C     -0.790171    4.285765   -1.046332
  C     -2.502659    2.422612    0.750543
  O      1.490028   -0.036602   -1.303018
  Si     2.881421   -0.474723   -0.407445
  C      4.306487    0.007667   -1.525798
  C      2.804801   -2.327975   -0.150124
  C      2.921034    0.469097    1.208930
  O     -1.016365   -1.936097   -1.021134
  C     -2.299800   -2.076046   -1.690453
  C     -2.281699   -3.376591   -2.477950
  H     -0.660552   -3.637768    1.836412
  H     -2.214420   -3.080148    1.166496
  H     -2.014227   -3.246500    2.925008
  H     -0.367194   -1.397410    2.986345
  H     -1.872391   -0.820594    2.228304
  H     -1.923507   -0.389064    0.039289
  H      0.094541    2.995814    2.697319
  H      1.090013    4.058177    1.672006
  H     -0.484550    4.624182    2.275594
  H     -1.352892    5.188696   -0.770071
  H     -1.260498    3.847777   -1.935947
  H      0.232138    4.588797   -1.309825
  H     -2.477816    1.669191    1.549164
  H     -2.964623    1.970185   -0.137003
  H     -3.147149    3.248547    1.083222
  H      5.266101   -0.258780   -1.061008
  H      4.308196    1.089706   -1.715106
  H      4.241497   -0.511105   -2.491944
  H      3.727758   -2.682453    0.330251
  H      2.698559   -2.852036   -1.109677
  H      1.954728   -2.595582    0.488169
  H      2.935433    1.552500    1.036248
  H      3.828138    0.198951    1.768342
  H      2.047945    0.228898    1.826311
  H     -3.097915   -2.080298   -0.930055
  H     -2.461977   -1.215123   -2.355229
  H     -2.122996   -4.235491   -1.813340
  H     -1.484821   -3.363973   -3.232641
  H     -3.241963   -3.510379   -2.993138
