31
  Isotropic shielding for P: 191.365 ppm
  C      2.231902    1.293869    1.347333
  C      1.960803    1.313407   -0.166350
  P      1.060304   -0.138541   -0.859621
  S      0.593022    0.207890   -2.766156
  N     -0.285990   -0.438527    0.093168
  Si    -1.925098    0.241251   -0.034162
  C     -2.700941   -0.116430    1.642858
  C     -1.849050    2.094089   -0.349115
  C     -2.886309   -0.625031   -1.398312
  C      2.145738   -1.618246   -0.689042
  C      2.245201   -2.276294    0.698801
  H      2.642544    2.262185    1.661395
  H      1.309479    1.120606    1.915621
  H      2.956766    0.520205    1.622421
  H      1.337001    2.176490   -0.433360
  H      2.894095    1.399786   -0.739237
  H     -0.066983   -0.855154    0.998966
  H     -3.740999    0.237388    1.664377
  H     -2.153349    0.388913    2.450107
  H     -2.707558   -1.194648    1.854877
  H     -1.373345    2.313451   -1.313071
  H     -1.276460    2.600169    0.439851
  H     -2.862676    2.519643   -0.363476
  H     -3.919095   -0.249765   -1.436423
  H     -2.922703   -1.708538   -1.219915
  H     -2.417499   -0.453656   -2.374785
  H      1.750594   -2.335357   -1.420213
  H      3.134303   -1.302094   -1.050202
  H      2.888072   -3.163538    0.634555
  H      1.262192   -2.608154    1.055138
  H      2.676237   -1.605369    1.448777
