50
  Isotropic shielding for P: 310.462 ppm
  C     -2.596329   -1.110679   -4.040651
  O     -1.783146   -0.602898   -2.961390
  C     -2.153705   -0.890599   -1.669837
  C     -3.316794   -1.616437   -1.359704
  C     -3.625611   -1.861215   -0.020132
  C     -2.811105   -1.394966    1.013162
  C     -1.652361   -0.666906    0.691405
  C     -1.294274   -0.410909   -0.654096
  P      0.273054    0.429077   -1.152422
  C      1.515020   -0.426939   -0.078117
  C      2.190201    0.075369    1.059397
  O      1.830985    1.321949    1.490726
  C      2.469785    1.867736    2.658945
  C      3.176345   -0.688740    1.711517
  C      3.481382   -1.967932    1.244871
  C      2.824425   -2.507589    0.136825
  C      1.850486   -1.733772   -0.511661
  O      1.135645   -2.188052   -1.597292
  C      1.437641   -3.492853   -2.131820
  C      0.067982    2.150115   -0.536140
  C      1.108259    3.062094   -0.802601
  C      0.980218    4.412495   -0.473911
  C     -0.208744    4.887935    0.099435
  C     -1.260882    3.996853    0.337188
  C     -1.123349    2.638354    0.022700
  O     -0.812620   -0.152142    1.637461
  C     -1.085268   -0.403864    3.028705
  H     -2.643565   -2.207824   -4.017103
  H     -3.612618   -0.695830   -4.000402
  H     -2.099034   -0.781295   -4.956829
  H     -3.972754   -1.984842   -2.141120
  H     -4.525725   -2.423909    0.223719
  H     -3.080034   -1.589609    2.046310
  H      3.553371    1.973696    2.510779
  H      2.278744    1.244340    3.543521
  H      2.019659    2.854266    2.799076
  H      3.692259   -0.297159    2.581957
  H      4.240663   -2.557231    1.756910
  H      3.064164   -3.508803   -0.205801
  H      1.236226   -4.278795   -1.391286
  H      2.484315   -3.554231   -2.459649
  H      0.772148   -3.615029   -2.990407
  H      2.031338    2.707258   -1.261221
  H      1.802618    5.098473   -0.673904
  H     -0.314450    5.942858    0.348236
  H     -2.192007    4.355790    0.774781
  H     -1.948002    1.958871    0.221814
  H     -2.046774    0.034029    3.330188
  H     -1.087221   -1.481048    3.244101
  H     -0.270857    0.080335    3.573666
