58
  Isotropic shielding for P: 301.606 ppm
  O      3.471579    0.205175    1.177976
  C      2.590973   -0.463985    0.599034
  C      1.346621    0.113546    0.093581
  C      1.032180    1.389684   -0.324946
  O     -0.254445    1.433886   -0.790864
  P     -1.244548    0.035439   -0.489614
  O      0.292577   -0.746601   -0.066720
  N     -2.525596    0.902881   -1.246305
  C     -2.958061    2.239175   -0.857073
  C     -3.459716    0.116955   -2.029899
  C     -2.653469   -1.102232   -2.466221
  N     -1.683547   -1.342212   -1.389499
  C     -0.928287   -2.589579   -1.534998
  N     -1.772471    0.071852    1.101539
  C     -3.222314   -0.060688    1.423236
  C     -3.239208   -0.603666    2.863647
  C     -1.943359   -0.031192    3.466982
  C     -0.941479   -0.177853    2.312300
  C      1.775038    2.637651   -0.496186
  C      1.308475    3.564916   -1.460968
  C      1.972093    4.773330   -1.670339
  C      3.108395    5.097648   -0.916491
  C      3.568698    4.196628    0.051231
  C      2.913001    2.981491    0.265709
  C      2.792300   -1.940234    0.420851
  C      3.394266   -2.675380    1.457377
  C      3.653010   -4.038872    1.297362
  C      3.339993   -4.674323    0.087758
  C      2.760318   -3.941868   -0.956490
  C      2.475627   -2.584791   -0.786666
  H     -2.314474    2.637183   -0.068494
  H     -2.924968    2.933324   -1.712483
  H     -3.993439    2.221791   -0.477072
  H     -3.823950    0.688827   -2.895881
  H     -4.343485   -0.186730   -1.433901
  H     -3.290796   -1.986606   -2.593784
  H     -2.134299   -0.915238   -3.423634
  H     -1.638751   -3.386408   -1.793995
  H     -0.174787   -2.531950   -2.337064
  H     -0.426235   -2.859898   -0.607239
  H     -3.724700   -0.740677    0.723823
  H     -3.726977    0.913584    1.370230
  H     -4.143286   -0.302481    3.405117
  H     -3.194159   -1.701596    2.854606
  H     -1.611952   -0.559648    4.368400
  H     -2.079556    1.029773    3.719782
  H     -0.507387   -1.188159    2.301994
  H     -0.119740    0.543701    2.378520
  H      0.429662    3.322465   -2.051506
  H      1.601115    5.465609   -2.424821
  H      3.622976    6.043617   -1.077288
  H      4.441729    4.444055    0.653713
  H      3.268528    2.291556    1.021635
  H      3.645664   -2.171924    2.388979
  H      4.100630   -4.606010    2.112013
  H      3.548525   -5.735370   -0.040571
  H      2.524752   -4.429581   -1.901082
  H      2.020021   -2.020188   -1.595198
