37
  Isotropic shielding for P: 246.964 ppm
  C      4.440095   -2.884904   -0.165177
  Se     2.513841   -3.034067    0.322639
  Se     2.492533   -1.898548    2.387739
  Se     2.244021    0.437644    1.852765
  P     -0.042331    0.401123    1.641486
  O     -0.774525    0.052933    2.894292
  O     -0.277893   -0.586638    0.425484
  Si    -1.516708   -1.729263    0.081528
  C     -1.140146   -2.266953   -1.669627
  C     -3.155756   -0.832787    0.219980
  C     -1.374809   -3.138924    1.304820
  O     -0.371554    1.858978    1.121029
  Si    -0.058686    2.852825   -0.250140
  C      0.296321    1.768454   -1.732848
  C     -1.630052    3.846992   -0.447918
  C      1.412091    3.915829    0.210672
  H      4.546192   -3.434834   -1.106785
  H      5.049745   -3.339355    0.617985
  H      4.687310   -1.830571   -0.307754
  H     -1.181002   -1.413665   -2.359307
  H     -1.874192   -3.013328   -2.003994
  H     -0.140820   -2.716826   -1.733319
  H     -3.334984   -0.495306    1.249005
  H     -3.981250   -1.498056   -0.069657
  H     -3.177201    0.044828   -0.439988
  H     -2.156816   -3.885623    1.105854
  H     -0.402236   -3.641094    1.226421
  H     -1.496681   -2.781046    2.334548
  H      0.488229    2.404482   -2.608744
  H      1.180578    1.140350   -1.567355
  H     -0.552977    1.113933   -1.963173
  H     -2.483888    3.187949   -0.654449
  H     -1.847921    4.422053    0.461973
  H     -1.532988    4.553775   -1.283778
  H      1.631107    4.631796   -0.593975
  H      2.309656    3.303230    0.370678
  H      1.213796    4.484519    1.128990
