38
  Isotropic shielding for P: 226.753 ppm
  C     -2.657876    2.692524   -1.061111
  N     -2.187424    1.623376   -0.165557
  C     -0.717568    1.552620   -0.162386
  P     -0.090131   -0.103843    0.358228
  O     -0.408228   -0.480171    1.792404
  C     -0.779746   -1.250566   -0.914701
  N     -0.185342   -2.594977   -0.850142
  C     -0.758577   -3.395559    0.244769
  C     -0.330174   -3.292601   -2.138056
  C      1.711256   -0.038256   -0.041217
  N      2.416538    1.025194    0.691970
  C      2.690410    0.638167    2.086434
  C      3.662195    1.397416    0.001471
  C     -2.730374    1.803127    1.191391
  H     -3.754840    2.696453   -1.074280
  H     -2.294897    2.509243   -2.079452
  H     -2.311659    3.697081   -0.740808
  H     -0.347564    1.706320   -1.184519
  H     -0.244637    2.323969    0.477176
  H     -0.540413   -0.798889   -1.886369
  H     -1.883658   -1.255139   -0.818315
  H     -0.258156   -4.370769    0.278509
  H     -1.847209   -3.565395    0.107925
  H     -0.606882   -2.883714    1.199750
  H     -1.392508   -3.452602   -2.416389
  H      0.151736   -2.708813   -2.931403
  H      0.158994   -4.272595   -2.076025
  H      1.772654    0.165291   -1.118584
  H      2.143089   -1.044626    0.127875
  H      1.753472    0.398262    2.597706
  H      3.357615   -0.247354    2.147049
  H      3.177195    1.473403    2.604083
  H      4.379215    0.552808   -0.061313
  H      3.435035    1.736317   -1.016330
  H      4.146096    2.218032    0.545503
  H     -2.390195    2.755042    1.650427
  H     -2.411673    0.976669    1.833437
  H     -3.825867    1.814753    1.142650
