54
  Isotropic shielding for P: 376.995 ppm
  C     -0.063337   -1.088363    3.103277
  C     -1.099340   -0.390501    2.276437
  C     -2.370412   -0.013221    2.695645
  C     -2.979415    0.634236    1.599181
  N     -2.133096    0.672057    0.563653
  N     -0.975077    0.017661    0.963134
  P      0.519733    0.064393   -0.135604
  O      1.397821    0.904544    1.130865
  C      1.074539    2.233407    1.118982
  C      0.305670    2.603679    0.005594
  O      0.047351    1.551101   -0.843812
  C     -0.137368    3.905791   -0.174918
  C      0.220727    4.859072    0.797365
  C      0.989323    4.494570    1.910014
  C      1.423992    3.167515    2.087620
  O      1.942599    0.043978   -1.164405
  C      2.857049   -0.849257   -0.670207
  C      2.302562   -1.707003    0.288413
  O      0.963083   -1.452958    0.499157
  C      3.043151   -2.709344    0.893871
  C      4.390359   -2.843366    0.504959
  C      4.950050   -1.988474   -0.452888
  C      4.185413   -0.971022   -1.055579
  N     -0.489410   -0.752777   -1.537779
  N     -1.720933   -0.229298   -1.851761
  H     -2.147491    0.382612   -1.102798
  C     -2.297889   -0.925165   -2.848464
  C     -1.385816   -1.911333   -3.232716
  C     -0.264421   -1.789070   -2.399881
  C      0.956907   -2.644256   -2.460110
  C     -3.662904   -0.591619   -3.359542
  C     -4.356729    1.218369    1.490245
  H      0.899132   -0.568085    3.071462
  H     -0.413608   -1.125551    4.140856
  H      0.108469   -2.114143    2.757867
  H     -2.790611   -0.186200    3.679420
  H     -0.740323    4.171501   -1.040809
  H     -0.110316    5.889288    0.680723
  H      1.253110    5.244292    2.653741
  H      2.015969    2.872500    2.951624
  H      2.590279   -3.370082    1.629698
  H      4.999978   -3.623206    0.957223
  H      5.992631   -2.109885   -0.741016
  H      4.609620   -0.308117   -1.806917
  H     -1.512395   -2.641093   -4.021752
  H      1.155108   -3.141913   -1.505871
  H      0.803371   -3.412538   -3.224395
  H      1.846273   -2.064789   -2.728380
  H     -4.078387   -1.446538   -3.902454
  H     -3.623842    0.264312   -4.047335
  H     -4.338602   -0.330126   -2.536027
  H     -5.124045    0.434638    1.561708
  H     -4.481760    1.735148    0.532007
  H     -4.546744    1.934427    2.300972
