12
  Isotropic shielding for P: 229.900 ppm
  C     -2.027042    0.428475    0.195312
  O     -0.583069    0.538737    0.400671
  P      0.399195   -0.404487   -0.478696
  O      0.297636   -0.251747   -1.968555
  C      2.002743   -0.015164    0.251458
  H     -2.353950   -0.607883    0.352299
  H     -2.490848    1.081340    0.938751
  H     -2.292822    0.758376   -0.815119
  H      0.062068   -1.713737   -0.049844
  H      2.760862   -0.662578   -0.204766
  H      1.976673   -0.184524    1.334180
  H      2.248552    1.033393    0.044207
