17
  Isotropic shielding for P: 272.111 ppm
  F      2.881984   -0.519167   -1.125208
  P      2.254029   -0.245273    0.310342
  O      2.979509    0.789512    1.072711
  N      0.665988   -0.058864    0.102761
  C     -0.218647   -1.030005   -0.618354
  C     -1.528328   -0.241243   -0.790961
  C     -1.561636    0.680170    0.445403
  C     -0.100045    1.130680    0.601151
  F      2.464087   -1.716813    0.873651
  H      0.229776   -1.326379   -1.572958
  H     -0.365601   -1.926226   -0.000926
  H     -1.485679    0.358731   -1.709425
  H     -2.394972   -0.907985   -0.853006
  H     -1.877051    0.114670    1.332332
  H     -2.234874    1.535489    0.323163
  H      0.173700    1.357742    1.635704
  H      0.117756    2.005058   -0.026182
