30
  Isotropic shielding for P: 186.279 ppm
  C     -2.453295   -1.320563    1.586065
  N     -1.284277   -1.269912    0.693996
  P     -0.992797    0.061264   -0.268935
  N      0.275706   -0.068104   -1.202253
  C      1.606257   -0.069502   -0.781359
  C      2.613749    0.048317   -1.770851
  C      3.965969    0.064049   -1.426688
  C      4.364245   -0.032397   -0.084313
  C      3.381238   -0.155012    0.906003
  C      2.024597   -0.181267    0.568641
  S     -1.023457    1.776490    1.049145
  C     -2.514705    2.607152    0.324367
  C     -2.655654    2.310332   -1.166256
  S     -2.714063    0.482601   -1.449946
  C     -0.740554   -2.588162    0.319560
  H     -2.747008   -0.309239    1.879759
  H     -2.187852   -1.884864    2.489820
  H     -3.306910   -1.814059    1.096693
  H      2.306583    0.131970   -2.812652
  H      4.716353    0.156358   -2.211635
  H      5.419527   -0.018341    0.182251
  H      3.670646   -0.238724    1.953443
  H      1.281701   -0.305333    1.355185
  H     -3.397366    2.274441    0.879229
  H     -2.364722    3.681457    0.485763
  H     -3.608217    2.699360   -1.545343
  H     -1.832539    2.737215   -1.747875
  H     -0.416103   -3.109822    1.229551
  H     -1.503338   -3.200330   -0.186119
  H      0.116390   -2.465379   -0.345347
