30
  Isotropic shielding for P: 294.877 ppm
  C      2.708587    0.851642    0.215519
  C      1.562423   -0.173998    0.363703
  P      0.449639    0.060133   -1.180680
  C     -0.806254   -1.233734   -1.028863
  C     -1.121969   -2.226597   -1.925374
  C     -2.156171   -3.026840   -1.337996
  C     -2.413731   -2.477951   -0.112876
  O     -1.607616   -1.386971    0.106545
  C     -0.545819    1.524063   -0.750914
  C     -1.819687    1.762446   -0.294426
  C     -1.995317    3.186248   -0.245306
  C     -0.820498    3.738246   -0.670786
  O      0.080905    2.748497   -0.995982
  C      2.125546   -1.607909    0.280883
  C      0.834601    0.043696    1.700885
  H      3.417363    0.730362    1.047661
  H      3.258239    0.707571   -0.723894
  H      2.334087    1.882575    0.240767
  H     -0.661743   -2.363939   -2.896570
  H     -2.643083   -3.893219   -1.769268
  H     -3.102477   -2.722939    0.685849
  H     -2.540880    1.007375   -0.012052
  H     -2.880484    3.725954    0.070472
  H     -0.470401    4.754549   -0.797117
  H      2.886635   -1.746958    1.062256
  H      2.601391   -1.800647   -0.690382
  H      1.340694   -2.358849    0.433574
  H      0.420420    1.056523    1.771654
  H      1.548617   -0.088076    2.528125
  H      0.016982   -0.671257    1.838992
