35
  Isotropic shielding for P: 300.407 ppm
  C      2.145273   -1.050321   -1.803031
  P      1.601790   -0.434227   -0.169316
  C      1.966537   -1.638595    1.158802
  O     -0.056380   -1.097813   -0.401081
  C     -1.040691   -0.167307   -0.252243
  C     -0.563880    1.108079    0.027649
  N      0.829227    1.096984    0.084013
  N      1.558333    2.277076    0.368033
  C      2.813484    1.909288    0.372095
  N      3.119776    0.592816    0.128040
  C      4.486532    0.330936    0.164247
  C      5.251823    1.414347    0.429238
  S      4.263391    2.872688    0.655625
  C     -1.439155    2.194794    0.216630
  C     -2.805874    1.968514    0.117081
  C     -3.326143    0.675749   -0.167734
  C     -2.420434   -0.437243   -0.360868
  C     -2.945788   -1.730705   -0.644460
  C     -4.310061   -1.926323   -0.735288
  C     -5.208429   -0.839945   -0.547042
  C     -4.724030    0.425134   -0.271027
  H      3.228732   -1.202383   -1.816192
  H      1.882075   -0.292448   -2.551314
  H      1.625595   -1.983752   -2.036890
  H      1.440615   -2.576600    0.960224
  H      1.606384   -1.214805    2.104508
  H      3.044005   -1.812855    1.235767
  H      4.848110   -0.676483   -0.012844
  H      6.329574    1.470820    0.509847
  H     -1.042766    3.182536    0.436093
  H     -3.503330    2.792652    0.259614
  H     -2.256362   -2.560450   -0.787756
  H     -4.704036   -2.918357   -0.952161
  H     -6.281420   -1.010010   -0.621384
  H     -5.412077    1.258308   -0.126474
