38
  Isotropic shielding for P: 353.133 ppm
  C      3.321170   -0.354295    2.185484
  C      2.801612   -1.250080    1.056065
  N      2.158850   -0.492231   -0.039068
  C      1.235885   -1.349334   -0.808430
  P     -0.393434   -1.509239    0.120986
  C     -1.198388    0.102337   -0.434481
  N     -2.545797    0.264921    0.147740
  C     -2.590328    1.313217    1.185248
  C     -1.762177    0.968850    2.428491
  C     -3.588223    0.453775   -0.880437
  C     -3.817805   -0.800732   -1.730418
  C      3.151837    0.169681   -0.914631
  C      2.559699    1.330241   -1.721887
  H      2.497518    0.222100    2.626904
  H      3.774632   -0.970007    2.974129
  H      4.084853    0.352572    1.837024
  H      2.047350   -1.932506    1.467886
  H      3.621526   -1.885632    0.660938
  H      1.654586   -2.357541   -0.996627
  H      1.042763   -0.890908   -1.783845
  H     -1.034065   -2.362406   -0.830983
  H     -0.526693    0.917537   -0.126348
  H     -1.242772    0.125921   -1.529995
  H     -3.641562    1.437617    1.476834
  H     -2.250295    2.288445    0.774779
  H     -2.096192    0.018815    2.865503
  H     -1.878949    1.759784    3.181470
  H     -0.692953    0.881441    2.199376
  H     -3.348171    1.313999   -1.540746
  H     -4.518293    0.705899   -0.354213
  H     -2.923896   -1.076796   -2.303776
  H     -4.091166   -1.652233   -1.093241
  H     -4.632092   -0.624352   -2.445832
  H      3.951291    0.560496   -0.274605
  H      3.622928   -0.569035   -1.596086
  H      1.762857    0.999452   -2.399887
  H      2.141150    2.091203   -1.050275
  H      3.342650    1.799221   -2.333047
