33
  Isotropic shielding for P: 219.105 ppm
  C     -3.038693    0.438122    1.486562
  Si    -2.533584   -0.094616   -0.249924
  C     -0.654922    0.127632   -0.549848
  P      0.520858   -0.354222    0.755045
  S      0.177938   -2.140463    1.571951
  C      2.183903   -0.231391   -0.013710
  C      2.590844    0.973887   -0.614615
  C      3.856398    1.075379   -1.199058
  C      4.724205   -0.024807   -1.191898
  C      4.321468   -1.225933   -0.597832
  C      3.055313   -1.328585   -0.009809
  C      0.497734    1.001577    1.983637
  C     -3.007867   -1.892837   -0.553191
  C     -3.384272    1.013288   -1.520810
  H     -4.129896    0.356829    1.591904
  H     -2.576824   -0.194780    2.254743
  H     -2.758912    1.481537    1.684408
  H     -0.393190   -0.462774   -1.439667
  H     -0.452266    1.181629   -0.790007
  H      1.925933    1.835370   -0.631067
  H      4.164371    2.012363   -1.660366
  H      5.709656    0.055796   -1.648054
  H      4.992024   -2.083878   -0.589932
  H      2.735933   -2.258925    0.455723
  H     -0.471174    1.016608    2.490331
  H      0.668065    1.964699    1.488756
  H      1.290201    0.817059    2.716708
  H     -2.512050   -2.555467    0.166448
  H     -2.716951   -2.208085   -1.565047
  H     -4.095153   -2.022718   -0.457284
  H     -3.130776    2.069669   -1.355780
  H     -3.081739    0.747013   -2.543094
  H     -4.476575    0.911026   -1.453220
