22
  Isotropic shielding for P: 120.881 ppm
  O      3.915455    0.924331    0.650827
  C      3.280298   -0.370287    0.735492
  C      1.877837   -0.263382    0.180206
  O      1.959956   -0.031684   -1.272890
  P      0.711349    0.236680   -2.274110
  O     -0.196312    1.441876   -1.473148
  C     -1.239502    0.876944   -0.746546
  C     -1.359943   -0.499586   -0.963732
  O     -0.408778   -0.983009   -1.856554
  C     -2.350315   -1.249674   -0.346472
  C     -3.238441   -0.568786    0.506035
  C     -3.118149    0.810315    0.723326
  C     -2.105352    1.558701    0.096200
  H      4.829084    0.828523    0.976522
  H      3.203524   -0.703910    1.783721
  H      3.849935   -1.125237    0.171168
  H      1.332594   -1.198032    0.355430
  H      1.338537    0.573044    0.640222
  H     -2.431780   -2.319447   -0.525020
  H     -4.031404   -1.126655    0.999755
  H     -3.818496    1.316386    1.384524
  H     -2.000100    2.629485    0.255043
