29
  Isotropic shielding for P: 209.653 ppm
  C      0.403065    2.551575    2.290776
  O     -0.460088    1.698004    1.467435
  P     -0.176471    0.114445    1.391402
  S     -0.115805   -0.861980    3.071074
  C      1.312826    0.023797    0.310139
  C      1.283649    0.681264   -0.931983
  F      0.175922    1.357546   -1.323995
  C      2.359706    0.667414   -1.814677
  F      2.288122    1.311255   -2.999499
  C      3.523028   -0.019539   -1.464097
  C      3.590762   -0.681762   -0.239034
  C      2.498127   -0.656342    0.629613
  F      2.642935   -1.327108    1.791462
  F      4.716100   -1.347202    0.100536
  F      4.574861   -0.039750   -2.302042
  C     -1.534825   -0.437014    0.294623
  C     -1.382997   -1.648424   -0.396651
  F     -0.232930   -2.359457   -0.279458
  C     -2.379509   -2.176162   -1.212797
  F     -2.188770   -3.342178   -1.865879
  C     -3.587508   -1.490042   -1.346152
  C     -3.780729   -0.291927   -0.658412
  C     -2.766338    0.219284    0.153237
  F     -3.035279    1.372716    0.803711
  F     -4.953866    0.366828   -0.779207
  F     -4.564168   -1.986921   -2.127334
  H      0.355141    2.232284    3.336715
  H      0.000531    3.560111    2.177919
  H      1.434609    2.509182    1.922673
