72
  Isotropic shielding for P: 292.701 ppm
  C     -3.186486   -3.227601   -3.975629
  C     -2.097619   -2.237415   -3.939099
  C     -2.504548   -0.949583   -3.103508
  C     -1.296134    0.082929   -3.067997
  C     -1.652617    1.223204   -2.237082
  O     -1.335461    1.442380   -0.968330
  P     -0.015424    0.609056    0.011940
  C     -0.982925   -0.927131    0.028243
  C     -0.378012   -2.139251   -0.337951
  C     -1.115261   -3.325282   -0.289201
  C     -2.441903   -3.312195    0.157108
  C     -3.038408   -2.104894    0.536939
  C     -2.318648   -0.910281    0.455137
  O      1.088524    0.809353   -1.181755
  C      1.231550    1.973154   -1.953591
  C      1.833157    1.925706   -3.142292
  C      2.131621    3.144796   -3.973127
  C      1.369193    3.175189   -5.321170
  C     -0.140038    3.408982   -5.158661
  O     -0.250053    1.880486    1.004477
  C      0.685429    1.953717    2.150809
  C     -0.085442    1.794084    3.476936
  C     -1.285078    0.813003    3.538174
  C     -0.976043   -0.659289    3.572858
  C     -1.395868   -1.493832    4.530987
  O      1.131927   -0.076755    1.043780
  C      1.823354    0.993221    1.737021
  C      2.809937    0.474218    2.786474
  C      2.371788   -0.687860    3.688130
  C      3.516500   -1.175808    4.592726
  C      3.099615   -2.347375    5.496363
  H     -4.068905   -3.009411   -4.582755
  H     -3.377869   -3.819598   -3.077653
  H     -1.814981   -1.874407   -4.942347
  H     -1.186561   -2.634390   -3.464045
  H     -3.374906   -0.472954   -3.570088
  H     -2.775985   -1.246818   -2.088867
  H     -1.145700    0.407753   -4.107720
  H     -0.397204   -0.440640   -2.731789
  H     -2.370999    1.953561   -2.617142
  H      0.657088   -2.157476   -0.669725
  H     -0.650521   -4.260315   -0.596575
  H     -3.010085   -4.239485    0.202719
  H     -4.070344   -2.087842    0.882615
  H     -2.796461    0.027161    0.725295
  H      0.889137    2.887514   -1.474061
  H      2.129725    0.954179   -3.543821
  H     -0.598602    2.631076   -4.536495
  H      1.896581    4.054515   -3.400388
  H      3.212551    3.172272   -4.184230
  H      1.800051    3.971950   -5.945251
  H      1.546188    2.229175   -5.855773
  H     -0.648375    3.407640   -6.132138
  H     -0.335849    4.377831   -4.677049
  H      1.085681    2.973561    2.117861
  H     -0.491277    2.786914    3.713511
  H      0.640904    1.568773    4.268082
  H     -1.935652    1.028520    2.678036
  H     -1.867945    1.069769    4.433769
  H     -0.382398   -1.053256    2.750176
  H      2.267167   -2.060530    6.154451
  H     -1.157525   -2.556816    4.506080
  H     -1.991440   -1.141883    5.375470
  H      2.417554    1.546874    0.991184
  H      3.715434    0.164609    2.243812
  H      3.108300    1.337698    3.401805
  H      2.021551   -1.522386    3.064863
  H      1.523996   -0.398298    4.318806
  H      3.869501   -0.337893    5.214615
  H      4.371491   -1.478176    3.967364
  H      3.931623   -2.680196    6.131464
  H      2.768534   -3.207401    4.896927
