46
  Isotropic shielding for P: 273.607 ppm
  C     -5.325636   -3.696689    1.200153
  O     -4.687058   -2.462107    1.599218
  C     -3.659784   -1.987895    0.821470
  C     -3.070421   -0.783989    1.249714
  C     -2.019285   -0.222782    0.528319
  C     -1.530191   -0.837667   -0.640038
  C     -2.138840   -2.030829   -1.061119
  C     -3.187499   -2.616459   -0.343065
  P     -0.140189   -0.178711   -1.655391
  C      1.324133   -0.986416   -0.879004
  C      1.289602   -1.693642    0.337308
  C      2.440962   -2.276404    0.863262
  C      3.667464   -2.158707    0.184766
  C      3.722721   -1.458090   -1.032139
  C      2.553474   -0.892158   -1.551448
  O      4.745903   -2.762914    0.783414
  C      6.029992   -2.661724    0.126161
  C      0.003462    1.550538   -1.032538
  C     -0.780330    2.535303   -1.654899
  C     -0.752166    3.871124   -1.239475
  C      0.096010    4.246257   -0.183906
  C      0.897851    3.274404    0.442145
  C      0.846391    1.946763    0.022981
  O      0.216288    5.526079    0.299519
  C     -0.587534    6.560288   -0.313393
  H     -4.604506   -4.525205    1.186848
  H     -6.094008   -3.884937    1.954245
  H     -5.790975   -3.595962    0.210179
  H     -3.447222   -0.304476    2.151908
  H     -1.573641    0.704845    0.880352
  H     -1.789487   -2.522272   -1.969469
  H     -3.629305   -3.541987   -0.699896
  H      0.354118   -1.791108    0.883394
  H      2.409155   -2.824222    1.803925
  H      4.654800   -1.357850   -1.580134
  H      2.608298   -0.360800   -2.501944
  H      6.339950   -1.612261    0.029366
  H      6.001442   -3.131651   -0.866374
  H      6.730930   -3.198159    0.770715
  H     -1.434094    2.259667   -2.482767
  H     -1.377175    4.601563   -1.744420
  H      1.552977    3.577220    1.257675
  H      1.470503    1.211449    0.525758
  H     -0.338279    7.479762    0.222323
  H     -0.340637    6.670164   -1.378166
  H     -1.658469    6.342341   -0.202831
