24
  Isotropic shielding for P: 308.600 ppm
  F      2.313250    2.417010    1.308880
  C      2.445945    1.226002    0.627500
  C      3.723628    0.707498    0.442019
  C      3.840650   -0.503176   -0.251694
  C      2.701333   -1.160981   -0.728341
  C      1.422201   -0.606879   -0.539877
  C      1.294412    0.607184    0.154653
  P     -0.027455   -1.554003   -1.213497
  C     -1.453804   -0.673192   -0.453108
  C     -2.195501    0.306767   -1.135870
  C     -3.292846    0.923552   -0.522866
  C     -3.662889    0.583625    0.783359
  C     -2.910849   -0.386741    1.439698
  C     -1.826984   -1.029915    0.856329
  F     -3.264337   -0.733888    2.724861
  H      4.592132    1.232104    0.833494
  H      4.825945   -0.938403   -0.408781
  H      2.807308   -2.111875   -1.248812
  H      0.326515    1.070729    0.326415
  H     -0.092025   -0.909814   -2.483744
  H     -1.911629    0.593381   -2.146199
  H     -3.861198    1.680045   -1.061061
  H     -4.508520    1.052378    1.281304
  H     -1.285686   -1.791207    1.415538
