28
  Isotropic shielding for P: 264.268 ppm
  C      2.876905    1.196608    1.480055
  C      1.972832    0.297986    0.716179
  C      2.072955   -0.972774    0.297054
  C      3.167942   -1.971144    0.450186
  O      0.956305   -1.400688   -0.406780
  P     -0.298586   -0.206878   -0.383016
  O      0.732705    0.876325    0.328844
  O     -1.123289   -1.181670    0.672432
  C     -2.405276   -0.647141    1.132255
  C     -2.359898    0.863626    0.837017
  N     -1.598433    1.004302   -0.414659
  C     -2.399303    0.825492   -1.639389
  C     -1.356253    0.459547   -2.687877
  O     -0.380911   -0.396305   -2.013370
  H      2.406287    1.533937    2.416049
  H      3.807154    0.676356    1.730921
  H      3.130522    2.095173    0.897032
  H      3.526934   -2.308043   -0.533608
  H      2.811800   -2.859694    0.992098
  H      4.012329   -1.543467    1.000164
  H     -3.205508   -1.157608    0.581806
  H     -2.488143   -0.874194    2.199792
  H     -3.362687    1.293670    0.739160
  H     -1.832939    1.389078    1.644123
  H     -2.921962    1.754074   -1.902979
  H     -3.150896    0.020630   -1.548673
  H     -1.766959   -0.111364   -3.525633
  H     -0.823827    1.344170   -3.059386
