59
  Isotropic shielding for P: 264.916 ppm
  C      0.269107    2.892919   -0.283484
  N      0.184318    1.571491    0.323150
  P      1.253851    0.278101    0.191514
  N      2.192486    0.126681   -1.022903
  Si     3.893511    0.090491   -1.284070
  C      4.702478   -1.395411   -0.436885
  C      4.183325   -0.042297   -3.146780
  C      4.714008    1.674340   -0.650288
  O      2.111971    0.125997    1.577559
  N     -0.184071   -0.587388    0.299896
  C     -1.022469    0.668183    0.251140
  C     -1.927828    0.778603    1.476658
  C     -1.460319    1.360008    2.662563
  C     -2.253819    1.365793    3.814106
  C     -3.528514    0.786968    3.794674
  C     -4.005740    0.212191    2.610805
  C     -3.212437    0.214601    1.459508
  C     -1.762076    0.848026   -1.073757
  C     -1.440851    0.075177   -2.197317
  C     -2.067568    0.310207   -3.426117
  C     -3.018705    1.329532   -3.550181
  C     -3.335214    2.115093   -2.435117
  C     -2.711128    1.874406   -1.207342
  Si    -0.528969   -2.242869    0.806752
  C     -1.993659   -2.914941   -0.159792
  C      1.039147   -3.192846    0.383316
  C     -0.852295   -2.341179    2.659008
  H      0.082172    2.883967   -1.368154
  H      1.276070    3.286182   -0.104626
  H     -0.450204    3.571265    0.192107
  H      4.578429   -1.341396    0.653119
  H      4.249650   -2.335679   -0.780983
  H      5.779592   -1.437341   -0.654990
  H      3.734620    0.810894   -3.675247
  H      3.734250   -0.961509   -3.549238
  H      5.257171   -0.059140   -3.382022
  H      4.572729    1.780520    0.434318
  H      4.277459    2.559281   -1.134716
  H      5.794892    1.675642   -0.853200
  H      1.556084    0.233960    2.375512
  H     -0.468841    1.805784    2.678981
  H     -1.876035    1.823799    4.727210
  H     -4.146197    0.789243    4.691393
  H     -4.997264   -0.237190    2.582028
  H     -3.597204   -0.227891    0.544518
  H     -0.700463   -0.713467   -2.108087
  H     -1.813005   -0.306637   -4.286899
  H     -3.508184    1.511101   -4.505821
  H     -4.069757    2.914678   -2.519631
  H     -2.967181    2.489745   -0.347471
  H     -2.910830   -2.344390    0.027387
  H     -1.794118   -2.897966   -1.238775
  H     -2.180935   -3.956730    0.137724
  H      0.919734   -4.249213    0.662055
  H      1.256568   -3.145587   -0.691370
  H      1.908713   -2.799644    0.925262
  H     -1.770003   -1.814349    2.945570
  H     -0.950325   -3.391336    2.970315
  H     -0.016028   -1.898671    3.217415
