30
  Isotropic shielding for P: 155.566 ppm
  C     -3.005179   -0.094461    1.249713
  C     -2.180973    0.229982   -0.018913
  P     -0.397320    0.442063    0.514053
  O     -0.194099    1.654157    1.383721
  S      0.689671    0.505516   -1.323877
  C      2.136973    1.560394   -0.856754
  C      3.339973    0.816502   -0.272167
  S      3.148733    0.310508    1.490605
  C      2.920887   -1.506321    1.396977
  C      1.642212   -2.004251    0.724928
  S      0.068933   -1.424680    1.498091
  C     -2.647130    1.577223   -0.616651
  C     -2.321649   -0.901553   -1.056234
  H     -2.891649    0.682244    2.015155
  H     -2.723605   -1.061843    1.681901
  H     -4.066305   -0.147212    0.970636
  H      1.777834    2.344262   -0.183067
  H      2.420468    2.027357   -1.809208
  H      4.200755    1.497872   -0.296420
  H      3.598504   -0.068039   -0.864311
  H      3.784847   -1.945281    0.879495
  H      2.956488   -1.827500    2.445351
  H      1.612332   -1.740780   -0.336309
  H      1.589526   -3.098077    0.807422
  H     -2.074220    1.842817   -1.512732
  H     -3.704582    1.486401   -0.900347
  H     -2.555245    2.390351    0.111826
  H     -1.963520   -1.858722   -0.661527
  H     -3.384475   -1.011211   -1.312790
  H     -1.777988   -0.677712   -1.982064
