41
  Isotropic shielding for P: 206.689 ppm
  C      3.133218    3.444011    0.927257
  C      3.204171    2.562872   -0.311643
  O      2.304114    1.396297   -0.184260
  C      1.017181    1.561965   -0.529027
  O      0.531036    2.588974   -0.974260
  C      0.220593    0.264728   -0.285418
  C     -1.159135    0.404737   -1.004727
  O     -1.417065   -0.117242   -2.075008
  O     -2.002876    1.160045   -0.286647
  C     -3.380955    1.328199   -0.798904
  C     -4.285040    0.238282   -0.241705
  C      0.916416   -1.017418   -0.866118
  N      0.754913   -2.135367   -0.237507
  P     -0.117700   -1.884007    1.200568
  O      0.384904   -2.678592    2.361000
  C     -0.008437   -0.048428    1.245257
  C      1.066752    0.408476    2.246709
  O     -1.676060   -2.111953    0.844239
  C     -2.272849   -3.447267    0.890365
  S      1.802501   -0.881190   -2.356630
  C      2.268658   -2.626008   -2.635148
  H      3.392185    2.875912    1.828508
  H      2.133805    3.875771    1.053191
  H      3.853014    4.266190    0.818783
  H      2.933978    3.105844   -1.222290
  H      4.190495    2.106464   -0.432370
  H     -3.347253    1.322644   -1.892010
  H     -3.668340    2.321190   -0.441574
  H     -3.975398   -0.753465   -0.590126
  H     -5.313638    0.420132   -0.581002
  H     -4.277590    0.247306    0.855095
  H     -0.971430    0.365028    1.548316
  H      0.779417    0.059186    3.245241
  H      2.058358    0.009359    2.014186
  H      1.127540    1.501012    2.275200
  H     -1.802986   -4.099644    0.145854
  H     -2.161044   -3.872227    1.893408
  H     -3.330667   -3.307556    0.655472
  H      2.849899   -2.632091   -3.561967
  H      1.369297   -3.238660   -2.741123
  H      2.876211   -2.983307   -1.799289
