43
  Isotropic shielding for P: 234.039 ppm
  C      3.658213   -0.598792    1.807326
  C      3.164359   -1.507397    0.709311
  O      3.171112   -2.732914    0.799023
  C      2.643332   -0.825314   -0.545297
  N      1.405262   -0.379856   -0.617919
  N      0.645350   -0.561563    0.485662
  P     -0.864383    0.082544    0.276037
  N     -0.996435    1.670087   -0.198937
  C     -0.722422    2.761221    0.753966
  C     -0.792255    2.071797   -1.603597
  N     -1.685085   -0.744545   -0.918634
  C     -1.429958   -2.184192   -1.114344
  C     -3.028255   -0.333566   -1.371454
  N     -1.523626    0.032993    1.801572
  C     -1.049339   -0.882457    2.855027
  C     -2.918800    0.469741    1.990297
  C      3.546619   -0.648669   -1.671432
  O      4.732646   -1.036864   -1.588023
  C      3.032566    0.030472   -2.931475
  H      3.902178   -1.166791    2.711394
  H      2.897286    0.162660    2.024791
  H      4.552202   -0.067180    1.447271
  H     -1.421731    3.587209    0.564807
  H     -0.852956    2.414316    1.780595
  H      0.304784    3.137916    0.632236
  H      0.221796    2.473955   -1.746445
  H     -0.926796    1.219702   -2.270862
  H     -1.519771    2.852793   -1.865972
  H     -2.166316   -2.795701   -0.568844
  H     -1.510099   -2.418100   -2.184788
  H     -0.428068   -2.446347   -0.770499
  H     -3.812234   -0.904436   -0.850416
  H     -3.117427   -0.523246   -2.449982
  H     -3.188903    0.730801   -1.189866
  H     -0.002500   -1.135772    2.687859
  H     -1.648455   -1.806679    2.877244
  H     -1.151007   -0.380514    3.827347
  H     -3.206193    1.189562    1.219994
  H     -3.009945    0.957319    2.970169
  H     -3.614050   -0.383514    1.958138
  H      2.787006    1.080901   -2.724904
  H      2.114796   -0.447526   -3.293540
  H      3.807705   -0.014250   -3.703239
