17
  Isotropic shielding for P: 230.356 ppm
  C     -2.774225    0.363501    0.056358
  C     -1.487971   -0.463507   -0.124135
  P      0.030246    0.525350    0.107491
  O      0.132601    1.750351   -0.778727
  C      1.432301   -0.638087   -0.024955
  C      2.793405    0.030423    0.242831
  H     -2.818544    1.187477   -0.666151
  H     -3.657893   -0.269011   -0.094250
  H     -2.832148    0.791388    1.065903
  H     -1.443768   -1.293823    0.596022
  H     -1.435544   -0.899152   -1.132430
  H      0.002907    0.849840    1.494739
  H      1.395357   -1.070607   -1.035291
  H      1.241591   -1.453006    0.688958
  H      2.834341    0.454994    1.254589
  H      3.602897   -0.704404    0.151356
  H      2.984550    0.838274   -0.473808
