19
  Isotropic shielding for P: 105.720 ppm
  Cl     0.094601    2.616605    1.088431
  C     -1.077420    1.252001    0.677068
  C     -0.409915    0.041416    0.008845
  C     -1.550945   -0.922638   -0.397835
  C      0.379416    0.437326   -1.273213
  O      1.819599    0.576124   -1.029077
  P      2.615529   -0.816359   -0.626045
  O      1.485700   -1.529438    0.319648
  C      0.537596   -0.646079    1.018579
  F      3.595295   -0.092763    0.487755
  H     -1.546172    0.978950    1.626306
  H     -1.818317    1.703991    0.013243
  H     -1.126315   -1.860338   -0.776091
  H     -2.193165   -1.151746    0.461840
  H     -2.171274   -0.480395   -1.187805
  H      0.054541    1.408377   -1.656500
  H      0.227629   -0.314782   -2.057296
  H      1.105456    0.088829    1.597846
  H     -0.021739   -1.289078    1.704200
