25
  Isotropic shielding for P: 207.745 ppm
  C     -2.946026    0.024460   -0.184221
  C     -1.537771    0.188000    0.412462
  P     -0.223152   -0.555272   -0.696365
  S     -0.870285   -1.966677   -1.942195
  C      1.163696   -1.156954    0.391228
  C      2.338152   -1.663288   -0.465273
  C      1.629587   -0.134637    1.443543
  C      0.469233    0.803027   -1.590629
  C      0.953787    1.694525   -2.257594
  C     -1.261168    1.662562    0.769574
  H     -3.681167    0.401958    0.539061
  H     -3.050410    0.604161   -1.110338
  H     -3.177282   -1.021969   -0.404622
  H     -1.461702   -0.429001    1.321046
  H      0.693982   -2.013206    0.900518
  H      2.822798   -0.832834   -0.994677
  H      2.013458   -2.405148   -1.202361
  H      3.084553   -2.129590    0.190888
  H      0.833262    0.133178    2.145242
  H      2.007699    0.781068    0.971772
  H      2.450776   -0.577423    2.022618
  H      1.380590    2.481410   -2.847087
  H     -1.985070    1.980843    1.531337
  H     -1.390811    2.302247   -0.111322
  H     -0.256627    1.828564    1.167494
