52
  Isotropic shielding for P: 116.320 ppm
  C     -2.216113    2.516665   -2.180167
  C     -2.038748    3.059011   -0.751140
  C     -0.598103    3.494107   -0.399503
  C      0.329535    2.401460    0.139797
  O      0.525389    1.361708   -0.901181
  P      0.250880   -0.235112   -0.671473
  O     -1.305327   -0.150854   -0.115679
  C     -2.001163   -1.416400    0.171541
  C     -3.281118   -1.449368   -0.666574
  C     -3.034484   -1.516122   -2.181730
  C     -4.337163   -1.493072   -2.996579
  C     -2.252470   -1.492877    1.675790
  O      0.958804   -0.573391    0.803065
  C      2.327608   -1.129364    0.789256
  C      3.038503   -0.607270    2.050681
  C      4.563622   -0.417418    1.915002
  C      5.384693   -1.700145    1.697202
  C      2.219164   -2.651961    0.706359
  C      1.708733    2.938187    0.515334
  H     -3.264816    2.249021   -2.369575
  H     -1.604258    1.626316   -2.352725
  H     -1.925390    3.275978   -2.920764
  H     -2.374643    2.305173   -0.025447
  H     -2.700374    3.928794   -0.625251
  H     -0.122001    3.965083   -1.274442
  H     -0.638244    4.266998    0.382954
  H     -0.137988    1.921625    1.008830
  H     -1.347939   -2.251248   -0.132136
  H     -3.872965   -2.323202   -0.352781
  H     -3.878446   -0.556962   -0.420696
  H     -2.398886   -0.672972   -2.484079
  H     -2.468911   -2.432347   -2.413094
  H     -4.985042   -2.341669   -2.734038
  H     -4.134450   -1.545666   -4.074703
  H     -4.902830   -0.569901   -2.805612
  H     -1.305264   -1.437246    2.223783
  H     -2.750746   -2.437806    1.930103
  H     -2.895545   -0.663041    1.998652
  H      2.847523   -0.739116   -0.100388
  H      2.816780   -1.276794    2.896412
  H      2.596170    0.366849    2.294878
  H      4.918103    0.076977    2.831507
  H      4.760041    0.286328    1.091038
  H      6.460080   -1.481119    1.740876
  H      5.182430   -2.156883    0.720291
  H      5.161402   -2.448780    2.470514
  H      3.209636   -3.120154    0.711939
  H      1.651875   -3.031183    1.566667
  H      1.700986   -2.952394   -0.213053
  H      2.353937    2.133028    0.882289
  H      2.189262    3.402040   -0.356582
  H      1.618272    3.696390    1.304630
