56
  Isotropic shielding for P: 211.711 ppm
  C      3.101834   -0.566906    3.369527
  C      3.366996   -0.237436    1.907739
  O      2.077546    0.026645    1.285925
  C      2.068979    0.263020   -0.085522
  O      3.145494    0.403984   -0.692736
  C      0.753988    0.348226   -0.666766
  P     -0.606804   -0.302140    0.123101
  N     -0.274449   -1.685561    0.968724
  C      0.792760   -2.621603    0.594453
  C     -1.069057   -2.119995    2.126849
  O     -1.463433    0.630598    1.124830
  C     -0.785318    1.400462    2.206348
  C     -1.768140    1.452740    3.369564
  C     -0.404801    2.779293    1.676588
  O     -1.824447   -0.527920   -0.916907
  C     -1.820102   -1.688367   -1.844200
  C     -2.516001   -1.232351   -3.121931
  C     -2.532514   -2.868458   -1.186683
  Si     0.601181    1.417099   -2.201779
  C      1.815597    2.868706   -2.105343
  C      0.969672    0.439369   -3.781739
  C     -1.108159    2.225818   -2.328629
  H      2.460791   -1.452831    3.461772
  H      4.051929   -0.773253    3.879799
  H      2.612811    0.272787    3.879871
  H      4.007051    0.648417    1.802890
  H      3.853826   -1.072919    1.387092
  H      0.363061   -3.614864    0.395547
  H      1.524025   -2.711873    1.409482
  H      1.305131   -2.276743   -0.305470
  H     -1.926910   -1.462544    2.274266
  H     -0.451377   -2.110868    3.037706
  H     -1.436465   -3.143948    1.966142
  H      0.115563    0.846624    2.492470
  H     -1.322430    2.013765    4.201039
  H     -2.694539    1.959503    3.068049
  H     -2.015407    0.446266    3.725406
  H      0.060922    3.363597    2.481110
  H      0.305266    2.699160    0.848069
  H     -1.297106    3.316086    1.328712
  H     -0.773326   -1.943168   -2.058779
  H     -2.554272   -2.067609   -3.832601
  H     -1.985818   -0.401408   -3.595793
  H     -3.544379   -0.916362   -2.902688
  H     -2.574517   -3.707356   -1.893430
  H     -3.560036   -2.589014   -0.919458
  H     -2.012102   -3.205052   -0.286636
  H      2.859085    2.541372   -2.160771
  H      1.681376    3.427337   -1.168666
  H      1.621831    3.559724   -2.938774
  H      0.873230    1.073957   -4.674824
  H      1.995801    0.047268   -3.752911
  H      0.289256   -0.413809   -3.896354
  H     -1.130479    2.868577   -3.220827
  H     -1.291864    2.864033   -1.453545
  H     -1.930645    1.509821   -2.399309
