46
  Isotropic shielding for P: 312.333 ppm
  C      4.337313   -1.923102   -0.397770
  C      3.207985   -1.018146    0.135888
  C      3.786886    0.041572    1.095596
  C      2.445648   -0.324248   -1.038924
  O      1.107589   -0.837693   -1.197977
  P     -0.015288   -0.546113    0.083659
  O      0.977140   -1.173129    1.226634
  C      2.189294   -1.903934    0.865701
  O     -1.140566   -0.408302    1.387591
  C     -2.451434    0.118357    1.097976
  C     -3.254842   -0.796929    0.117491
  C     -2.308703   -1.925191   -0.314424
  O     -1.046512   -1.416128   -0.844969
  C     -3.724794    0.009786   -1.110299
  C     -4.468557   -1.431914    0.827412
  C      0.034090    1.267860   -0.174413
  C     -0.236449    1.810474   -1.439395
  C     -0.214981    3.195776   -1.631845
  C      0.106105    4.047976   -0.568043
  C      0.391866    3.509338    0.692572
  C      0.341889    2.125750    0.892057
  H      5.097981   -1.319512   -0.910224
  H      3.947199   -2.660728   -1.112253
  H      4.830642   -2.464393    0.421393
  H      4.351104   -0.434291    1.909289
  H      4.468138    0.713780    0.556592
  H      2.989923    0.652138    1.537411
  H      2.949201   -0.510446   -1.995199
  H      2.418009    0.763885   -0.882870
  H      2.592188   -2.260358    1.820564
  H      1.912898   -2.769285    0.252506
  H     -2.958167    0.189208    2.067931
  H     -2.370400    1.135869    0.688535
  H     -2.741441   -2.504202   -1.138197
  H     -2.095977   -2.600537    0.522039
  H     -2.873666    0.427216   -1.661354
  H     -4.302232   -0.625739   -1.795621
  H     -4.366614    0.844155   -0.796764
  H     -4.154958   -1.991990    1.718677
  H     -5.174296   -0.652663    1.143903
  H     -5.002010   -2.119744    0.156986
  H     -0.463307    1.151327   -2.274044
  H     -0.442167    3.608644   -2.613653
  H      0.133855    5.125803   -0.720728
  H      0.647777    4.166093    1.522726
  H      0.542543    1.713512    1.878133
