38
  Isotropic shielding for P: 318.157 ppm
  C      2.276267   -1.677456   -2.098764
  C      2.251073   -0.637311   -0.966216
  C      0.967356   -0.694998   -0.147003
  O     -0.150130   -0.341127   -1.003617
  P     -1.449487    0.398095   -0.297114
  O     -0.576088    0.469871    1.182251
  C      0.832903    0.278248    1.075400
  C      1.534387    1.634689    0.883015
  C      1.314114   -0.467937    2.348466
  O      0.524979   -1.118907    3.023042
  C      2.779172   -0.382959    2.716937
  O     -2.671110   -0.435993    0.383235
  C     -2.757968   -0.884503    1.765630
  O     -1.568287    2.022572   -0.237364
  C     -2.334600    2.862436   -1.146276
  O     -2.235429    0.343633   -1.780228
  C     -2.541425   -0.904231   -2.429608
  H      2.164684   -2.694994   -1.699355
  H      3.227401   -1.629464   -2.643951
  H      1.464666   -1.502861   -2.815379
  H      3.099650   -0.812234   -0.291113
  H      2.370792    0.373194   -1.378025
  H      0.790133   -1.723081    0.203748
  H      1.303583    2.285071    1.734954
  H      1.163000    2.115316   -0.027537
  H      2.620885    1.532998    0.804373
  H      2.996386    0.620872    3.110216
  H      3.007681   -1.126909    3.485591
  H      3.428470   -0.526967    1.845180
  H     -2.850871   -0.026968    2.440526
  H     -1.882145   -1.473269    2.044869
  H     -3.666790   -1.493754    1.808773
  H     -3.388369    2.567313   -1.158168
  H     -1.925212    2.816506   -2.159632
  H     -2.234299    3.876599   -0.745747
  H     -3.020073   -0.650960   -3.382641
  H     -3.233793   -1.504017   -1.824036
  H     -1.631508   -1.486312   -2.624429
