35
  Isotropic shielding for P: 220.083 ppm
  O      0.338503   -2.633515   -0.181247
  P     -0.233557   -1.422030    0.525559
  C      0.838040    0.093994    0.296297
  O     -0.017857    1.216965    0.647325
  C      2.033915   -0.017374    1.280807
  C      3.211921    0.858655    0.824378
  C      3.799082    0.347164   -0.519162
  C      2.736370   -0.393249   -1.369963
  C      1.335758    0.212057   -1.175259
  C     -1.985270   -1.077157    0.124571
  C     -2.261504   -0.410146   -1.252736
  C     -3.647414    0.237063   -1.054979
  C     -3.560431    0.828956    0.367581
  C     -2.754803   -0.216143    1.187737
  H     -0.253805   -1.552598    1.943342
  H      0.518296    2.030323    0.574084
  H      2.366072   -1.064468    1.346796
  H      1.678543    0.268172    2.278966
  H      2.866953    1.897706    0.713016
  H      3.987289    0.878322    1.600955
  H      4.641866   -0.330328   -0.324353
  H      4.202576    1.197601   -1.086156
  H      2.702829   -1.455134   -1.095063
  H      3.009879   -0.354104   -2.432641
  H      0.621046   -0.242217   -1.870759
  H      1.362834    1.285846   -1.416769
  H     -2.418017   -2.088944    0.110677
  H     -2.228559   -1.134057   -2.075008
  H     -1.525089    0.374036   -1.460375
  H     -4.429922   -0.535506   -1.097133
  H     -3.875623    0.989323   -1.820725
  H     -4.545317    1.028422    0.807668
  H     -3.012353    1.780251    0.335658
  H     -3.422473   -0.868019    1.763254
  H     -2.079581    0.269834    1.898656
