31
  Isotropic shielding for P: 284.434 ppm
  O     -2.373218    2.987178   -1.316844
  C     -1.888011    1.929631   -0.970936
  O     -0.837510    1.378506   -1.718589
  P     -0.176791   -0.075894   -1.158905
  C     -1.430073   -0.078313    0.221296
  C     -2.237485    1.061853    0.162533
  C     -3.274875    1.290930    1.075273
  C     -3.497912    0.335381    2.067960
  C     -2.703344   -0.822267    2.129062
  C     -1.671059   -1.038580    1.206854
  C     -0.672997   -1.656029   -1.936133
  O      0.937505    0.205111   -2.727280
  C      2.236214    0.213502   -2.481000
  O      3.103080    0.303078   -3.356868
  C      2.520272    0.104481   -1.017967
  C      1.377501   -0.016650   -0.211913
  C      1.505055   -0.077427    1.180457
  C      2.785256   -0.040726    1.747098
  C      3.924390    0.059658    0.936658
  C      3.796031    0.137022   -0.454294
  H     -3.889848    2.185181    1.000462
  H     -4.296130    0.480768    2.793056
  H     -2.895147   -1.563811    2.902757
  H     -1.071231   -1.944883    1.268816
  H     -1.476570   -1.420490   -2.646402
  H     -1.062631   -2.331147   -1.169949
  H      0.162142   -2.107786   -2.474062
  H      0.634458   -0.147233    1.823945
  H      2.892138   -0.088831    2.829070
  H      4.912228    0.085339    1.392858
  H      4.668661    0.229248   -1.097114
