19
  Isotropic shielding for P: 266.588 ppm
  C     -1.757709    0.931548   -1.100644
  Si    -0.529667   -0.014330   -0.047995
  N      0.979859    0.975909   -0.121448
  P      2.524888    0.563592    0.137420
  O      3.544243    1.624844    0.250960
  F      2.899666   -0.523530   -0.958502
  F      2.498232   -0.428672    1.377260
  C     -1.080631   -0.125515    1.741947
  C     -0.127978   -1.708742   -0.741837
  H     -1.901928    1.950802   -0.716471
  H     -1.417073    0.998586   -2.142275
  H     -2.732962    0.425786   -1.089734
  H      0.867321    1.979133   -0.271976
  H     -1.266377    0.873446    2.158945
  H     -2.010069   -0.707096    1.820005
  H     -0.317513   -0.619251    2.358108
  H      0.240009   -1.641402   -1.773573
  H      0.625879   -2.230180   -0.137837
  H     -1.038190   -2.324728   -0.742253
