24
  Isotropic shielding for P: -25.749 ppm
  C     -3.160654    0.822410   -0.114180
  C     -2.594706   -0.339646    0.706235
  S     -0.776859   -0.623754    0.288460
  P      0.136035    0.418646    1.894532
  S      2.174744    0.016620    1.529130
  C      2.500029    0.304945   -0.311757
  C      2.673638   -1.035478   -1.029677
  C      3.721337    1.220701   -0.436640
  Cl    -0.045697    2.532739    1.274940
  C     -3.335888   -1.660033    0.464660
  H     -4.215039    0.976936    0.156524
  H     -2.614554    1.752054    0.075909
  H     -3.112217    0.600523   -1.188318
  H     -2.614346   -0.095736    1.776050
  H      1.606705    0.822549   -0.676707
  H      2.855862   -0.851154   -2.098322
  H      3.532882   -1.587906   -0.627543
  H      1.780569   -1.662015   -0.934387
  H      3.548716    2.185278    0.053541
  H      4.613063    0.756376    0.005258
  H      3.926274    1.401864   -1.501359
  H     -4.401709   -1.521696    0.693421
  H     -2.944452   -2.462484    1.100145
  H     -3.253532   -1.971737   -0.585313
