19
  Isotropic shielding for P: 214.247 ppm
  Cl     4.489814   -1.047450    1.436809
  P      3.382339   -0.118341   -0.057627
  Cl     4.524088    1.261267   -1.114035
  Cl     3.816982   -1.689316   -1.473191
  O      2.864725    1.103005    1.043338
  N      1.457296    1.227970    1.136662
  C      0.914713    0.361477    0.342676
  O      1.783324   -0.442069   -0.373694
  C     -0.514602    0.160331    0.138145
  C     -1.441783    0.969128    0.826282
  C     -2.807608    0.775527    0.630946
  C     -3.262862   -0.219847   -0.246999
  C     -2.343262   -1.022815   -0.930893
  C     -0.971254   -0.837810   -0.742993
  H     -1.088577    1.741484    1.505119
  H     -3.520787    1.402007    1.163122
  H     -4.331079   -0.366311   -0.395802
  H     -2.692285   -1.795802   -1.612813
  H     -0.259080   -1.462638   -1.275052
