35
  Isotropic shielding for P: 81.838 ppm
  C      4.326036   -0.859045   -0.405292
  C      4.230560    0.221673    0.658295
  O      2.866275    0.333046    1.221072
  C      1.850740    0.657775    0.406249
  C      0.698563   -0.020681    0.275482
  P     -0.623980    0.631928   -0.856458
  O     -1.858085   -0.445512   -0.618788
  C     -2.650903   -0.515582    0.615563
  C     -3.268454   -1.901528    0.712714
  O     -1.081537    1.947493    0.059808
  C     -1.657984    3.091693   -0.647434
  C     -3.167711    2.957471   -0.810778
  C      0.596865   -1.425490    0.858488
  C      0.748386   -2.529525   -0.210338
  Br     2.112848    2.399343   -0.543321
  H      5.364174   -0.918810   -0.758489
  H      3.686379   -0.629208   -1.266180
  H      4.039294   -1.837424   -0.001904
  H      4.840929   -0.007185    1.536430
  H      4.515077    1.206488    0.268922
  H     -3.423350    0.261081    0.558032
  H     -2.014758   -0.295889    1.481751
  H     -3.889028   -2.112543   -0.167707
  H     -2.494518   -2.675202    0.789725
  H     -3.906605   -1.958582    1.605035
  H     -1.163255    3.197782   -1.623855
  H     -1.402036    3.964592   -0.034974
  H     -3.421663    2.098435   -1.445046
  H     -3.656756    2.831056    0.163374
  H     -3.569219    3.864403   -1.283981
  H     -0.363669   -1.549011    1.369352
  H      1.375042   -1.550041    1.620077
  H     -0.029470   -2.451251   -0.978540
  H      1.725634   -2.461441   -0.702997
  H      0.666085   -3.520216    0.256509
