34
  Isotropic shielding for P: 85.349 ppm
  C      2.642864   -1.871078    1.983747
  C      2.662618   -0.369740    1.648661
  N      1.736961    0.026775    0.568651
  P      0.170306    0.447557    1.007644
  O     -0.114541    1.475931   -0.280231
  C     -1.420165    2.121382   -0.365449
  C     -2.166305    1.676168   -1.620149
  C     -2.523152    0.168676   -1.643670
  C     -3.475176   -0.216793   -0.537062
  C     -3.210679   -0.794786    0.644778
  C     -1.908525   -1.259488    1.242722
  O     -0.713920   -0.909123    0.508494
  C      2.130552   -0.328891   -0.811810
  C      3.113657    0.680339   -1.422057
  H      2.884927   -2.482815    1.105367
  H      3.383887   -2.093957    2.763850
  H      1.653167   -2.172858    2.350352
  H      2.401115    0.209071    2.544935
  H      3.678083   -0.062382    1.360647
  H     -2.009447    1.903237    0.537877
  H     -1.236111    3.203468   -0.395536
  H     -3.084542    2.280313   -1.692373
  H     -1.554898    1.916448   -2.502219
  H     -1.602373   -0.417417   -1.593413
  H     -3.002267   -0.048746   -2.609570
  H     -4.519727    0.049748   -0.722370
  H     -4.054603   -0.982889    1.315801
  H     -1.836452   -0.872157    2.274600
  H     -1.912713   -2.358252    1.323748
  H      2.574984   -1.335179   -0.814152
  H      1.226499   -0.381989   -1.427725
  H      2.653609    1.674030   -1.487017
  H      4.027788    0.761716   -0.819667
  H      3.404178    0.363681   -2.433604
