22
  Isotropic shielding for P: 114.190 ppm
  C      3.425542    0.797259   -0.936966
  C      2.651142   -0.174579   -0.090800
  C      3.196420   -1.137256    0.665414
  O      1.254583   -0.069026   -0.084444
  P      0.347369    1.011446   -1.001928
  O     -0.698409    1.534122    0.196098
  C     -1.809228    0.651082    0.303056
  C     -1.852536   -0.235560   -0.703137
  O     -0.776164   -0.065748   -1.618167
  C     -2.808289   -1.322293   -1.040703
  C     -2.700142    0.888009    1.468672
  H      3.220530    1.835592   -0.639800
  H      4.497899    0.605854   -0.828872
  H      3.156984    0.704170   -1.998863
  H      4.275907   -1.255173    0.697400
  H      2.579827   -1.811703    1.254925
  H     -3.629269   -1.349051   -0.316846
  H     -2.307396   -2.301202   -1.039104
  H     -3.232067   -1.167753   -2.043761
  H     -3.550579    0.198796    1.447316
  H     -3.085036    1.918228    1.459424
  H     -2.156889    0.744888    2.413989
