34
  Isotropic shielding for P: 84.305 ppm
  C     -3.908753    1.559802    0.816785
  C     -4.735927    0.325293    0.417496
  C     -3.979831   -1.018344    0.424972
  C     -2.941571   -1.223907   -0.691342
  S     -1.331003   -0.345068   -0.337211
  P     -0.147527   -1.267053   -1.891266
  S      1.674172   -0.169774   -1.583395
  C      1.862336    0.281872    0.223253
  C      3.321039    0.640227    0.529824
  C      3.834467    1.899749   -0.187796
  C      5.271676    2.264065    0.216521
  O      0.105758   -2.821405   -1.374674
  C      0.675422   -3.176553   -0.083126
  H     -3.426531    1.411008    1.793365
  H     -4.551768    2.447401    0.890742
  H     -3.121684    1.777451    0.085085
  H     -5.586118    0.231194    1.109588
  H     -5.169987    0.481088   -0.582673
  H     -3.505962   -1.180216    1.405234
  H     -4.719205   -1.824958    0.303881
  H     -2.700616   -2.287949   -0.780284
  H     -3.324171   -0.866915   -1.654776
  H      1.198790    1.130169    0.422550
  H      1.535517   -0.572188    0.820339
  H      3.969231   -0.216992    0.292969
  H      3.389579    0.793575    1.619154
  H      3.159629    2.739956    0.038600
  H      3.788798    1.749645   -1.276616
  H      5.617354    3.163755   -0.309490
  H      5.966483    1.446288   -0.021821
  H      5.340256    2.457051    1.296580
  H      0.586311   -4.262928    0.008835
  H      1.731533   -2.882613   -0.050667
  H      0.122198   -2.682718    0.724565
