40
  Isotropic shielding for P: 81.741 ppm
  C     -1.624897    4.602645   -2.343805
  C     -0.309626    4.144888   -2.499429
  C      0.099388    2.958475   -1.887244
  C     -0.801678    2.197825   -1.115188
  C     -2.121521    2.668727   -0.965371
  C     -2.527115    3.861032   -1.571064
  C     -0.350252    0.932709   -0.476883
  C     -1.273095   -0.095905   -0.213459
  C     -0.948143   -1.299380    0.412102
  P      0.693671   -1.690097    0.924081
  C      1.525603   -0.217080    0.379112
  N      0.967421    0.853882   -0.198635
  C      2.992942   -0.133873    0.616864
  C      3.806625   -1.283729    0.590609
  C      5.180442   -1.191458    0.830401
  C      5.765831    0.050877    1.104449
  C      4.966509    1.201892    1.130989
  C      3.594680    1.111777    0.886272
  C     -2.006186   -2.312779    0.648333
  C     -2.989503   -2.564214   -0.330040
  C     -3.978920   -3.526832   -0.114797
  C     -4.009433   -4.252325    1.083072
  C     -3.039816   -4.009565    2.063936
  C     -2.045146   -3.052347    1.847474
  H     -1.942811    5.529741   -2.818098
  H      0.397651    4.713022   -3.101870
  H      1.118867    2.602211   -2.009346
  H     -2.831347    2.118477   -0.351720
  H     -3.547780    4.214468   -1.433278
  H     -2.308893    0.063957   -0.505938
  H      3.367062   -2.251468    0.355902
  H      5.795528   -2.089188    0.793544
  H      6.835980    0.122427    1.291992
  H      5.413739    2.171176    1.347041
  H      2.972829    2.003176    0.912590
  H     -2.963365   -2.020290   -1.272301
  H     -4.724317   -3.715005   -0.886008
  H     -4.782784   -5.000068    1.250839
  H     -3.061211   -4.561656    3.002196
  H     -1.306528   -2.856424    2.622776
