18
  Isotropic shielding for P: 204.193 ppm
  O      1.520351    1.057500    1.565846
  C      1.129995    0.350984    0.624220
  C     -0.319370    0.193912    0.296780
  C     -1.269340    0.862446    1.091950
  C     -2.632252    0.745341    0.823389
  C     -3.023436   -0.050154   -0.252398
  C     -2.116768   -0.728128   -1.063382
  C     -0.756026   -0.600226   -0.779791
  F     -4.361852   -0.170268   -0.523630
  N      1.980759   -0.363846   -0.220086
  P      3.537770   -0.362214   -0.076918
  Cl     4.493363    1.430879   -0.309841
  Cl     4.315638   -1.095771    1.666557
  Cl     4.308767   -1.543358   -1.517244
  H     -0.928821    1.474057    1.923295
  H     -3.379712    1.254207    1.427544
  H     -2.472145   -1.336870   -1.891498
  H     -0.026921   -1.118389   -1.396093
