28
  Isotropic shielding for P: 151.350 ppm
  S     -0.928314    0.137851    2.488553
  P      0.123818   -0.357062    0.925859
  O      0.567797   -1.926347    0.878106
  C      1.977395   -2.136913    0.510571
  C      2.646937   -0.784844    0.449989
  C      1.768334    0.287784    0.648569
  C      2.210329    1.614882    0.635354
  C      3.566999    1.858182    0.412002
  C      4.454714    0.786863    0.209947
  C      4.004356   -0.537804    0.226914
  O     -0.632611   -0.060119   -0.498044
  C     -2.034522    0.026314   -0.621100
  C     -2.600792    1.286017   -0.815961
  C     -3.985992    1.385571   -0.992455
  C     -4.785745    0.235890   -0.966775
  C     -4.197038   -1.019585   -0.768143
  C     -2.812424   -1.132284   -0.594879
  H      2.414644   -2.786304    1.277944
  H      1.998877   -2.654426   -0.456857
  H      1.512926    2.434142    0.799559
  H      3.939752    2.880491    0.397817
  H      5.510675    0.990987    0.042167
  H      4.699875   -1.361505    0.074219
  H     -1.963431    2.167322   -0.825159
  H     -4.438627    2.363687   -1.146459
  H     -5.862689    0.317557   -1.102467
  H     -4.814395   -1.916037   -0.748009
  H     -2.340746   -2.100308   -0.441264
