42
  Isotropic shielding for P: 129.814 ppm
  C     -3.968371    4.962409   -0.854752
  S     -4.643717    3.339237   -1.353799
  C     -3.483209    2.170247   -0.683850
  C     -3.759240    0.805342   -0.903146
  C     -2.903133   -0.177374   -0.410813
  C     -1.736196    0.165645    0.299668
  C     -1.470915    1.527596    0.515916
  C     -2.328474    2.521959    0.035220
  P     -0.699372   -1.142520    1.070074
  C      0.971965   -0.397931    0.877279
  C      1.771595   -0.220477    2.019042
  C      3.053704    0.319907    1.922674
  C      3.575435    0.685308    0.666285
  C      2.784339    0.502991   -0.484643
  C      1.498509   -0.027238   -0.370689
  S      5.220721    1.354169    0.651119
  C      5.554643    1.672749   -1.117472
  O     -0.768772   -2.242182   -0.196471
  C     -0.597072   -3.664374    0.131970
  C      0.889073   -3.999520    0.270342
  C     -1.288040   -4.450418   -0.978606
  H     -4.675476    5.699916   -1.248362
  H     -3.919253    5.050029    0.235465
  H     -2.981303    5.131867   -1.296950
  H     -4.649307    0.514686   -1.460688
  H     -3.138878   -1.224156   -0.591678
  H     -0.577413    1.829216    1.059870
  H     -2.081646    3.563575    0.219103
  H      1.388005   -0.510391    2.997248
  H      3.656328    0.452986    2.820504
  H      3.160284    0.775053   -1.466684
  H      0.900353   -0.157102   -1.271416
  H      5.511480    0.746467   -1.699181
  H      4.857932    2.413367   -1.522964
  H      6.572451    2.075268   -1.146859
  H     -1.106431   -3.851173    1.090933
  H      1.347181   -3.429922    1.088131
  H      1.016065   -5.069108    0.484540
  H      1.422832   -3.763746   -0.660072
  H     -1.219262   -5.527040   -0.775635
  H     -0.809611   -4.249594   -1.946754
  H     -2.347901   -4.175924   -1.045999
