28
  Isotropic shielding for P: 309.207 ppm
  C      3.473001    0.528002    0.792657
  C      2.783494    1.507035    0.067730
  C      1.573363    1.195390   -0.561238
  C      1.030228   -0.099862   -0.473814
  C      1.736185   -1.077466    0.251562
  C      2.946482   -0.766023    0.880379
  P     -0.605874   -0.483683   -1.220717
  O     -0.956251    1.031797   -1.957062
  C     -1.773940    1.930999   -1.176605
  C     -2.002175    1.269423    0.196585
  N     -1.857664   -0.156591   -0.074597
  C     -1.834827   -1.085988    1.049565
  C     -1.471113   -2.436347    0.402311
  O     -0.734332   -2.149080   -0.806562
  H      4.415856    0.770270    1.280928
  H      3.188289    2.515082   -0.011202
  H      1.052279    1.959088   -1.130989
  H      1.342239   -2.087521    0.316666
  H      3.478616   -1.535963    1.437395
  H     -0.405327   -0.948366   -2.544619
  H     -2.724332    2.076521   -1.708793
  H     -1.267046    2.899498   -1.078325
  H     -3.002479    1.494544    0.588837
  H     -1.257101    1.615384    0.936368
  H     -1.082555   -0.787463    1.802567
  H     -2.814375   -1.128310    1.543217
  H     -2.374274   -2.998276    0.126192
  H     -0.856569   -3.052098    1.071362
