27
  Isotropic shielding for P: 263.140 ppm
  C     -1.482560   -2.805331   -0.633582
  C     -1.642810   -1.739613    0.436340
  O     -1.169992   -0.438882   -0.091144
  P      0.015952    0.387331    0.605370
  O      0.063384    0.293539    2.094103
  C      1.553180   -0.192580   -0.195379
  C      2.398161    0.618266   -0.955327
  C      3.546856    0.014721   -1.474322
  N      3.838834   -1.281608   -1.260929
  C      2.957364   -1.970412   -0.512899
  N      1.828873   -1.495768    0.033022
  O     -0.137001    1.841164   -0.034308
  C     -0.979517    2.884028    0.595545
  C     -2.445030    2.720883    0.224456
  H     -0.425488   -2.953647   -0.882281
  H     -1.889279   -3.754783   -0.259435
  H     -2.030324   -2.531203   -1.543882
  H     -2.694356   -1.582826    0.701334
  H     -1.081995   -1.980781    1.345270
  H      2.176045    1.665363   -1.136393
  H      4.252450    0.585531   -2.079111
  H      3.182820   -3.022397   -0.331984
  H     -0.822525    2.840748    1.679208
  H     -0.565198    3.821040    0.211720
  H     -2.861750    1.794108    0.635808
  H     -2.574447    2.716099   -0.864774
  H     -3.011648    3.566812    0.636975
