27
  Isotropic shielding for P: 238.649 ppm
  C      3.002489   -0.573234    1.687862
  C      2.813024    0.123573    0.349902
  O      1.603487   -0.375572   -0.331953
  P      0.173986    0.353628   -0.168068
  O      0.123493    1.372187    0.925551
  C     -0.230654    0.975406   -1.829088
  C     -1.629045    1.549305   -1.910819
  O     -1.861933    2.520678   -2.977577
  C     -1.905749    2.955628   -1.580485
  O     -0.862645   -0.869504   -0.043053
  C     -0.916940   -1.667343    1.197802
  C     -1.991979   -2.724836    1.023445
  H      2.180453   -0.334982    2.373289
  H      3.051646   -1.661609    1.557347
  H      3.943931   -0.236551    2.143444
  H      2.731819    1.209748    0.468189
  H      3.631368   -0.099704   -0.342763
  H      0.512881    1.750218   -2.058955
  H     -0.101628    0.150829   -2.542844
  H     -2.441011    0.828053   -1.798292
  H     -2.894588    3.243515   -1.220347
  H     -1.078992    3.601080   -1.278827
  H      0.070463   -2.117412    1.359540
  H     -1.142760   -0.990726    2.030710
  H     -2.052499   -3.333923    1.935054
  H     -1.756909   -3.386147    0.180190
  H     -2.971709   -2.262301    0.850448
