31
  Isotropic shielding for P: 244.898 ppm
  C     -0.763690    3.618518   -0.698639
  C     -1.210373    2.470790    0.188229
  O     -0.266455    1.353039   -0.013699
  P     -0.392435    0.009367    0.852824
  O     -0.493509    0.175299    2.334718
  C      1.101121   -0.885391    0.318810
  C      2.412129   -0.331605    0.938835
  C      3.491138   -0.597219   -0.142220
  C      2.749132   -0.377030   -1.473737
  C      1.332589   -0.871243   -1.210196
  O      0.525232   -1.233582   -2.051299
  O     -1.668933   -0.701910    0.177181
  C     -2.280809   -1.887800    0.804419
  C     -3.525970   -2.240294    0.010656
  H      0.246350    3.951444   -0.428976
  H     -0.770912    3.322928   -1.755168
  H     -1.452780    4.463753   -0.570798
  H     -1.193524    2.746558    1.249355
  H     -2.215399    2.120190   -0.076806
  H      0.941814   -1.936463    0.606640
  H      2.643384   -0.805915    1.897151
  H      2.322978    0.748518    1.112990
  H      4.361198    0.057464   -0.025037
  H      3.838131   -1.637730   -0.078616
  H      2.672773    0.699530   -1.702185
  H      3.183476   -0.873977   -2.347924
  H     -2.516747   -1.644623    1.846956
  H     -1.547447   -2.704875    0.785128
  H     -4.001842   -3.124379    0.455148
  H     -4.246901   -1.413293    0.027968
  H     -3.273620   -2.469975   -1.032014
