27
  Isotropic shielding for P: 256.681 ppm
  C     -1.505527   -2.781863   -1.134749
  C     -1.763830   -1.325791   -1.479503
  O     -0.592126   -0.488922   -1.122477
  P     -0.531005    0.378770    0.215629
  O     -1.794965    0.541127    0.986018
  C      0.784794   -0.467230    1.191842
  Cl     1.263795    0.586991    2.602158
  O      0.585256   -1.832682    1.479387
  C      1.754446   -1.435024    0.639980
  C      3.125447   -1.672149    1.204755
  O      0.190424    1.704677   -0.304321
  C     -0.094285    3.037655    0.278914
  C     -1.065191    3.796424   -0.608918
  H     -2.360433   -3.384116   -1.471360
  H     -1.387507   -2.916296   -0.053585
  H     -0.603745   -3.150308   -1.639017
  H     -2.641823   -0.929249   -0.959760
  H     -1.884681   -1.174515   -2.556701
  H      1.611140   -1.703796   -0.407566
  H      3.851238   -1.061203    0.650446
  H      3.184225   -1.416645    2.266685
  H      3.400825   -2.726132    1.071436
  H      0.883103    3.526905    0.334114
  H     -0.485891    2.906465    1.292628
  H     -0.669698    3.894742   -1.627436
  H     -1.217537    4.803825   -0.197801
  H     -2.036452    3.288640   -0.650695
