35
  Isotropic shielding for P: 57.692 ppm
  C      4.446383    1.643540   -1.285214
  C      3.769593    1.465676    0.091600
  C      2.903274    0.226087    0.157568
  C      3.485086   -1.067894    0.256914
  C      2.677591   -2.181284    0.292293
  C      1.270187   -2.056865    0.226055
  N      0.702753   -0.770399    0.120478
  C      1.533581    0.341639    0.092023
  C     -0.711196   -0.791038    0.062336
  P     -1.309860   -2.460936    0.149624
  C      0.301811   -3.071209    0.254354
  C     -1.497953    0.433227   -0.063550
  O     -0.953616    1.556431   -0.124641
  C     -3.059120    0.375456   -0.128472
  C     -3.595312    1.818677   -0.262517
  C     -3.642500   -0.232104    1.173890
  C     -3.531188   -0.423896   -1.371252
  H      5.078142    0.779475   -1.529446
  H      3.693281    1.749146   -2.077260
  H      5.079440    2.540504   -1.289690
  H      3.158798    2.349697    0.316709
  H      4.544415    1.402256    0.869562
  H      4.567611   -1.170141    0.311337
  H      3.092426   -3.183012    0.376328
  H      1.020997    1.288912    0.016539
  H      0.575870   -4.118218    0.334549
  H     -3.306737    2.437536    0.594999
  H     -3.220167    2.302719   -1.171514
  H     -4.691135    1.786149   -0.313226
  H     -3.390446   -1.290290    1.293669
  H     -4.737164   -0.144759    1.154736
  H     -3.272481    0.310153    2.054246
  H     -3.079613   -0.019510   -2.286935
  H     -3.280374   -1.487090   -1.307853
  H     -4.622378   -0.338841   -1.462746
