41
  Isotropic shielding for P: 299.164 ppm
  C      1.241011    1.314756   -1.706656
  N      1.468192    0.114364   -0.909050
  C      2.827642   -0.482256   -1.006584
  C      3.218824   -0.767922    0.449754
  N      1.916150   -0.830002    1.144224
  C      1.112460    0.218815    0.498024
  P     -0.737958   -0.103320    0.912984
  C     -1.137591   -1.318526   -0.390067
  N     -1.503164   -1.116022   -1.663464
  C     -1.639762   -2.367846   -2.223792
  C     -1.347659   -3.342682   -1.290420
  N     -1.038945   -2.673040   -0.126075
  C     -0.661040   -3.309560    1.142986
  C     -1.559884    1.443000    0.357137
  C     -1.055073    2.674759    0.823012
  C     -1.709768    3.874776    0.530436
  C     -2.897137    3.868991   -0.212228
  C     -3.423846    2.648702   -0.652762
  C     -2.765079    1.447278   -0.370785
  C      2.035225   -0.694311    2.596714
  H      1.820940    2.188877   -1.344850
  H      0.178789    1.578189   -1.690803
  H      1.525791    1.116251   -2.746565
  H      2.798358   -1.398067   -1.614475
  H      3.537182    0.215389   -1.475064
  H      3.837153    0.059112    0.852069
  H      3.771702   -1.705674    0.581636
  H      1.349049    1.228276    0.912576
  H     -1.938427   -2.502508   -3.257593
  H     -1.333869   -4.423765   -1.342711
  H      0.379418   -3.074055    1.388147
  H     -0.779987   -4.390727    1.034977
  H     -1.310809   -2.952059    1.948543
  H     -0.144838    2.703406    1.419174
  H     -1.293086    4.815005    0.889264
  H     -3.409117    4.803098   -0.437798
  H     -4.351673    2.628742   -1.223417
  H     -3.180237    0.512068   -0.732921
  H      1.043873   -0.740990    3.061077
  H      2.640860   -1.521270    2.986250
  H      2.516425    0.260950    2.889101
