33
  Isotropic shielding for P: 202.671 ppm
  C     -3.320105    2.384218    1.213434
  C     -3.061802    1.359782    0.123740
  C     -2.576205    0.010058    0.646195
  C     -2.302532   -1.009854   -0.459935
  C     -1.569336   -2.251187    0.016528
  O     -1.484591   -0.403263   -1.577896
  P     -0.914954    1.082750   -1.491966
  S     -0.239340    1.759416   -3.174485
  O     -2.031927    1.973660   -0.795886
  O      0.208804    1.064400   -0.275156
  C      1.441100    0.444297   -0.312558
  C      1.756934   -0.594738   -1.202622
  C      3.020510   -1.174698   -1.148832
  C      3.948866   -0.714883   -0.207572
  C      3.636390    0.317608    0.687278
  C      2.376219    0.898764    0.630668
  N      5.278728   -1.329944   -0.154327
  O      6.088426   -0.921680    0.703230
  O      5.548621   -2.236508   -0.968359
  H     -3.605064    3.347833    0.775405
  H     -2.425718    2.521835    1.833702
  H     -4.142177    2.037108    1.852651
  H     -3.946122    1.226848   -0.512050
  H     -3.364684   -0.405667    1.287780
  H     -1.686045    0.150804    1.273418
  H     -3.239653   -1.273133   -0.964076
  H     -2.190078   -2.778565    0.752697
  H     -1.373415   -2.929558   -0.821707
  H     -0.617887   -1.981314    0.490823
  H      1.027766   -0.955338   -1.919749
  H      3.284830   -1.980504   -1.825944
  H      4.372673    0.656769    1.408462
  H      2.101571    1.704682    1.306609
