39
  Isotropic shielding for P: 243.935 ppm
  C     -3.751411    3.243484    0.189325
  C     -2.398941    2.667892    0.641400
  C     -1.958244    1.441281   -0.161252
  P     -3.057447   -0.034337    0.046198
  O     -3.621298   -0.216242    1.416992
  O     -2.203927   -1.292297   -0.493627
  C     -1.567238   -2.228667    0.435420
  O     -4.101458    0.215615   -1.146070
  C     -5.258982   -0.671611   -1.301013
  O     -0.643638    1.031863    0.329175
  C      0.308357    0.686960   -0.610828
  O      0.111233    0.747769   -1.819118
  C      1.538802    0.256706    0.064544
  C      2.616566   -0.149697   -0.644818
  C      3.896436   -0.611290   -0.117757
  C      4.907212   -0.980893   -1.032638
  C      6.152181   -1.428897   -0.585444
  C      6.410588   -1.516899    0.787548
  C      5.415794   -1.154425    1.709806
  C      4.173222   -0.706844    1.265645
  H     -3.962975    4.169509    0.737651
  H     -4.575686    2.545656    0.378740
  H     -3.744447    3.477085   -0.883507
  H     -1.612480    3.425315    0.516764
  H     -2.433136    2.405220    1.706904
  H     -1.888372    1.665905   -1.231310
  H     -2.326758   -2.719557    1.051379
  H     -1.054803   -2.962201   -0.191593
  H     -0.844888   -1.706282    1.070719
  H     -5.840937   -0.259300   -2.128124
  H     -4.921263   -1.685393   -1.542765
  H     -5.854752   -0.676321   -0.382303
  H      1.528641    0.276515    1.151549
  H      2.533789   -0.137542   -1.733549
  H      4.703673   -0.911698   -2.100639
  H      6.919071   -1.709092   -1.305553
  H      7.379610   -1.865823    1.140506
  H      5.614732   -1.223181    2.778049
  H      3.413272   -0.431384    1.993890
