38
  Isotropic shielding for P: 246.713 ppm
  C     -4.002501   -2.836842    0.744207
  N     -3.716285   -1.611046    1.531225
  N     -2.858347   -0.721969    0.833649
  C     -1.509985   -0.861029    0.838096
  O     -0.900790   -1.803527    1.342759
  N     -0.824178    0.236357    0.200619
  C      0.283857    0.124474   -0.653560
  N      0.628124    1.279948   -1.184533
  C     -0.257213    2.221909   -0.665536
  C     -1.183753    1.596319    0.204937
  C     -2.150124    2.323883    0.906594
  C     -2.180790    3.705763    0.691499
  C     -1.276116    4.338205   -0.187272
  C     -0.302486    3.607445   -0.871272
  C      1.032526   -1.144099   -0.882173
  P      2.579002   -1.152004    0.110890
  O      2.388444   -0.886848    1.563298
  O      3.237004   -2.594928   -0.139038
  C      3.729694   -3.030581   -1.447628
  O      3.568305   -0.141060   -0.656049
  C      3.908601    1.173942   -0.107504
  H     -4.593288   -2.563636   -0.137443
  H     -3.093158   -3.366846    0.423971
  H     -4.602857   -3.498540    1.379341
  H     -3.227180   -1.867128    2.393121
  H     -3.317086    0.037523    0.340560
  H     -2.841084    1.854957    1.601703
  H     -2.918523    4.305406    1.221371
  H     -1.334989    5.416435   -0.324588
  H      0.409512    4.091094   -1.537418
  H      0.454102   -2.026372   -0.598132
  H      1.311825   -1.214470   -1.939839
  H      4.131823   -4.034722   -1.294585
  H      4.517255   -2.354379   -1.795097
  H      2.908602   -3.064140   -2.172477
  H      4.803631    1.497984   -0.644458
  H      3.081382    1.867018   -0.288065
  H      4.117146    1.095505    0.963622
