32
  Isotropic shielding for P: 226.854 ppm
  C     -0.871747    2.697885    1.575970
  O      0.030972    1.619229    1.179119
  P     -0.129627    0.962343   -0.298441
  O     -0.179131    1.950044   -1.430607
  C      1.304851   -0.148011   -0.328371
  C      1.093377   -1.531973   -0.451646
  C      2.171224   -2.418372   -0.533378
  C      3.474700   -1.917876   -0.492050
  C      3.690629   -0.540129   -0.375191
  C      2.626056    0.370246   -0.294790
  C      2.922059    1.849526   -0.175391
  C     -1.638435   -0.040052   -0.205460
  C     -2.003549   -0.691231    0.986035
  C     -3.169708   -1.459466    1.035261
  C     -3.975444   -1.584730   -0.104276
  C     -3.615556   -0.938488   -1.293150
  C     -2.450220   -0.166834   -1.344375
  H     -0.752741    3.555925    0.905450
  H     -1.912507    2.351826    1.562723
  H     -0.583757    2.972231    2.593748
  H      0.080161   -1.923093   -0.486238
  H      1.990161   -3.487427   -0.628519
  H      4.325221   -2.595224   -0.553728
  H      4.710101   -0.156519   -0.348849
  H      3.998548    2.031416   -0.263582
  H      2.404918    2.423954   -0.953615
  H      2.583915    2.245292    0.790998
  H     -1.378144   -0.595325    1.871300
  H     -3.451094   -1.958871    1.960842
  H     -4.883590   -2.184155   -0.064275
  H     -4.242196   -1.033810   -2.178342
  H     -2.169543    0.341774   -2.264174
