43
  Isotropic shielding for P: 182.823 ppm
  C      4.728774    0.308487    0.847271
  C      4.790627   -0.499598   -0.460172
  C      3.891326   -1.752186   -0.468434
  C      2.400737   -1.470594   -0.297551
  O      1.940301   -0.610804   -1.382867
  P      0.308004   -0.451355   -1.762482
  N     -0.561825    0.196079   -0.462286
  C     -0.776014    1.661968   -0.467313
  C     -2.261935    2.044898   -0.562940
  C     -2.508141    3.566509   -0.520797
  C     -2.231739    4.209847    0.850319
  C     -0.788550   -0.442764    0.861271
  C     -1.394499   -1.850901    0.811188
  C     -2.755195   -1.925126    0.101630
  C     -3.355190   -3.339897    0.117093
  H      5.441204    1.143872    0.824956
  H      4.976214   -0.322476    1.713193
  H      3.729414    0.730435    1.016777
  H      5.827491   -0.819751   -0.639917
  H      4.515843    0.147381   -1.305385
  H      4.193475   -2.427375    0.348474
  H      4.039275   -2.304896   -1.408364
  H      2.198975   -0.970481    0.659092
  H      1.826092   -2.409178   -0.320403
  H     -0.054533   -1.816767   -1.532730
  H     -0.316510    2.096682    0.433681
  H     -0.241768    2.087425   -1.328147
  H     -2.656154    1.632929   -1.503569
  H     -2.823458    1.563574    0.252107
  H     -1.888534    4.055313   -1.289681
  H     -3.554016    3.759326   -0.801538
  H     -1.180228    4.104105    1.147212
  H     -2.465966    5.282829    0.835889
  H     -2.847999    3.741604    1.631316
  H     -1.479539    0.208463    1.412464
  H      0.150209   -0.463528    1.437771
  H     -0.692956   -2.553841    0.339802
  H     -1.506079   -2.187232    1.854014
  H     -2.644434   -1.584228   -0.937260
  H     -3.450677   -1.220300    0.583853
  H     -2.687380   -4.054824   -0.384797
  H     -3.509478   -3.694670    1.146258
  H     -4.325164   -3.368952   -0.397499
