39
  Isotropic shielding for P: 263.032 ppm
  C     -7.124796   -0.408776    0.198552
  C     -6.056004   -1.130437    1.006778
  O     -5.012686   -1.655616    0.110305
  C     -3.877262   -0.921072   -0.037341
  O     -3.593163    0.099360    0.573666
  N     -3.078887   -1.525339   -0.999729
  P     -1.509120   -1.123044   -1.473305
  O     -1.134814   -2.109954   -2.527648
  N     -1.406441    0.521083   -1.811343
  C     -0.335994    1.125912   -1.133260
  C      0.180089    0.255747   -0.138942
  N     -0.535801   -0.953310   -0.113974
  C      1.286390    0.609791    0.615477
  C      1.912595    1.841395    0.340192
  C      1.395706    2.711879   -0.628713
  C      0.251916    2.363679   -1.367004
  S      3.437119    2.243750    1.185665
  C      4.536946    0.954749    0.585164
  C      5.663564    0.646654    1.366815
  C      6.562531   -0.337693    0.942930
  C      6.342055   -1.032556   -0.253260
  C      5.218835   -0.722263   -1.030616
  C      4.321968    0.270538   -0.622879
  H     -6.710069    0.472437   -0.306443
  H     -7.926803   -0.076844    0.871553
  H     -7.562329   -1.076593   -0.554249
  H     -6.454782   -2.020795    1.503630
  H     -5.585432   -0.478228    1.748142
  H     -3.464919   -2.356965   -1.443273
  H     -1.794290    0.932355   -2.655492
  H     -0.191512   -1.752255    0.411407
  H      1.694812   -0.073632    1.355851
  H      1.904304    3.649836   -0.837432
  H     -0.137723    3.024256   -2.138971
  H      5.828257    1.165455    2.310180
  H      7.428864   -0.571132    1.560144
  H      7.034251   -1.809310   -0.573312
  H      5.036239   -1.254020   -1.963760
  H      3.456093    0.500558   -1.237700
