51
  Isotropic shielding for P: 174.586 ppm
  C     -3.153419    3.037484   -0.986941
  N     -2.123758    2.840775    0.057782
  C     -1.402518    1.647369   -0.029781
  N     -0.109356    1.524084   -0.302451
  C      0.154334    0.157542   -0.243535
  C     -1.004666   -0.564585    0.057208
  N     -1.989036    0.423676    0.219150
  C     -3.364431    0.245240    0.688060
  Si    -1.362430   -2.408028    0.278789
  C     -2.947103   -2.855617   -0.652023
  C      0.017229   -3.492139   -0.405425
  C     -1.555359   -2.786223    2.121203
  P      1.829678   -0.560249   -0.386888
  Se     5.111720   -0.779346   -2.194377
  N      2.619396   -0.141518    1.068251
  C      2.417146    1.144176    1.745014
  C      2.991031   -1.238541    1.968050
  N      2.524820    0.687138   -1.459714
  C      1.919130    0.746085   -2.799499
  C      3.911021    0.860483   -1.427280
  C     -1.294187    4.040741    0.251257
  H     -3.762031    2.137423   -1.104116
  H     -2.695377    3.281256   -1.962344
  H     -3.808435    3.864423   -0.689243
  H     -4.048357    0.025175   -0.139872
  H     -3.406133   -0.570397    1.413079
  H     -3.680975    1.170766    1.178230
  H     -3.079349   -3.946875   -0.632576
  H     -2.883084   -2.543323   -1.703527
  H     -3.845886   -2.403511   -0.217501
  H      0.948342   -3.394549    0.162392
  H     -0.320645   -4.537504   -0.340677
  H      0.236503   -3.267401   -1.456413
  H     -0.619629   -2.568552    2.654376
  H     -1.789333   -3.850789    2.266142
  H     -2.355411   -2.199544    2.590829
  H      1.574309    1.105970    2.457377
  H      2.210602    1.925290    1.009230
  H      3.326268    1.411913    2.303712
  H      3.138759   -2.158352    1.391660
  H      3.930573   -0.994205    2.486438
  H      2.219114   -1.429293    2.735248
  H      0.829535    0.735785   -2.713721
  H      2.223268    1.678722   -3.291451
  H      2.237569   -0.101624   -3.430422
  H      4.307648    0.951624   -0.419513
  H      4.245002    1.664161   -2.086809
  H      4.947883   -1.576869   -0.954411
  H     -0.705796    4.297621   -0.646580
  H     -0.606235    3.882885    1.087280
  H     -1.958043    4.881130    0.486030
