42
  Isotropic shielding for P: 258.757 ppm
  C     -1.920275   -2.747056   -1.036383
  C     -2.059728   -1.231756   -1.231897
  N     -1.211606   -0.438634   -0.308201
  P      0.341499   -0.076818   -0.724927
  O      0.839791   -0.875684   -1.886636
  O      0.361402    1.518673   -0.929538
  C      1.645493    2.227234   -1.185068
  C      1.833482    3.245947   -0.067330
  C      1.558842    2.842934   -2.576917
  O      1.239561   -0.190227    0.613029
  C      1.542435   -1.533525    1.165771
  C      1.420427   -1.422230    2.680827
  C      2.929464   -1.957228    0.692392
  C     -1.845769    0.241108    0.859528
  C     -2.774343    1.387901    0.421042
  C     -2.564556   -0.761627    1.775778
  H     -0.886958   -3.064386   -1.221511
  H     -2.575980   -3.279215   -1.740104
  H     -2.195039   -3.043020   -0.017259
  H     -3.100279   -0.925392   -1.074590
  H     -1.809391   -0.968246   -2.266409
  H      2.453679    1.485021   -1.155034
  H      1.874295    2.748360    0.908466
  H      2.771826    3.795869   -0.217345
  H      1.005417    3.967066   -0.064582
  H      2.489093    3.379115   -2.806043
  H      0.724987    3.555391   -2.629456
  H      1.409478    2.065546   -3.335606
  H      0.784119   -2.230789    0.783940
  H      0.408551   -1.116199    2.969655
  H      2.138313   -0.688275    3.070613
  H      1.634778   -2.394918    3.142125
  H      3.688380   -1.247401    1.047407
  H      3.169942   -2.951382    1.091467
  H      2.968777   -2.001335   -0.401535
  H     -1.017183    0.675785    1.431030
  H     -3.162517    1.913902    1.303197
  H     -2.230423    2.106654   -0.201953
  H     -3.634025    1.009907   -0.147608
  H     -2.942365   -0.240287    2.664705
  H     -3.421791   -1.226139    1.271658
  H     -1.881804   -1.554545    2.102705
