39
  Isotropic shielding for P: 260.699 ppm
  C     -3.147902   -0.952558   -3.391662
  C     -2.039392   -1.409260   -2.456129
  O     -1.296262   -0.247768   -1.917888
  P     -1.700667    0.408334   -0.512534
  O     -3.067081    0.996486   -0.400886
  C     -0.321779    1.564654   -0.316756
  C     -0.346919    2.893653   -0.165242
  C     -1.542622    3.793860   -0.123376
  O      0.923828    0.880632   -0.394574
  C      1.596399    0.603567    0.781259
  O      1.268520    1.057402    1.863657
  C      2.751707   -0.298995    0.541926
  C      2.980942   -0.911251   -0.703507
  C      4.069626   -1.765054   -0.879751
  C      4.928478   -1.999240    0.198501
  C      4.720973   -1.402523    1.446604
  C      3.627993   -0.554263    1.611753
  Cl     6.305497   -3.074781   -0.019154
  O     -1.398390   -0.783217    0.529870
  C     -2.229101   -0.981830    1.736147
  C     -1.890572    0.011330    2.836705
  H     -3.904068   -0.371052   -2.851902
  H     -3.634267   -1.833597   -3.832151
  H     -2.741781   -0.339574   -4.205951
  H     -2.427290   -2.002070   -1.619227
  H     -1.281458   -1.999549   -2.980981
  H      0.625937    3.380571   -0.059326
  H     -1.453615    4.562631   -0.905243
  H     -1.565184    4.330286    0.837080
  H     -2.481889    3.252587   -0.252417
  H      2.305375   -0.728498   -1.533597
  H      4.248713   -2.243955   -1.838782
  H      5.401736   -1.599095    2.270624
  H      3.447990   -0.081487    2.573992
  H     -3.281718   -0.916603    1.440874
  H     -2.006955   -2.010280    2.038140
  H     -2.492271   -0.224477    3.725185
  H     -2.122655    1.038490    2.529740
  H     -0.830278   -0.043608    3.106179
