44
  Isotropic shielding for P: -27.824 ppm
  C     -3.226093    0.875854   -1.546567
  C     -2.703582    0.768464   -0.102420
  N     -1.341490    0.144679    0.003428
  P     -0.260056    0.313073   -1.277799
  N      1.257596   -0.097013   -0.695303
  C      1.982451    0.232711    0.585554
  C      2.094412   -0.942952    1.583583
  C      1.463717    1.501202    1.272746
  C      2.159203   -0.472074   -1.851475
  C      2.923070   -1.776213   -1.581942
  C      3.092284    0.675696   -2.276170
  Cl    -0.102044    2.845206   -1.591702
  C     -1.241041   -1.016745    0.947924
  C     -1.596342   -0.645242    2.394432
  C     -2.076780   -2.211500    0.444932
  C     -2.762935    2.119352    0.633679
  H     -4.263820    1.231887   -1.519992
  H     -3.209437   -0.101418   -2.044580
  H     -2.644536    1.587591   -2.143918
  H     -3.375032    0.079482    0.420628
  H      3.003903    0.450602    0.256881
  H      2.213972   -1.903694    1.074838
  H      2.979572   -0.778455    2.212075
  H      1.229965   -1.005834    2.251660
  H      0.425827    1.394428    1.601009
  H      2.081964    1.692881    2.159323
  H      1.523165    2.365681    0.605770
  H      1.476220   -0.666363   -2.690594
  H      3.453480   -2.074653   -2.495290
  H      2.236738   -2.583232   -1.299373
  H      3.669693   -1.654717   -0.787381
  H      2.520274    1.591128   -2.464481
  H      3.858175    0.890325   -1.520725
  H      3.611667    0.391349   -3.200373
  H     -0.200393   -1.331099    0.918546
  H     -2.657405   -0.387166    2.499364
  H     -1.398777   -1.507676    3.044243
  H     -0.997970    0.198391    2.754118
  H     -3.150629   -1.988097    0.432843
  H     -1.922192   -3.070175    1.111301
  H     -1.768389   -2.497622   -0.568008
  H     -2.133079    2.862005    0.134397
  H     -3.799305    2.484132    0.643911
  H     -2.425820    2.015820    1.670904
