37
  Isotropic shielding for P: 251.694 ppm
  C      1.405959   -1.379462   -3.071936
  O      1.243514   -0.749255   -1.760168
  C      0.926038   -1.564770   -0.737083
  O      0.795328   -2.774087   -0.817686
  C      0.767514   -0.773543    0.584867
  N      1.978004   -0.018182    0.913681
  C      3.105410   -0.782012    1.472472
  C      2.227580    1.227653    0.402992
  O      3.333010    1.772728    0.475806
  N      1.131444    1.899125   -0.221422
  C     -0.172274    1.446308   -0.217371
  O     -1.070321    2.060333   -0.796737
  C     -0.438805    0.184678    0.591036
  P     -2.013795   -0.628797    0.071290
  O     -2.051700   -0.998521   -1.368974
  O     -3.187914    0.297240    0.635460
  C     -4.035240    1.138532   -0.213656
  O     -2.087661   -1.932545    1.003723
  C     -2.325182   -1.876926    2.449361
  C      1.402140    3.161549   -0.939237
  H      2.212202   -2.118316   -3.031958
  H      1.657970   -0.561736   -3.748926
  H      0.467068   -1.858205   -3.366815
  H      0.627260   -1.526181    1.364474
  H      3.784991   -0.098346    1.984095
  H      2.708971   -1.509172    2.187713
  H      3.658394   -1.313169    0.684236
  H     -0.582315    0.510494    1.633694
  H     -4.982288    1.241879    0.321544
  H     -3.551536    2.109057   -0.347344
  H     -4.196883    0.656946   -1.182519
  H     -3.295416   -1.412854    2.649672
  H     -2.320357   -2.915044    2.788981
  H     -1.524495   -1.318143    2.947125
  H      0.796445    3.967201   -0.512344
  H      2.460857    3.391072   -0.830497
  H      1.145981    3.044372   -1.997456
