31
  Isotropic shielding for P: 76.756 ppm
  C     -4.921348   -2.261436    0.926593
  O     -3.528495   -1.911347    0.686047
  C     -3.281782   -0.582976    0.449558
  O     -4.185625    0.257931    0.435475
  C     -1.859771   -0.354240    0.239835
  P     -0.606260   -1.585139    0.322505
  C      0.619905   -0.380399   -0.009387
  C      0.064330    0.905134   -0.188124
  N     -1.341258    0.913302   -0.038066
  C     -2.053727    2.095104   -0.180567
  C     -1.409362    3.264098   -0.490723
  C     -0.004221    3.283556   -0.684034
  C      0.711800    2.116938   -0.533256
  C      2.062880   -0.668944   -0.080614
  C      2.537123   -1.756253   -0.842086
  C      3.902849   -2.048554   -0.901234
  C      4.824640   -1.258911   -0.202576
  C      4.366632   -0.179226    0.563585
  C      3.001424    0.111102    0.627343
  H     -5.302677   -1.729836    1.805366
  H     -4.916901   -3.339438    1.101233
  H     -5.534150   -2.015571    0.052218
  H     -3.121783    2.010360   -0.037182
  H     -2.000959    4.170043   -0.594651
  H      0.498718    4.209819   -0.952407
  H      1.786636    2.096238   -0.682621
  H      1.826181   -2.360125   -1.403833
  H      4.248181   -2.888885   -1.501689
  H      5.888844   -1.482826   -0.253278
  H      5.073580    0.435002    1.119608
  H      2.654798    0.935579    1.247063
