38
  Isotropic shielding for P: 270.475 ppm
  C      1.468307    2.500708    1.456503
  O      2.419520    1.495930    1.948821
  P      2.785753    0.176369    1.115765
  O      3.874842   -0.575514    1.803863
  C      1.163810   -0.778516    0.952446
  O      0.299808   -0.540601    1.791539
  C      1.021334   -1.762885   -0.142804
  C      2.144028   -2.485766   -0.592531
  C      2.018654   -3.464211   -1.577937
  C      0.768260   -3.712533   -2.156427
  C     -0.354891   -2.982322   -1.750612
  C     -0.227254   -2.026873   -0.748002
  O     -1.389563   -1.355836   -0.357015
  C     -1.442984    0.022726   -0.513652
  O     -0.557609    0.651095   -1.068267
  C     -2.676342    0.595885    0.072080
  C     -3.646946   -0.199619    0.709582
  C     -4.783729    0.397293    1.258099
  C     -4.959529    1.784992    1.175966
  C     -3.994377    2.580073    0.542504
  C     -2.856937    1.989537   -0.007987
  O      3.037327    0.610113   -0.407292
  C      4.267988    1.315933   -0.794996
  H      1.745731    2.823813    0.448407
  H      0.456048    2.086403    1.461349
  H      1.539752    3.337737    2.154579
  H      3.114732   -2.296852   -0.139976
  H      2.892553   -4.027882   -1.896687
  H      0.664000   -4.467006   -2.933728
  H     -1.328997   -3.144126   -2.206749
  H     -3.510535   -1.275057    0.774743
  H     -5.533260   -0.219133    1.750851
  H     -5.846984    2.246599    1.605803
  H     -4.129791    3.658197    0.480367
  H     -2.099429    2.595597   -0.498653
  H      4.345745    2.262118   -0.248971
  H      5.136135    0.681692   -0.590068
  H      4.174731    1.502324   -1.866723
