49
  Isotropic shielding for P: 3.988 ppm
  C      6.040878   -1.344221   -1.194529
  C      6.192817   -0.044852   -0.383584
  C      4.861448    0.679704   -0.100141
  C      4.168223    1.227379   -1.360249
  C      2.908765    2.081266   -1.104603
  C      1.738503    1.340319   -0.413558
  C      1.714030    1.478450    1.116380
  C      0.606484    0.674133    1.803551
  S     -1.118976    1.268559    1.413378
  P     -1.782880   -0.465548    0.327711
  N     -3.433990   -0.581701    0.550274
  C     -3.929321   -1.998328    0.765785
  C     -3.539126   -2.961960   -0.367100
  C     -3.502846   -2.518468    2.146837
  C     -4.534628    0.410730    0.325097
  C     -5.196550    0.207423   -1.052638
  C     -4.106616    1.867618    0.514984
  Cl    -1.605210    0.264204   -1.802415
  H      5.633497   -1.153588   -2.195868
  H      5.361999   -2.044234   -0.685893
  H      7.009374   -1.846996   -1.320102
  H      6.679512   -0.277910    0.575757
  H      6.870825    0.642496   -0.914838
  H      4.186906   -0.013039    0.425617
  H      5.050623    1.514570    0.593242
  H      4.895871    1.836035   -1.921835
  H      3.891928    0.392089   -2.021758
  H      2.562151    2.462239   -2.076519
  H      3.181663    2.968712   -0.510288
  H      1.769468    0.272312   -0.683484
  H      0.785337    1.718483   -0.804123
  H      1.616959    2.541040    1.386527
  H      2.666843    1.138145    1.547043
  H      0.658362   -0.389410    1.536164
  H      0.686223    0.750575    2.893914
  H     -5.021226   -1.905029    0.763837
  H     -2.455212   -3.134599   -0.389991
  H     -4.029965   -3.931167   -0.209244
  H     -3.848652   -2.570452   -1.342713
  H     -2.412532   -2.638861    2.201208
  H     -3.964341   -3.495626    2.342077
  H     -3.814164   -1.821501    2.934625
  H     -5.280707    0.181822    1.100964
  H     -4.493538    0.450635   -1.856924
  H     -6.070786    0.866331   -1.137791
  H     -5.539315   -0.824411   -1.189644
  H     -3.345867    2.167819   -0.214799
  H     -4.984593    2.507522    0.361713
  H     -3.727847    2.051290    1.525637
