29
  Isotropic shielding for P: 163.120 ppm
  C     -2.854609    2.922326   -0.863276
  C     -2.315646    1.765286   -0.069129
  O     -1.648439    1.823475    0.943161
  O     -2.665358    0.558226   -0.670544
  C     -2.069239   -0.608018   -0.173489
  C     -2.849671   -1.648761    0.342131
  C     -2.245169   -2.842207    0.759221
  C     -0.853816   -3.030303    0.682855
  C     -0.108165   -1.981235    0.171557
  C     -0.697658   -0.790543   -0.258880
  O      0.215467    0.119615   -0.761627
  P      1.723481   -0.611521   -0.881839
  S      2.301609   -0.970632   -2.695281
  O      1.275865   -1.957987    0.004375
  N      2.740728    0.243091    0.069596
  C      3.991574    0.863313   -0.405185
  C      2.370029    0.581463    1.459774
  H     -3.860613    2.708928   -1.239220
  H     -2.198073    3.080104   -1.730957
  H     -2.853673    3.824891   -0.247131
  H     -3.926985   -1.515894    0.404598
  H     -2.866823   -3.644432    1.149380
  H     -0.377815   -3.953966    1.001596
  H      3.905916    1.957997   -0.361663
  H      4.821015    0.544168    0.239553
  H      4.195445    0.558454   -1.433036
  H      1.465680    0.049518    1.764034
  H      3.189658    0.292474    2.130116
  H      2.195280    1.662169    1.549010
