39
  Isotropic shielding for P: 229.090 ppm
  C      3.641743   -0.742606    1.058660
  C      2.427566   -1.370678    0.370997
  N      1.529622   -0.362849   -0.274212
  P     -0.004545   -0.956686   -0.652800
  S     -0.100401   -2.593738   -1.751703
  C     -0.859028   -1.173069    0.924801
  C     -0.652783   -0.894277    2.282399
  Cl     0.736876   -0.159043    3.008330
  N     -1.702014   -1.246731    3.082880
  C     -2.594191   -1.744695    2.228644
  N     -2.151885   -1.727954    0.922033
  C     -3.076287   -2.210011   -0.007015
  C     -4.223861   -2.611575    0.593771
  S     -4.201413   -2.397771    2.340883
  C     -0.870628    0.448074   -1.361926
  C     -1.575208    0.682198   -2.551163
  Cl    -1.727467   -0.372673   -3.913600
  N     -2.184206    1.902852   -2.594501
  C     -1.868341    2.454945   -1.423124
  N     -1.083426    1.635867   -0.639104
  C     -0.724515    2.185004    0.591270
  C     -1.245440    3.426515    0.754906
  S     -2.196872    3.962350   -0.623816
  C      2.196912    0.422978   -1.365646
  C      2.564323    1.845281   -0.933548
  H      4.203525   -1.532956    1.573453
  H      4.317901   -0.271482    0.336160
  H      3.342305    0.008439    1.797301
  H      2.764906   -2.092973   -0.389960
  H      1.835767   -1.930777    1.102765
  H     -2.828878   -2.243091   -1.059385
  H     -5.099908   -3.031511    0.116019
  H     -0.079894    1.650828    1.273865
  H     -1.119966    4.081129    1.607895
  H      1.539463    0.467347   -2.241630
  H      3.090731   -0.131121   -1.680463
  H      3.098761    2.348528   -1.751134
  H      3.211758    1.843419   -0.049868
  H      1.669000    2.432619   -0.702241
