35
  Isotropic shielding for P: 179.398 ppm
  C     -3.415897    3.125137   -1.602997
  C     -2.989002    1.716914   -1.233042
  O     -2.899761    1.652950    0.247314
  P     -2.216763    0.418618    1.005947
  S     -2.412300    0.588117    2.950412
  N     -0.664643    0.323500    0.357805
  C      0.384110    0.205410    1.104365
  C      1.738775    0.122975    0.578182
  C      2.016772    0.159859   -0.806170
  C      3.327770    0.080732   -1.257760
  C      4.406117   -0.036264   -0.353424
  C      4.123820   -0.077212    1.022694
  C      2.810500    0.001629    1.484835
  C      5.826248   -0.093900   -0.859165
  O     -2.976790   -0.834472    0.328570
  C     -2.643488   -2.213212    0.725393
  C     -3.552694   -3.150079   -0.049517
  H     -3.510978    3.197001   -2.694707
  H     -2.673182    3.860956   -1.270688
  H     -4.386642    3.371479   -1.154989
  H     -2.008604    1.462980   -1.649367
  H     -3.723240    0.968815   -1.551841
  H      0.293799    0.165743    2.201705
  H      1.193437    0.247979   -1.511671
  H      3.532272    0.106912   -2.327675
  H      4.942897   -0.173595    1.734152
  H      2.603337   -0.031586    2.553989
  H      6.509464   -0.472884   -0.090782
  H      5.904347   -0.730057   -1.750136
  H      6.170547    0.910296   -1.149510
  H     -1.585268   -2.391698    0.495317
  H     -2.793780   -2.302832    1.808503
  H     -3.398667   -3.041937   -1.130343
  H     -4.606640   -2.951092    0.181317
  H     -3.326372   -4.187285    0.230688
