38
  Isotropic shielding for P: 233.947 ppm
  C     -1.662276    3.267565   -0.910470
  C     -1.551450    1.752803   -0.910720
  O     -1.162013    1.332579    0.443923
  P     -0.751615   -0.188765    0.835245
  O     -0.622260   -0.286066    2.325080
  C     -2.035158   -1.273099    0.148386
  C     -2.080622   -1.623241   -1.213225
  C     -3.101488   -2.450658   -1.691331
  C     -4.085454   -2.929425   -0.817662
  C     -4.046142   -2.582672    0.538696
  C     -3.024472   -1.759864    1.021283
  C      0.803545   -0.596242   -0.071740
  N      1.993286    0.014030    0.520404
  C      3.250326   -0.615886    0.061926
  C      4.398335   -0.156488    0.987505
  C      4.115143    1.281924    1.465416
  O      3.365902    1.988036    0.444147
  C      2.037180    1.477623    0.304545
  H     -1.971106    3.609896   -1.906927
  H     -2.410151    3.603606   -0.181306
  H     -0.697297    3.729484   -0.668199
  H     -2.508736    1.276626   -1.156127
  H     -0.792242    1.411082   -1.625401
  H     -1.326752   -1.256857   -1.906101
  H     -3.128225   -2.720269   -2.745729
  H     -4.879526   -3.573290   -1.192442
  H     -4.807755   -2.956287    1.221127
  H     -2.984656   -1.498201    2.076596
  H      0.684236   -0.357523   -1.148250
  H      0.893235   -1.687919    0.005956
  H      3.123923   -1.702976    0.109690
  H      3.469400   -0.354775   -0.991908
  H      4.478049   -0.820504    1.858908
  H      5.349460   -0.205384    0.441528
  H      3.545973    1.284304    2.407915
  H      5.035345    1.857064    1.611603
  H      1.361631    1.959761    1.029386
  H      1.724625    1.750108   -0.721725
