47
  Isotropic shielding for P: 238.589 ppm
  C      4.265265    0.999048   -2.864111
  C      3.416892    1.910160   -1.992711
  O      3.476101    1.470612   -0.581395
  P      2.303922    0.572861    0.053894
  O      1.627324   -0.347737   -0.917544
  C      1.157696    1.716498    0.878747
  C     -0.021638    1.068852    1.622796
  O     -0.406756    1.529468    2.710722
  N     -0.605252    0.022197    0.991501
  C     -1.751417   -0.718627    1.521400
  C     -3.134130   -0.336681    0.906064
  C     -3.287552   -0.653037   -0.633815
  C     -4.781825   -0.886374   -0.975117
  C     -2.543622   -1.964551   -0.990381
  C     -2.747922    0.488812   -1.526293
  C     -3.398911    1.109813    1.342219
  Cl    -5.149661    1.687561    1.180779
  O      3.028243   -0.116308    1.304225
  C      4.008051   -1.203819    1.089947
  C      4.377968   -1.766049    2.449888
  H      5.303062    0.977321   -2.508506
  H      3.868051   -0.022732   -2.865331
  H      4.261303    1.376029   -3.896042
  H      2.371093    1.927004   -2.320934
  H      3.800148    2.935732   -1.980319
  H      1.713622    2.342294    1.583600
  H      0.759090    2.369340    0.087849
  H     -0.155906   -0.311019    0.137613
  H     -1.565486   -1.784747    1.366791
  H     -1.786655   -0.541173    2.601169
  H     -3.847842   -0.984297    1.437741
  H     -5.385845    0.009949   -0.812008
  H     -4.878667   -1.177061   -2.030175
  H     -5.198601   -1.696279   -0.360590
  H     -1.453450   -1.870349   -0.920570
  H     -2.858163   -2.790225   -0.337483
  H     -2.780338   -2.247024   -2.024479
  H     -3.325499    1.412098   -1.393902
  H     -2.828474    0.197742   -2.582259
  H     -1.695336    0.712403   -1.318621
  H     -3.187206    1.228780    2.405148
  H     -2.813842    1.836258    0.776952
  H      4.876884   -0.777898    0.573668
  H      3.543827   -1.962252    0.448464
  H      4.826361   -0.992171    3.085248
  H      3.495516   -2.176043    2.956611
  H      5.109678   -2.574283    2.319554
