34
  Isotropic shielding for P: 182.608 ppm
  C      4.379023    1.659763   -1.167846
  C      4.112329    0.586245   -0.417802
  C      3.540870   -0.703328   -0.960132
  N      2.285779   -1.093935   -0.281460
  C      1.106661   -0.512841   -0.635585
  N      0.030188   -0.784324    0.135455
  C     -1.174249   -0.236977   -0.151027
  N     -1.467216    0.641306   -1.168117
  P     -0.231181    0.979928   -2.113851
  N      1.152206    0.278640   -1.758793
  Cl    -0.717637    0.610952   -4.089907
  Cl     0.016859    3.033766   -2.216702
  N     -2.225243   -0.567138    0.646570
  C     -3.563671    0.016204    0.414357
  C     -3.728731    1.347686    1.106302
  C     -4.653994    1.600540    2.037456
  C     -2.082394   -1.397967    1.844500
  C      2.382863   -1.916897    0.930102
  H      4.802747    2.566908   -0.738256
  H      4.182640    1.665841   -2.240812
  H      4.307400    0.607398    0.657260
  H      4.248907   -1.526860   -0.801527
  H      3.355363   -0.614215   -2.033945
  H     -3.703028    0.130176   -0.665629
  H     -4.303381   -0.703178    0.785196
  H     -3.028475    2.127297    0.799032
  H     -4.742916    2.581718    2.502628
  H     -5.361943    0.834693    2.357941
  H     -1.038560   -1.684414    1.964948
  H     -2.414907   -0.835514    2.727504
  H     -2.704552   -2.298317    1.748570
  H      1.500475   -2.554052    1.018757
  H      3.278367   -2.540325    0.848838
  H      2.459697   -1.298879    1.836379
