31
  Isotropic shielding for P: 252.401 ppm
  O      4.582631    1.214976    1.576289
  C      3.509245    0.799675    0.820839
  C      3.093666    1.471669   -0.339036
  C      1.997698    0.985947   -1.054368
  C      1.291095   -0.154958   -0.649554
  C      1.737452   -0.799186    0.515242
  C      2.830285   -0.346509    1.250996
  O      1.118831   -1.961957    1.013241
  P     -0.145696   -2.688250    0.288393
  O     -0.234616   -4.107853    0.708026
  C      0.010198   -2.196122   -1.429934
  C      0.070605   -0.643193   -1.422112
  C     -1.212249   -0.054152   -0.846051
  C     -1.750074    1.139618   -1.346039
  C     -2.901346    1.716062   -0.807224
  C     -3.548278    1.084461    0.266207
  C     -3.041343   -0.111938    0.787478
  C     -1.886778   -0.655524    0.228547
  O     -1.450160   -1.863178    0.806665
  O     -4.690487    1.588431    0.847098
  H      4.969852    2.016464    1.173455
  H      3.627716    2.358908   -0.676660
  H      1.677430    1.505108   -1.956675
  H      3.149282   -0.880441    2.142926
  H      0.923977   -2.631288   -1.850880
  H     -0.857111   -2.562167   -1.991649
  H      0.165708   -0.299147   -2.457967
  H     -1.250828    1.628120   -2.181736
  H     -3.302283    2.642791   -1.215836
  H     -3.539363   -0.614323    1.613357
  H     -4.944852    2.417856    0.397764
