20
  Isotropic shielding for P: 235.786 ppm
  C     -2.036717    2.342792   -0.652634
  O     -0.894735    1.614085   -0.092369
  P     -0.073293    0.590831   -1.024324
  O      0.487588    1.127617   -2.295852
  N      1.045592    0.145091    0.178201
  C      2.055931   -0.790506   -0.006790
  O      2.224481   -1.346938   -1.093373
  C      2.921411   -1.044361    1.211576
  S     -1.308119   -1.046984   -1.453400
  C     -1.869423   -1.521635    0.241246
  H     -2.819101    1.636443   -0.950846
  H     -2.394485    2.988865    0.151566
  H     -1.714626    2.942499   -1.510111
  H      0.919172    0.543249    1.107516
  H      3.554803   -0.166175    1.399710
  H      3.557190   -1.914411    1.029856
  H      2.305719   -1.207096    2.105044
  H     -1.008468   -1.783659    0.861647
  H     -2.445271   -0.710203    0.692654
  H     -2.507548   -2.399501    0.100682
