59
  Isotropic shielding for P: 220.978 ppm
  C     -5.363859    2.404197    1.422487
  C     -3.903229    1.930217    1.593439
  Si    -3.319120    0.521335    0.458507
  C     -1.417091    0.514938    0.566942
  C     -0.715269   -0.758994    0.046518
  P      1.084432   -0.719103    0.309843
  O      1.504061   -0.589656    1.749489
  O      1.608575    0.460090   -0.640781
  Si     2.598730    1.822959   -0.368296
  C      4.264920    1.260345    0.280814
  C      1.727841    2.950158    0.851745
  C      2.747215    2.611746   -2.061467
  C      1.757320   -2.235609   -0.505821
  N      3.202141   -2.312934   -0.381045
  C      3.857140   -2.903571    0.799196
  C      5.349078   -2.555091    0.586158
  C      5.476240   -2.343559   -0.936977
  C      4.058474   -2.008352   -1.399268
  O      3.723808   -1.566228   -2.510324
  C     -3.912375    0.861166   -1.311639
  C     -3.461421   -0.156343   -2.383368
  C     -3.956925   -1.170996    1.037077
  C     -5.492376   -1.342376    1.053280
  H     -5.597941    3.235854    2.102669
  H     -6.079429    1.598659    1.630179
  H     -5.553654    2.753627    0.398974
  H     -3.729715    1.615713    2.635319
  H     -3.222577    2.780733    1.423898
  H     -1.151934    0.668630    1.624124
  H     -1.039529    1.395791    0.027429
  H     -1.080429   -1.657029    0.563585
  H     -0.889064   -0.911756   -1.026348
  H      4.785378    0.631460   -0.451782
  H      4.899653    2.134449    0.485188
  H      4.155290    0.691906    1.212353
  H      2.296273    3.881205    0.986338
  H      1.625859    2.465529    1.831081
  H      0.723840    3.212125    0.492264
  H      3.369642    3.516016   -2.009757
  H      3.210858    1.919136   -2.776695
  H      1.760873    2.899881   -2.449722
  H      1.290588   -3.117358   -0.046496
  H      1.490425   -2.205754   -1.569041
  H      3.678744   -3.990351    0.813438
  H      3.443922   -2.471761    1.715961
  H      6.006273   -3.343016    0.966540
  H      5.588564   -1.625677    1.115012
  H      6.170826   -1.545326   -1.219407
  H      5.790607   -3.258653   -1.460591
  H     -5.012461    0.904741   -1.287480
  H     -3.581539    1.873462   -1.594588
  H     -3.738760   -1.182785   -2.107284
  H     -2.372717   -0.137553   -2.522233
  H     -3.918904    0.057238   -3.360133
  H     -3.512009   -1.939487    0.385744
  H     -3.548414   -1.362259    2.042596
  H     -5.780231   -2.366268    1.332145
  H     -5.930824   -1.134251    0.067747
  H     -5.965599   -0.661510    1.772164
