40
  Isotropic shielding for P: 215.325 ppm
  C     -2.184471    2.358238   -0.757092
  C     -0.983717    1.810723    0.025640
  C     -0.598690    2.808240    1.138714
  S      0.454747    1.570840   -1.147811
  C      1.181959    0.131536   -0.189577
  N      0.188879   -0.095038    0.888552
  C     -1.153733    0.396923    0.637650
  P     -2.341010   -0.826263   -0.244412
  S     -2.272289   -1.104384   -2.222012
  C     -4.012407   -0.341273    0.338359
  C     -2.012970   -2.380056    0.669743
  C      2.551559    0.552402    0.419709
  C      3.461027   -0.665360    0.655557
  C      3.865876   -1.306996   -0.698837
  C      2.750311   -1.141695   -1.766736
  C      1.363794   -1.111530   -1.106228
  H     -3.033744    2.512837   -0.079174
  H     -2.489715    1.691410   -1.568724
  H     -1.927574    3.333693   -1.188786
  H     -0.339677    3.778611    0.699041
  H      0.255104    2.447483    1.719791
  H     -1.452055    2.952646    1.817663
  H      0.223574   -1.048770    1.243058
  H     -1.672445    0.492926    1.605959
  H     -4.352097    0.553045   -0.189996
  H     -4.697611   -1.168660    0.122190
  H     -3.996562   -0.151278    1.418590
  H     -2.794716   -3.098633    0.400346
  H     -2.036030   -2.202830    1.752570
  H     -1.039490   -2.786525    0.378924
  H      3.059472    1.240829   -0.268712
  H      2.357458    1.106467    1.345391
  H      2.934472   -1.400078    1.282448
  H      4.355718   -0.365022    1.216976
  H      4.794036   -0.845646   -1.064134
  H      4.080803   -2.374319   -0.548911
  H      2.901778   -0.210498   -2.332789
  H      2.800152   -1.958465   -2.498904
  H      0.553703   -1.147814   -1.840239
  H      1.256374   -2.007815   -0.474900
