16
  Isotropic shielding for P: 230.540 ppm
  C      2.083834   -1.033269    0.195397
  O      0.812117   -0.464881    0.638687
  P     -0.158160    0.270173   -0.432123
  O     -0.237449   -0.430313   -1.751056
  O     -1.529494    0.366420    0.404392
  C     -2.322886   -0.841903    0.637904
  C      0.353382    1.996814   -0.509559
  H      2.492499   -1.566544    1.057498
  H      1.921111   -1.726694   -0.636273
  H      2.770731   -0.233869   -0.108542
  H     -1.779169   -1.525257    1.299691
  H     -3.244887   -0.506528    1.118612
  H     -2.550866   -1.335780   -0.312944
  H     -0.324610    2.548080   -1.170678
  H      0.344950    2.444167    0.490046
  H      1.368697    2.039483   -0.921153
