19
  Isotropic shielding for P: 234.772 ppm
  C      2.475048    0.334702    0.092824
  C      1.896850   -1.086322    0.177576
  C      0.526396   -1.227668   -0.471581
  O     -0.455960   -0.430952    0.292923
  P     -1.450652    0.587914   -0.455877
  O     -0.823163    1.521747   -1.437140
  O     -2.541140   -0.323828   -1.248081
  C     -2.291557    1.357668    0.941001
  H      2.579014    0.654027   -0.953314
  H      3.466117    0.379949    0.561873
  H      1.826544    1.057667    0.603359
  H      2.566659   -1.797925   -0.328953
  H      1.827521   -1.410576    1.226444
  H      0.171496   -2.264337   -0.446527
  H      0.543923   -0.878628   -1.511814
  H     -2.931720   -1.034766   -0.700699
  H     -1.567953    1.942740    1.519562
  H     -3.071682    2.023224    0.554555
  H     -2.745638    0.595162    1.583869
