35
  Isotropic shielding for P: 202.888 ppm
  C     -1.498864   -3.228981   -1.251469
  N     -1.923464   -1.871400   -0.750098
  C     -0.800158   -1.041637   -0.287333
  N      0.410232   -1.426321   -0.523587
  C      1.348196   -0.524543    0.030268
  C      0.822259    0.552634    0.779783
  P     -0.978988    0.381799    0.955346
  Se    -2.661898   -0.750082   -2.273256
  N     -1.609817    1.814392    0.322722
  C     -2.994705    2.171149    0.678266
  C     -1.134715    2.430350   -0.926541
  C      1.676758    1.492093    1.355569
  C      3.057447    1.366712    1.171018
  C      3.571763    0.288469    0.430634
  C      2.725999   -0.671448   -0.140033
  C      5.064375    0.144327    0.300719
  F      5.436678   -0.664099   -0.737900
  F      5.629442   -0.401806    1.436222
  F      5.693829    1.348587    0.109990
  C     -2.979057   -2.044513    0.314178
  H     -2.394539   -3.721815   -1.633374
  H     -0.761707   -3.104089   -2.042117
  H     -1.070511   -3.790726   -0.414366
  H     -3.714825    1.827844   -0.081479
  H     -3.073098    3.263883    0.763737
  H     -3.258719    1.720252    1.641017
  H     -0.067525    2.232229   -1.060943
  H     -1.680696    2.042532   -1.799312
  H     -1.287144    3.516510   -0.861684
  H      1.278983    2.321439    1.937978
  H      3.731347    2.102049    1.603585
  H      3.119336   -1.508854   -0.710124
  H     -3.798828   -2.614130   -0.128059
  H     -3.338594   -1.066254    0.631857
  H     -2.538693   -2.586654    1.158890
