56
  Isotropic shielding for P: 265.700 ppm
  C      3.684220   -0.058107   -2.523109
  Si     3.523133   -1.029813   -0.925407
  O      2.450141   -0.205602    0.095933
  C      1.143441   -0.627886    0.475909
  P     -0.073585   -0.040063   -0.801944
  O      0.249147   -0.528125   -2.176832
  O     -0.048313    1.538658   -0.643694
  Si    -1.221395    2.756577   -0.370852
  C     -2.404625    2.727390   -1.823948
  C     -2.103058    2.427234    1.248112
  C     -0.209765    4.330322   -0.303271
  O     -1.497138   -0.477757   -0.243120
  Si    -2.580197   -1.760347   -0.576117
  C     -3.882614   -1.591055    0.756381
  C     -1.630656   -3.370384   -0.445128
  C     -3.275378   -1.496065   -2.294672
  C      0.782737   -0.092782    1.841541
  C      1.303702    1.114725    2.319566
  C      0.888347    1.581299    3.567473
  C     -0.041423    0.831256    4.293152
  N     -0.550093   -0.337666    3.852326
  C     -0.132916   -0.778547    2.651759
  C      2.905412   -2.777432   -1.232808
  C      5.160238   -1.041665   -0.002493
  H      4.435914   -0.517951   -3.180613
  H      2.725252   -0.028054   -3.053947
  H      4.000966    0.974395   -2.319723
  H      1.056550   -1.724813    0.483375
  H     -3.140987    3.538562   -1.735892
  H     -1.866114    2.857576   -2.772314
  H     -2.951076    1.776398   -1.865723
  H     -1.395916    2.391614    2.085124
  H     -2.821249    3.236377    1.444094
  H     -2.653092    1.480153    1.217636
  H     -0.862939    5.197974   -0.135497
  H      0.519527    4.290058    0.517059
  H      0.335741    4.490425   -1.242952
  H     -3.434697   -1.677941    1.755161
  H     -4.386737   -0.617815    0.687779
  H     -4.643237   -2.377348    0.652837
  H     -0.816630   -3.411347   -1.180814
  H     -1.196547   -3.492365    0.556030
  H     -2.300329   -4.221779   -0.631423
  H     -2.478181   -1.535826   -3.048006
  H     -4.013264   -2.275007   -2.533070
  H     -3.773228   -0.520272   -2.370600
  H      2.019307    1.672652    1.721837
  H      1.271132    2.516237    3.971916
  H     -0.390949    1.175136    5.267570
  H     -0.546105   -1.730699    2.316243
  H      1.936668   -2.774177   -1.747623
  H      3.626075   -3.315904   -1.864472
  H      2.797149   -3.340257   -0.295426
  H      5.477721   -0.018815    0.243716
  H      5.081008   -1.609854    0.934480
  H      5.948607   -1.501400   -0.615312
