47
  Isotropic shielding for P: 250.420 ppm
  C     -1.217162   -2.802964   -1.230563
  C     -1.861487   -1.647000   -0.447814
  N     -0.894172   -0.905875    0.383626
  C     -0.154704    0.122191   -0.200039
  C     -0.677266    1.173509   -0.906484
  C     -2.053887    1.646817   -1.013540
  C     -3.102232    1.263775   -0.141629
  C     -4.372204    1.831569   -0.256438
  C     -4.646091    2.778316   -1.253634
  C     -3.622214    3.169344   -2.127287
  C     -2.346227    2.618691   -2.001799
  P      1.671639    0.090008   -0.139319
  O      2.336768    1.093602   -1.028276
  O      1.997640   -1.452908   -0.428715
  C      3.396749   -1.926106   -0.475137
  C      3.712088   -2.433664   -1.872335
  O      2.126295    0.221019    1.409977
  C      2.319128    1.552562    2.012355
  C      3.799664    1.891153    2.085592
  C     -0.461155   -1.559035    1.631090
  C     -0.801010   -0.717499    2.869430
  H     -0.747102   -3.530246   -0.556411
  H     -1.981978   -3.327871   -1.819801
  H     -0.450054   -2.424306   -1.917400
  H     -2.654303   -2.027636    0.210787
  H     -2.339461   -0.953559   -1.144429
  H      0.045853    1.768524   -1.460805
  H     -2.910927    0.536739    0.641542
  H     -5.157614    1.528707    0.435122
  H     -5.642894    3.206191   -1.347145
  H     -3.818240    3.908183   -2.903279
  H     -1.550231    2.938809   -2.673975
  H      4.068358   -1.111464   -0.180100
  H      3.463727   -2.724507    0.272339
  H      3.013689   -3.228073   -2.163720
  H      4.730470   -2.845261   -1.890055
  H      3.653087   -1.622413   -2.608100
  H      1.870312    1.479937    3.008925
  H      1.762881    2.297992    1.431108
  H      4.346358    1.119733    2.642622
  H      3.929973    2.850071    2.605955
  H      4.231326    1.977800    1.081758
  H     -0.975306   -2.524901    1.684680
  H      0.613540   -1.779065    1.614043
  H     -0.318974    0.265922    2.815343
  H     -0.447727   -1.220304    3.780383
  H     -1.885120   -0.566605    2.953055
