33
  Isotropic shielding for P: 243.785 ppm
  C     -2.923242    2.082840    2.555509
  C     -2.288996    0.718375    2.340467
  O     -1.920678    0.540026    0.916926
  P     -0.432874    0.834088    0.385583
  O      0.152624    2.164299    0.733986
  C      0.662882   -0.525399    1.033458
  C      1.831469   -0.774612    0.101311
  C      2.940680    0.085578    0.077639
  C      3.989308   -0.138936   -0.819910
  C      3.938558   -1.221360   -1.708037
  C      2.835052   -2.082931   -1.688247
  C      1.789501   -1.860819   -0.785719
  O      1.042743   -0.175228    2.385395
  O     -0.591267    0.647391   -1.192025
  C     -1.342413   -0.467964   -1.814266
  C     -2.632605    0.058919   -2.417953
  H     -2.205486    2.885582    2.350232
  H     -3.252533    2.168452    3.600130
  H     -3.797893    2.211700    1.905816
  H     -2.992889   -0.094812    2.545160
  H     -1.398688    0.577281    2.963019
  H      0.060097   -1.437471    1.113610
  H      2.990189    0.932711    0.759276
  H      4.846181    0.533149   -0.827517
  H      4.755629   -1.394073   -2.406700
  H      2.791333   -2.931519   -2.369290
  H      0.935446   -2.537129   -0.766633
  H      1.290475    0.771124    2.390421
  H     -1.533294   -1.242800   -1.064021
  H     -0.667218   -0.872907   -2.574858
  H     -2.424498    0.851577   -3.147359
  H     -3.296114    0.454611   -1.640161
  H     -3.151380   -0.759644   -2.935245
