30
  Isotropic shielding for P: 97.719 ppm
  C     -1.238922   -0.291479    2.101277
  Si    -1.931749    0.418253    0.500574
  O     -0.744587    0.464257   -0.694325
  C     -0.393335   -0.611537   -1.573199
  C      0.256995   -1.802474   -0.870878
  O      1.398350   -1.413287   -0.055478
  P      2.870198   -1.193977   -0.802800
  O      2.927799    0.449442   -1.066915
  C      3.097340    1.144245    0.217159
  C      4.027107    0.242400    1.038424
  O      3.784225   -1.134785    0.580357
  C     -2.411626    2.216473    0.751524
  C     -3.392512   -0.613618   -0.088742
  H     -1.987846   -0.214837    2.902983
  H     -0.344974    0.262169    2.419629
  H     -0.963893   -1.349040    1.996896
  H     -1.279022   -0.985394   -2.113318
  H      0.301533   -0.196913   -2.316325
  H     -0.441809   -2.290595   -0.182708
  H      0.561698   -2.536719   -1.633558
  H      2.116064    1.263858    0.691758
  H      3.536962    2.123781    0.009326
  H      3.808919    0.291914    2.110197
  H      5.084639    0.470262    0.859245
  H     -2.835622    2.645368   -0.166589
  H     -3.161597    2.308278    1.549577
  H     -1.537796    2.817706    1.038660
  H     -3.792313   -0.235251   -1.039723
  H     -3.112295   -1.666345   -0.231373
  H     -4.201831   -0.582255    0.654447
