41
  Isotropic shielding for P: 265.383 ppm
  O      0.743334   -1.122448    1.195613
  C      0.678696    0.074401    0.871898
  N     -0.453867    0.837130    1.142817
  P     -1.816706    0.199337    1.968129
  O     -1.602291   -0.008736    3.431669
  N     -2.302208   -1.178947    1.160338
  C     -2.791378   -1.021786   -0.238641
  C     -3.943021    0.007623   -0.348397
  C     -3.449408    1.383651    0.171695
  N     -2.940775    1.365855    1.571940
  C     -4.309534    0.160521   -1.837663
  C     -5.176158   -0.462941    0.449537
  N      1.677373    0.766311    0.219673
  C      2.961186    0.314933   -0.163412
  C      3.807788    1.249592   -0.788664
  C      5.092243    0.885170   -1.195151
  C      5.581623   -0.415746   -0.994712
  C      4.724121   -1.338266   -0.373312
  C      3.433399   -0.995683    0.039948
  C      6.980343   -0.808822   -1.417807
  H     -0.431788    1.841152    0.978981
  H     -1.642762   -1.951184    1.257664
  H     -1.972393   -0.719005   -0.912559
  H     -3.148039   -2.004682   -0.569655
  H     -4.261718    2.118406    0.125692
  H     -2.640212    1.744838   -0.476995
  H     -3.678271    1.434577    2.272210
  H     -5.126304    0.883926   -1.961659
  H     -4.640092   -0.799347   -2.256317
  H     -3.449324    0.511756   -2.423751
  H     -4.948288   -0.594542    1.513175
  H     -5.989374    0.269877    0.360351
  H     -5.538363   -1.424768    0.062454
  H      1.484880    1.738620   -0.006919
  H      3.452454    2.266502   -0.956131
  H      5.725203    1.629543   -1.677893
  H      5.069418   -2.359076   -0.206555
  H      2.795071   -1.732141    0.511706
  H      6.973676   -1.735832   -2.007365
  H      7.447539   -0.021798   -2.021635
  H      7.624026   -0.988073   -0.543902
