37
  Isotropic shielding for P: 237.656 ppm
  Cl    -0.754733    4.714427    1.298048
  C      0.783083    4.331635    0.369054
  C      0.705365    2.996905   -0.364923
  P      0.557657    1.561398    0.725156
  O      1.383244    1.561639    1.953997
  O     -1.046654    1.371045    1.035803
  C     -1.821842    0.304077    0.632119
  C     -1.544896   -1.006141    1.037311
  C     -2.368263   -2.072241    0.685455
  C     -3.508764   -1.822112   -0.078032
  C     -3.840777   -0.525950   -0.470396
  C     -2.982812    0.517955   -0.126821
  N     -3.345068    1.875258   -0.588328
  O     -2.448795    2.581248   -1.071317
  O     -4.533549    2.213033   -0.482145
  Cl    -4.554543   -3.152519   -0.535293
  S     -0.193598   -1.329104    2.244955
  O     -0.518239   -2.633286    2.921397
  C      1.125879   -1.728385    1.011645
  C      1.527303   -0.837604    0.009735
  O      0.813295    0.304257   -0.290610
  C      2.609392   -1.204082   -0.803657
  C      3.262068   -2.428360   -0.656441
  C      2.839411   -3.286966    0.354747
  C      1.780013   -2.943243    1.198260
  Cl     3.654923   -4.822212    0.577385
  N      3.099398   -0.288973   -1.857383
  O      3.449839   -0.793937   -2.934237
  O      3.157147    0.921717   -1.592193
  H      1.587822    4.348797    1.106054
  H      0.910268    5.146642   -0.346040
  H      1.654078    2.849617   -0.901690
  H     -0.108448    2.969693   -1.095645
  H     -2.129876   -3.075125    1.032442
  H     -4.738420   -0.321636   -1.045871
  H      4.088938   -2.684577   -1.311124
  H      1.450052   -3.612889    1.988487
