53
  Isotropic shielding for P: 258.733 ppm
  O      0.445325   -5.327297   -1.688621
  C      0.658070   -3.973630   -1.532162
  C      0.830600   -3.107140   -2.621706
  C      1.032061   -1.744177   -2.394219
  C      1.046602   -1.228133   -1.091344
  C      0.886589   -2.107155   -0.013425
  C      0.700062   -3.471621   -0.224747
  C      1.192745    0.276372   -0.867000
  P     -0.295207    1.177715   -1.540352
  O     -0.099445    1.729202   -2.906247
  O     -1.584716    0.203032   -1.556885
  C     -1.974519   -0.723483   -0.567917
  C     -1.952456   -0.419025    0.793136
  C     -2.355089   -1.401968    1.705602
  C     -2.782170   -2.656663    1.258629
  C     -2.816634   -2.930496   -0.114993
  C     -2.413815   -1.962091   -1.036301
  O     -0.569672    2.272273   -0.374577
  C     -1.739489    3.041293   -0.212593
  C     -2.566607    3.380979   -1.285332
  C     -3.704117    4.157690   -1.032430
  C     -4.000025    4.589396    0.265782
  C     -3.151099    4.241428    1.324331
  C     -2.014608    3.460979    1.090045
  N      1.486977    0.645932    0.508993
  C      2.778409    0.583451    1.016225
  C      3.060359    1.212526    2.251316
  C      4.333100    1.151605    2.813586
  C      5.344574    0.456471    2.142918
  C      5.097000   -0.172900    0.924808
  C      3.817567   -0.112540    0.362017
  Br     7.118786    0.370165    2.922216
  H      0.441099   -5.547517   -2.640332
  H      0.810102   -3.500557   -3.637922
  H      1.167956   -1.077875   -3.245482
  H      0.894155   -1.716208    0.999723
  H      0.568361   -4.151885    0.614245
  H      1.985786    0.649361   -1.539306
  H     -1.622702    0.552387    1.145927
  H     -2.330950   -1.178318    2.770656
  H     -3.088776   -3.416405    1.974985
  H     -3.145783   -3.904618   -0.471864
  H     -2.410646   -2.161241   -2.104873
  H     -2.329043    3.056673   -2.294731
  H     -4.356550    4.427510   -1.860955
  H     -4.885017    5.194838    0.451504
  H     -3.372253    4.573185    2.337199
  H     -1.346037    3.174599    1.898896
  H      0.886369    1.346168    0.928201
  H      2.268604    1.754965    2.767130
  H      4.531782    1.644699    3.761967
  H      5.886612   -0.712570    0.407741
  H      3.638174   -0.619276   -0.581560
