46
  Isotropic shielding for P: 158.571 ppm
  C     -3.928343    6.533337    1.756297
  C     -3.272659    5.253053    1.287740
  C     -3.041546    5.020218   -0.079449
  C     -2.459129    3.829961   -0.525507
  C     -2.106618    2.864178    0.413808
  C     -2.318365    3.056446    1.776574
  C     -2.900535    4.254492    2.203768
  O     -1.556919    1.639302   -0.041800
  P      0.048476    1.376593   -0.122015
  S      1.170955    2.955769   -0.165252
  O      0.202993    0.491722   -1.467602
  C      0.099428   -0.913373   -1.595809
  C      1.192496   -1.568764   -2.161673
  C      1.155648   -2.956724   -2.286440
  C      0.042645   -3.697610   -1.848834
  C     -1.050289   -2.999069   -1.313068
  C     -1.036966   -1.604675   -1.186936
  C      0.040701   -5.206706   -1.939965
  S      0.203886    0.036616    1.543254
  C      1.624953   -0.958613    1.102735
  C      2.831529   -0.401355    0.649825
  C      3.879562   -1.237947    0.278709
  C      3.713576   -2.622709    0.388564
  C      2.531410   -3.189997    0.875129
  C      1.482905   -2.350131    1.232546
  N      4.811692   -3.509792   -0.027120
  O      4.632954   -4.741793    0.035723
  O      5.872376   -2.991874   -0.427219
  H     -5.024544    6.450611    1.708581
  H     -3.637916    7.382799    1.125742
  H     -3.660167    6.760113    2.795037
  H     -3.315414    5.782701   -0.807884
  H     -2.273214    3.652676   -1.582247
  H     -2.029976    2.287062    2.489640
  H     -3.064687    4.414486    3.268735
  H      2.063117   -0.995975   -2.470691
  H      2.014438   -3.474732   -2.711315
  H     -1.928709   -3.550796   -0.980926
  H     -1.886081   -1.074659   -0.764258
  H      0.283878   -5.544551   -2.956526
  H     -0.935349   -5.621186   -1.663019
  H      0.796441   -5.637981   -1.267688
  H      2.945554    0.675789    0.569855
  H      4.813178   -0.826988   -0.091512
  H      2.429783   -4.267550    0.947531
  H      0.542647   -2.772570    1.575261
