54
  Isotropic shielding for P: 243.722 ppm
  C      5.397027   -0.056395   -2.772652
  C      4.620278    1.069704   -2.074273
  N      3.857222    0.597928   -0.918777
  C      2.572508    0.056272   -0.963266
  C      1.685030   -0.052102   -2.041265
  C      0.434975   -0.625584   -1.807802
  C      0.054539   -1.080973   -0.522046
  C      0.942537   -0.961707    0.552701
  C      2.212498   -0.406815    0.335488
  C      3.342161   -0.137064    1.196413
  C      4.342525    0.474455    0.377336
  C      5.582862    0.861240    0.904030
  C      5.808028    0.641334    2.266101
  C      4.827441    0.046353    3.089672
  C      3.594901   -0.345038    2.560646
  N     -1.226146   -1.691238   -0.344591
  C     -2.383302   -0.820293   -0.657107
  P     -3.918742   -1.829842   -0.592057
  O     -4.116534   -2.584265    0.682365
  O     -5.119127   -0.822770   -0.972371
  C     -5.907210   -0.138028    0.053039
  O     -3.781810   -2.701266   -1.933408
  C     -4.763300   -3.749145   -2.227337
  C     -2.524869    0.381226    0.244471
  C     -2.571300    0.422228    1.619487
  C     -2.722873    1.743732    2.137420
  C     -2.794317    2.718500    1.165815
  S     -2.664167    1.988448   -0.416386
  C     -2.951163    4.202529    1.330906
  H      5.956101    0.347089   -3.626965
  H      4.713951   -0.831170   -3.142801
  H      6.110836   -0.522401   -2.081888
  H      5.305780    1.852045   -1.727551
  H      3.918295    1.544565   -2.770259
  H      1.955964    0.285536   -3.039116
  H     -0.260035   -0.739288   -2.637589
  H      0.642486   -1.294718    1.545873
  H      6.348218    1.316838    0.279578
  H      6.762992    0.934822    2.699613
  H      5.037935   -0.108747    4.146467
  H      2.839746   -0.805495    3.196665
  H     -1.316702   -2.049932    0.606574
  H     -2.300727   -0.491306   -1.699299
  H     -6.878114    0.074593   -0.402273
  H     -6.032493   -0.781424    0.928993
  H     -5.407003    0.794206    0.333512
  H     -4.809464   -4.464673   -1.399613
  H     -4.408687   -4.243103   -3.134861
  H     -5.748246   -3.301233   -2.400242
  H     -2.503443   -0.466863    2.240765
  H     -2.779375    1.974618    3.198915
  H     -2.998430    4.450985    2.397738
  H     -3.869733    4.570298    0.852912
  H     -2.109322    4.752938    0.888400
