53
  Isotropic shielding for P: 190.237 ppm
  C      5.448378   -1.327810    1.387710
  C      4.904139   -0.409593    0.301351
  O      3.454447   -0.207475    0.462295
  C      3.048530    0.788583    1.291543
  O      3.807971    1.533456    1.902684
  C      1.572537    0.848997    1.354980
  C      0.878523    1.660831    2.165186
  C     -0.603999    1.493637    2.022675
  N     -0.681410    0.390853    1.016718
  C      0.655783   -0.024038    0.513663
  C      0.823784    0.185222   -0.987319
  C      1.060487   -0.915197   -1.820363
  C      1.184484   -0.753865   -3.198494
  C      1.072412    0.533208   -3.732753
  C      0.847605    1.652956   -2.921843
  C      0.723732    1.467486   -1.549407
  N      1.194349    0.716979   -5.188828
  O      1.092044    1.869922   -5.651806
  O      1.394403   -0.287484   -5.899530
  P     -2.104634   -0.247361    0.454286
  S     -2.954046    0.517142   -1.146167
  O     -2.993217   -0.144789    1.793778
  C     -4.451609    0.042997    1.825987
  C     -4.797476    0.807943    3.091784
  O     -1.665437   -1.788523    0.286890
  C     -2.479007   -2.764137   -0.466080
  C     -1.699595   -3.271488   -1.666442
  C     -1.323416    2.793891    1.618204
  H      4.924527   -2.291758    1.381173
  H      6.514683   -1.513661    1.201847
  H      5.345320   -0.872705    2.379616
  H      5.394166    0.569091    0.307797
  H      4.993845   -0.859236   -0.692094
  H      1.312407    2.373099    2.861299
  H     -1.034296    1.147605    2.976105
  H      0.826799   -1.087014    0.730143
  H      1.141239   -1.908354   -1.385784
  H      1.360747   -1.603043   -3.850684
  H      0.770352    2.640670   -3.364464
  H      0.543010    2.328849   -0.911770
  H     -4.908819   -0.953935    1.811763
  H     -4.752059    0.586371    0.923308
  H     -4.464419    0.265644    3.985508
  H     -5.886866    0.933985    3.150726
  H     -4.332778    1.801563    3.085522
  H     -2.699665   -3.564923    0.248416
  H     -3.417371   -2.288569   -0.771391
  H     -1.506334   -2.461352   -2.378477
  H     -2.285893   -4.050024   -2.173458
  H     -0.741574   -3.707292   -1.357586
  H     -0.927089    3.187174    0.675144
  H     -2.398132    2.618371    1.502936
  H     -1.181562    3.547202    2.403705
