46
  Isotropic shielding for P: 286.883 ppm
  Br     5.872089   -3.081034    1.727154
  C      4.380946   -1.936083    1.240223
  C      3.148282   -2.509257    0.927658
  C      2.077587   -1.683688    0.575672
  C      2.211115   -0.271199    0.536165
  C      3.483818    0.265740    0.858694
  C      4.559919   -0.550777    1.205383
  N      1.195634    0.621506    0.222896
  P     -0.339248    0.275752   -0.018990
  C     -1.105294   -0.853134    1.166750
  N     -1.803049   -1.948007    0.839393
  C     -2.116867   -2.554157    2.033870
  C     -1.598027   -1.825547    3.088667
  N     -0.948629   -0.748684    2.532133
  C     -0.292062    0.328696    3.286157
  C     -1.281418    1.797554    0.148584
  N     -2.285927    1.956675    1.018881
  C     -2.756914    3.232845    0.803519
  C     -2.035337    3.843098   -0.205660
  N     -1.096062    2.925124   -0.617994
  C     -0.143980    3.103511   -1.723278
  C     -0.766048   -0.381096   -1.655630
  C      0.260458   -0.844368   -2.491246
  C     -0.046372   -1.319824   -3.770726
  C     -1.373198   -1.323390   -4.216681
  C     -2.397484   -0.848582   -3.385446
  C     -2.096597   -0.376139   -2.106312
  H      3.015133   -3.588419    0.950867
  H      1.127684   -2.149874    0.324666
  H      3.611920    1.346802    0.836719
  H      5.523435   -0.108811    1.448539
  H     -2.685351   -3.476200    2.075189
  H     -1.626915   -1.974862    4.160538
  H     -0.989449    1.159983    3.434213
  H      0.024643   -0.068382    4.253803
  H      0.579811    0.681979    2.731277
  H     -3.576271    3.644219    1.381621
  H     -2.097267    4.826581   -0.653846
  H      0.811829    2.647123   -1.454044
  H     -0.006879    4.173808   -1.894990
  H     -0.531931    2.632422   -2.633538
  H      1.292165   -0.824618   -2.148351
  H      0.749869   -1.681397   -4.418960
  H     -1.610476   -1.689031   -5.214418
  H     -3.428100   -0.843684   -3.736105
  H     -2.891081   -0.003579   -1.462920
