49
  Isotropic shielding for P: 234.252 ppm
  C     -2.236677   -1.379577    2.160300
  C     -2.656112   -0.361769    1.089986
  N     -2.553890   -0.852771   -0.299686
  P     -1.276705   -0.407128   -1.261166
  O     -1.431051   -0.967825   -2.644783
  C      0.301492   -0.648908   -0.469895
  C      0.898079    0.538782   -0.271419
  C      0.100086    1.757713   -0.731336
  O     -1.209983    1.224642   -1.172301
  C     -0.196899    2.774126    0.407044
  C      0.715701    4.009128    0.329800
  C      0.496844    4.786039   -0.993753
  C      0.163609    3.839394   -2.180649
  C      0.757662    2.442258   -1.954185
  Se     2.634178    0.819591    0.513100
  C      3.053965   -1.063438    0.788182
  C      3.704694   -1.780893   -0.223026
  C      3.957379   -3.146487   -0.045032
  C      3.560953   -3.786762    1.135533
  C      2.914470   -3.061308    2.143824
  C      2.659157   -1.695208    1.973807
  C     -3.562063   -1.832178   -0.768748
  C     -3.110676   -3.299439   -0.711854
  H     -2.888745   -2.261100    2.156893
  H     -1.203565   -1.711773    1.997339
  H     -2.299392   -0.917825    3.155369
  H     -3.696240   -0.044750    1.259250
  H     -2.036751    0.537053    1.176577
  H      0.710089   -1.622135   -0.223265
  H     -1.240743    3.091166    0.288232
  H     -0.120876    2.276542    1.380963
  H      1.767413    3.700920    0.416296
  H      0.518561    4.661451    1.190048
  H     -0.322500    5.506814   -0.865509
  H      1.398693    5.370093   -1.221882
  H      0.540960    4.259079   -3.121792
  H     -0.925164    3.745632   -2.295618
  H      1.839985    2.520451   -1.784594
  H      0.616545    1.789063   -2.823952
  H      3.999088   -1.283617   -1.144705
  H      4.458440   -3.708384   -0.831616
  H      3.754072   -4.849887    1.268806
  H      2.603544   -3.557042    3.061965
  H      2.146312   -1.131633    2.750054
  H     -3.843597   -1.578746   -1.797212
  H     -4.453264   -1.685299   -0.144224
  H     -3.913390   -3.950572   -1.086101
  H     -2.867591   -3.609506    0.310912
  H     -2.225798   -3.453979   -1.341581
