50
  Isotropic shielding for P: 196.499 ppm
  C      3.420737    3.028701    2.696782
  C      2.895016    1.619882    2.382744
  C      2.765073    1.364939    0.863466
  C      2.180527    0.007234    0.539959
  C      2.951419   -1.019158    0.089873
  C      2.504398   -2.409159   -0.280666
  C      1.995132   -2.513413   -1.746075
  C      3.045050   -2.121107   -2.796645
  C      0.749356   -0.190368    0.703979
  N     -0.056051    0.778968    1.006445
  P     -1.716094    0.521818    1.240789
  S     -2.207289    0.711048    3.153677
  C     -2.482776    1.770632    0.163628
  C     -3.882187    1.899498    0.182900
  C     -4.510055    2.833152   -0.643856
  C     -3.744805    3.646844   -1.491392
  C     -2.351700    3.520147   -1.511777
  C     -1.717994    2.581633   -0.688396
  C     -2.177857   -1.089472    0.515846
  C     -2.434229   -2.197100    1.337007
  C     -2.701114   -3.446323    0.767043
  C     -2.709007   -3.594888   -0.624903
  C     -2.448896   -2.491690   -1.448348
  C     -2.182987   -1.242398   -0.882284
  H      4.408867    3.193450    2.243805
  H      2.740415    3.797603    2.303819
  H      3.516451    3.185243    3.779575
  H      1.915782    1.476188    2.859781
  H      3.569659    0.863861    2.811762
  H      2.128073    2.148095    0.427382
  H      3.755745    1.451401    0.396346
  H      4.010885   -0.803745   -0.065143
  H      1.709261   -2.762148    0.387983
  H      3.355364   -3.093978   -0.156172
  H      1.667752   -3.549013   -1.917287
  H      1.104792   -1.876676   -1.851097
  H      3.345120   -1.069840   -2.691661
  H      3.948896   -2.739089   -2.698773
  H      2.651306   -2.257404   -3.812394
  H      0.373791   -1.207033    0.540444
  H     -4.477389    1.273344    0.845376
  H     -5.594428    2.928549   -0.626664
  H     -4.235239    4.377275   -2.132888
  H     -1.754701    4.150558   -2.168697
  H     -0.636037    2.481165   -0.705211
  H     -2.429059   -2.074364    2.418034
  H     -2.903719   -4.301573    1.409586
  H     -2.918716   -4.567094   -1.068026
  H     -2.454533   -2.603948   -2.531190
  H     -1.981610   -0.390444   -1.528485
