60
  Isotropic shielding for P: 155.535 ppm
  C      0.120720   -2.757546   -3.766831
  O     -0.002622   -2.272234   -2.410713
  C     -0.300771   -3.169920   -1.414172
  C     -0.388416   -4.554890   -1.604153
  C     -0.715144   -5.382857   -0.521832
  C     -0.951129   -4.841717    0.744623
  C     -0.854544   -3.456870    0.926862
  C     -0.526527   -2.609113   -0.135891
  C     -0.489435   -1.117440    0.078745
  P     -2.113763   -0.369727   -0.626091
  O     -2.922286   -1.268236   -1.523282
  S     -3.343863    0.083159    1.039134
  C     -2.307751    1.280317    2.058769
  C     -2.143874    0.714913    3.473670
  C     -2.953944    2.668038    2.035634
  S     -1.408042    1.431913   -1.499169
  C     -3.047800    2.198397   -2.020952
  C     -3.550213    1.594657   -3.334791
  C     -2.822788    3.712497   -2.109177
  N      0.694722   -0.464155   -0.438834
  C      1.317333    0.546695    0.235431
  O      1.025407    0.930959    1.367389
  O      2.311193    1.079168   -0.539054
  C      3.168876    2.082537    0.116976
  C      4.197207    1.434110    1.010296
  C      5.184505    0.599886    0.458717
  C      6.134303   -0.014220    1.280309
  C      6.112827    0.206974    2.664512
  C      5.136826    1.042439    3.220490
  C      4.181151    1.648557    2.396079
  H      0.299643   -1.869233   -4.377199
  H     -0.805851   -3.252605   -4.084828
  H      0.966147   -3.451755   -3.859149
  H     -0.210702   -4.991677   -2.582133
  H     -0.783146   -6.458061   -0.679644
  H     -1.204954   -5.486835    1.583150
  H     -1.037534   -3.020282    1.907623
  H     -0.535012   -0.905035    1.149486
  H     -1.329439    1.320795    1.569730
  H     -3.115545    0.602035    3.972584
  H     -1.644775   -0.260834    3.457851
  H     -1.533187    1.406896    4.070518
  H     -2.342378    3.362698    2.629056
  H     -3.961268    2.642625    2.471781
  H     -3.025498    3.058807    1.015400
  H     -3.746508    1.975822   -1.206108
  H     -4.513060    2.056620   -3.597178
  H     -3.694612    0.513388   -3.247046
  H     -2.842379    1.791147   -4.150735
  H     -2.064390    3.956137   -2.865225
  H     -2.505825    4.131266   -1.147238
  H     -3.763731    4.196301   -2.405215
  H      0.990814   -0.686120   -1.384914
  H      3.636085    2.596460   -0.728833
  H      2.538735    2.783742    0.671778
  H      5.206351    0.431989   -0.617712
  H      6.894814   -0.659289    0.842720
  H      6.854452   -0.268498    3.304665
  H      5.115600    1.217868    4.295078
  H      3.414500    2.289137    2.829147
