66
  Isotropic shielding for P: 252.552 ppm
  C     -4.091633    0.571063    4.571559
  O     -3.257807    0.437372    3.404659
  C     -3.123081   -0.818568    2.851418
  C     -3.744817   -1.959618    3.362048
  C     -3.560840   -3.218720    2.761991
  C     -2.743032   -3.288459    1.641706
  C     -2.115245   -2.164571    1.106021
  C     -2.277362   -0.888577    1.693384
  N     -1.703233    0.274772    1.239071
  P     -0.474194    0.497217    0.255453
  C      0.871766   -0.622948    0.753906
  C      1.881217   -1.325204    0.046556
  N      2.460748   -0.898913   -1.082489
  C      2.484420    0.508810   -1.544786
  C      3.789982    0.603729   -2.344375
  C      3.888571   -0.789497   -2.996900
  C      3.398408   -1.735873   -1.889676
  C      2.344650   -2.670997    0.559984
  C      0.742776   -0.940870    2.124476
  N      0.667745   -1.150968    3.276071
  N     -0.173035    2.141021    0.403013
  C     -0.048446    2.711793    1.757092
  C      1.438148    2.728842    2.186964
  O      2.320136    2.806518    1.037614
  C      1.766821    3.652079    0.012778
  C      0.482790    3.012463   -0.590752
  N     -0.718813    0.308793   -1.405531
  C     -1.816670    1.151194   -1.979960
  C     -2.079684    0.728914   -3.440546
  O     -0.853981    0.331711   -4.081032
  C     -0.360345   -0.907834   -3.514570
  C     -0.720278   -1.037590   -2.021340
  Cl    -2.477356   -4.864576    0.849925
  H     -3.706963   -0.031711    5.406880
  H     -4.058575    1.631566    4.836592
  H     -5.128623    0.275270    4.356324
  H     -4.380426   -1.893197    4.240023
  H     -4.047182   -4.102028    3.166165
  H     -1.481860   -2.275885    0.233856
  H      2.447732    1.160055   -0.668491
  H      1.620042    0.713566   -2.183230
  H      3.760281    1.419429   -3.074331
  H      4.638848    0.772029   -1.668080
  H      3.224527   -0.847157   -3.869056
  H      4.902765   -1.043948   -3.321733
  H      2.878133   -2.620789   -2.272675
  H      4.230802   -2.068794   -1.256882
  H      1.814335   -2.953052    1.469953
  H      3.424646   -2.670564    0.757670
  H      2.151356   -3.441651   -0.198308
  H     -0.647298    2.131392    2.462191
  H     -0.456306    3.732249    1.728307
  H      1.711691    1.800736    2.700530
  H      1.626770    3.581952    2.860691
  H      2.540431    3.761513   -0.754554
  H      1.546692    4.648748    0.427587
  H      0.714466    2.440550   -1.487133
  H     -0.213793    3.817236   -0.878827
  H     -2.747403    1.045416   -1.399060
  H     -1.511787    2.199685   -1.949111
  H     -2.815599   -0.088826   -3.491288
  H     -2.473026    1.580120   -4.006075
  H      0.723343   -0.891769   -3.664905
  H     -0.782302   -1.766669   -4.063257
  H      0.004542   -1.689243   -1.533502
  H     -1.708383   -1.508941   -1.909607
