51
  Isotropic shielding for P: 248.443 ppm
  C     -4.227267    2.661150   -0.815567
  C     -4.285026    1.611550    0.302567
  C     -3.139225    0.580746    0.269070
  N     -1.782340    1.211947    0.209748
  C     -1.158693    2.043001    1.135832
  N      0.034324    2.482995    0.829364
  N      0.361056    2.003364   -0.473776
  P     -0.838809    0.992495   -1.188201
  O     -1.408010    1.416648   -2.499648
  C     -0.238728   -0.702463   -1.205399
  C      0.141824   -1.315371    0.001478
  C      0.651645   -2.613057   -0.008558
  C      0.787871   -3.302205   -1.220219
  C      0.415006   -2.692854   -2.423829
  C     -0.099006   -1.392964   -2.419931
  S      1.956157    2.113845   -1.015484
  O      2.525340    3.308663   -0.408488
  O      1.848596    1.987960   -2.465512
  C      2.776792    0.670666   -0.388072
  C      2.989391    0.542686    0.989699
  C      3.576092   -0.626689    1.473368
  C      3.957298   -1.664616    0.604811
  C      3.749362   -1.495410   -0.774313
  C      3.155412   -0.340209   -1.278309
  C      4.537767   -2.950479    1.140181
  C     -1.784599    2.481119    2.421162
  C     -3.246794   -0.469271    1.383510
  H     -4.225995    2.184439   -1.804487
  H     -5.097563    3.327321   -0.759873
  H     -3.324022    3.279488   -0.743503
  H     -4.318153    2.100876    1.284265
  H     -5.217338    1.034917    0.218894
  H     -3.217742    0.050206   -0.690954
  H      0.050948   -0.777734    0.941634
  H      0.953553   -3.083625    0.924616
  H      1.192984   -4.312730   -1.226007
  H      0.525645   -3.228609   -3.364922
  H     -0.389296   -0.911130   -3.350356
  H      2.696128    1.336153    1.672052
  H      3.739402   -0.736680    2.544412
  H      4.040720   -2.286705   -1.463080
  H      2.977084   -0.227032   -2.342879
  H      3.754576   -3.720991    1.204413
  H      4.955178   -2.814255    2.144353
  H      5.322062   -3.339789    0.479117
  H     -1.051693    3.071252    2.978829
  H     -2.668508    3.102593    2.235221
  H     -2.094911    1.625954    3.030577
  H     -3.256298   -0.011958    2.378661
  H     -2.416605   -1.181861    1.331508
  H     -4.185394   -1.023544    1.259621
