50
  Isotropic shielding for P: 271.694 ppm
  C      0.108187    3.218022    0.864828
  C     -1.296880    3.276598    1.482601
  C     -1.775429    1.958820    2.108908
  N     -1.891243    0.814609    1.148730
  C     -2.990856    0.797845    0.281115
  O     -3.812939    1.720515    0.305575
  C     -3.129328   -0.358311   -0.643424
  C     -4.024936   -0.222139   -1.717628
  C     -4.258790   -1.271481   -2.601822
  C     -3.592816   -2.488422   -2.406308
  C     -2.698266   -2.647485   -1.348326
  C     -2.445846   -1.585926   -0.462328
  N     -1.536357   -1.741163    0.607992
  P     -0.725544   -0.413837    1.228438
  O     -0.085717   -0.605707    2.562998
  C      0.553925    0.006152   -0.082336
  O      0.212566    0.171654   -1.254916
  N      1.823723    0.070244    0.425488
  C      3.028086    0.370825   -0.225027
  C      3.114728    0.600477   -1.614382
  C      4.348064    0.895279   -2.184985
  C      5.488482    0.961650   -1.376217
  C      5.418239    0.735820    0.005445
  C      4.189308    0.440748    0.575302
  N      6.783802    1.273835   -1.986299
  O      6.832170    1.455845   -3.220253
  O      7.787505    1.345113   -1.247307
  C     -1.186691   -3.078880    1.129025
  C     -2.373801   -3.805446    1.744667
  Br    -3.184936   -2.753495    3.243571
  H      0.837588    2.793873    1.568443
  H      0.120845    2.612637   -0.048872
  H      0.450029    4.224514    0.591689
  H     -1.312057    4.019255    2.294383
  H     -2.025159    3.613452    0.734876
  H     -2.764765    2.089066    2.559609
  H     -1.083696    1.639270    2.894303
  H     -4.537381    0.729002   -1.836978
  H     -4.952199   -1.147509   -3.430673
  H     -3.762403   -3.322012   -3.085622
  H     -2.186745   -3.596421   -1.224843
  H      1.881591   -0.094650    1.432227
  H      2.226836    0.546718   -2.231294
  H      4.429350    1.073579   -3.252375
  H      6.313944    0.791770    0.615253
  H      4.113834    0.262290    1.646367
  H     -0.777124   -3.710400    0.327397
  H     -0.396746   -2.948339    1.872698
  H     -3.195514   -3.964260    1.045936
  H     -2.059038   -4.753596    2.184347
