52
  Isotropic shielding for P: 194.883 ppm
  C      7.909438    0.134385   -0.604682
  C      6.420326    0.020325   -0.366867
  C      5.507023    0.798549   -1.097848
  C      4.133035    0.728005   -0.856862
  C      3.641445   -0.148245    0.120185
  C      4.533596   -0.942935    0.852751
  C      5.906080   -0.848692    0.610248
  N      2.237516   -0.231060    0.365640
  C      1.643492   -0.443583    1.607622
  C      0.276832   -0.442007    1.440335
  C      0.016505   -0.231607    0.040841
  C      1.248754   -0.102767   -0.586277
  P     -1.567301   -0.021171   -0.754079
  S     -1.420589    0.045307   -2.735641
  N     -2.508062   -1.250883   -0.093418
  C     -1.945474   -2.628942   -0.067125
  C     -3.044127   -3.612797    0.381920
  O     -3.881023   -3.013847    1.387551
  C     -4.666982   -1.921421    0.839812
  C     -3.962806   -1.242615   -0.348082
  N     -2.338017    1.355326   -0.143677
  C     -2.537880    1.485787    1.318610
  C     -3.706932    2.435341    1.579330
  O     -3.485981    3.726293    0.971886
  C     -3.290234    3.589848   -0.453649
  C     -2.111733    2.671770   -0.773947
  H      8.126205    0.420214   -1.641186
  H      8.421008   -0.811506   -0.387980
  H      8.351767    0.902872    0.047250
  H      5.875721    1.481629   -1.862525
  H      3.447004    1.359967   -1.416160
  H      4.158085   -1.644658    1.594037
  H      6.588780   -1.475495    1.183185
  H      2.247080   -0.547902    2.499124
  H     -0.459366   -0.579504    2.221238
  H      1.482507    0.039864   -1.631363
  H     -1.570661   -2.937246   -1.058288
  H     -1.108530   -2.649955    0.637363
  H     -3.653449   -3.944932   -0.473546
  H     -2.586247   -4.497394    0.837263
  H     -4.803791   -1.212649    1.665245
  H     -5.654018   -2.294836    0.519647
  H     -4.312765   -0.210866   -0.439423
  H     -4.197468   -1.756501   -1.293665
  H     -2.760323    0.504362    1.746944
  H     -1.625846    1.878364    1.800044
  H     -4.639494    1.995146    1.185854
  H     -3.818112    2.614977    2.654929
  H     -4.210168    3.191154   -0.915788
  H     -3.101891    4.599735   -0.835981
  H     -2.025889    2.541137   -1.856976
  H     -1.176738    3.125356   -0.399222
