49
  Isotropic shielding for P: 239.255 ppm
  C      3.749558    3.332322   -1.533556
  C      3.364168    2.580698   -0.249919
  C      3.223164    1.063716   -0.455393
  C      2.708356    0.326836    0.790578
  C      2.587404   -1.193515    0.589842
  C      2.042118   -1.953926    1.816655
  C      0.592222   -1.590072    2.197997
  C     -0.441674   -2.059102    1.146037
  P     -1.914052   -0.981196    1.117569
  O     -2.572613   -0.786060    2.466434
  C     -1.307808    0.592625    0.417067
  C     -0.750251    0.655350   -0.871104
  C     -0.264892    1.867081   -1.368132
  C     -0.331855    3.025302   -0.583060
  C     -0.887045    2.968517    0.699954
  C     -1.374686    1.755311    1.199184
  C     -3.059232   -1.664147   -0.126599
  C     -4.423749   -1.347949   -0.003605
  C     -5.346291   -1.825349   -0.939019
  C     -4.914309   -2.624716   -2.005136
  C     -3.557595   -2.945815   -2.131651
  C     -2.632098   -2.468217   -1.197248
  H      4.705522    2.967034   -1.935998
  H      2.985895    3.193527   -2.312168
  H      3.852286    4.411044   -1.352839
  H      4.116961    2.771817    0.531386
  H      2.412989    2.978783    0.133382
  H      2.531183    0.875797   -1.291616
  H      4.196998    0.644507   -0.758273
  H      3.380855    0.526711    1.641352
  H      1.730765    0.748273    1.063029
  H      1.950255   -1.388835   -0.286964
  H      3.578523   -1.601212    0.337528
  H      2.104249   -3.037416    1.630546
  H      2.692900   -1.747939    2.680680
  H      0.339283   -2.038876    3.166770
  H      0.522964   -0.503448    2.341502
  H     -0.771302   -3.088429    1.340170
  H     -0.009187   -2.041844    0.138151
  H     -0.691096   -0.237126   -1.491229
  H      0.169618    1.908044   -2.365166
  H      0.050613    3.967786   -0.970774
  H     -0.938331    3.866348    1.313920
  H     -1.805176    1.704588    2.197095
  H     -4.760727   -0.733406    0.829044
  H     -6.401139   -1.576133   -0.834972
  H     -5.633067   -2.998252   -2.732768
  H     -3.218431   -3.570975   -2.956082
  H     -1.582342   -2.728365   -1.309600
