42
  Isotropic shielding for P: 253.442 ppm
  C      6.503486    0.723388   -2.466417
  O      6.236319    0.870289   -1.048218
  C      4.955053    0.726567   -0.608669
  C      4.761319    0.886586    0.778986
  C      3.489088    0.760027    1.317014
  C      2.376538    0.471133    0.494186
  C      2.586565    0.312342   -0.891275
  C      3.855533    0.436386   -1.445596
  C      1.060513    0.349956    1.100785
  N     -0.016322    0.089010    0.431794
  P     -1.502016   -0.035870    1.224215
  O     -1.550802    0.172117    2.718450
  C     -2.549632    1.149465    0.325372
  C     -2.315658    1.488097   -1.018973
  C     -3.168626    2.381434   -1.674983
  C     -4.261024    2.938183   -0.997559
  C     -4.499051    2.601919    0.341048
  C     -3.646864    1.710855    1.001054
  C     -2.085440   -1.691459    0.743245
  C     -1.903376   -2.192982   -0.557884
  C     -2.394903   -3.457113   -0.896050
  C     -3.073809   -4.226585    0.058568
  C     -3.258584   -3.729952    1.354417
  C     -2.766406   -2.465564    1.696819
  H      5.953694    1.476876   -3.045021
  H      6.234110   -0.283553   -2.810070
  H      7.579103    0.880291   -2.574448
  H      5.620670    1.109340    1.408245
  H      3.340585    0.884644    2.389195
  H      1.737567    0.088708   -1.533669
  H      3.989253    0.309598   -2.515343
  H      1.030198    0.497730    2.191933
  H     -1.467889    1.058960   -1.546602
  H     -2.979525    2.644398   -2.714596
  H     -4.923893    3.632927   -1.511061
  H     -5.346220    3.034215    0.871207
  H     -3.827699    1.453032    2.042612
  H     -1.377175   -1.600227   -1.302338
  H     -2.247821   -3.842721   -1.903709
  H     -3.456948   -5.210421   -0.207959
  H     -3.784904   -4.325910    2.098393
  H     -2.904807   -2.076314    2.703309
