50
  Isotropic shielding for P: 288.633 ppm
  O      3.213472   -0.838599    1.240450
  P      2.810111   -0.607221   -0.165410
  O      1.902060   -1.769763   -0.832764
  C      0.676895   -2.126348   -0.200568
  C      0.665942   -2.868754    0.978109
  C     -0.563176   -3.066426    1.620867
  C     -1.728758   -2.462912    1.133820
  C     -1.693502   -1.717108   -0.054914
  C     -2.842591   -0.830773   -0.419070
  C     -2.734844    0.601945   -0.171896
  C     -1.472351    1.137923    0.423560
  C     -0.285418    1.090962   -0.317928
  C      0.936707    1.175125    0.338504
  O      2.090175    0.827941   -0.418698
  C      1.022953    1.500781    1.690089
  C     -0.170982    1.687226    2.400363
  C     -1.410258    1.466654    1.786982
  N     -3.757473    1.414234   -0.376214
  C     -4.917182    0.872785   -0.863608
  C     -5.021554   -0.535330   -1.111053
  N     -3.965284   -1.370399   -0.861144
  C     -6.236864   -1.068300   -1.610906
  C     -7.307084   -0.228430   -1.857422
  C     -7.204235    1.166231   -1.610995
  C     -6.031767    1.710895   -1.120877
  C     -0.491737   -1.635335   -0.770221
  O      3.950857   -0.581529   -1.284520
  C      5.162971    0.124031   -1.043644
  C      5.275356    1.434708   -1.502803
  C      6.488518    2.107032   -1.310921
  C      7.557628    1.467754   -0.670673
  C      7.417986    0.148315   -0.221390
  C      6.211474   -0.536859   -0.406917
  H      1.592740   -3.249987    1.397543
  H     -0.598140   -3.646937    2.540666
  H     -2.656433   -2.532114    1.698541
  H     -0.302206    0.891621   -1.382749
  H      1.990079    1.569986    2.179634
  H     -0.129148    1.947116    3.456338
  H     -2.325490    1.504191    2.374483
  H     -6.297965   -2.139964   -1.792285
  H     -8.239991   -0.635538   -2.243080
  H     -8.059901    1.808614   -1.810941
  H     -5.935579    2.777551   -0.925787
  H     -0.439696   -1.110592   -1.716694
  H      4.432965    1.912039   -1.997471
  H      6.594394    3.131328   -1.663580
  H      8.498077    1.995644   -0.524183
  H      8.247509   -0.352343    0.274595
  H      6.080943   -1.560972   -0.065720
