59
  Isotropic shielding for P: 253.292 ppm
  C      2.414299    2.092431   -3.684168
  O      2.292000    1.205597   -2.543738
  C      1.030812    1.137937   -1.961028
  C      0.967735    0.278968   -0.821880
  P     -0.621941    0.102920   -0.127337
  C     -0.722295   -1.305511    1.023926
  C     -0.591915   -1.110475    2.408097
  C     -0.686855   -2.197431    3.279936
  C     -0.911378   -3.484036    2.778232
  C     -1.042976   -3.681193    1.399404
  C     -0.953328   -2.597589    0.524290
  C     -1.833538   -0.240523   -1.446961
  C     -3.135417    0.278480   -1.413149
  C     -4.045894   -0.048493   -2.423793
  C     -3.663566   -0.894728   -3.470353
  C     -2.362059   -1.411052   -3.507724
  C     -1.449082   -1.084447   -2.502872
  C     -1.187586    1.553681    0.819037
  C     -0.427208    2.731045    0.768175
  C     -0.822178    3.853618    1.501850
  C     -1.977787    3.805485    2.289889
  C     -2.737146    2.629825    2.347845
  C     -2.343768    1.505415    1.618189
  C      2.233894   -0.246488   -0.176913
  N      2.243619   -1.706753    0.073877
  C      2.471294   -2.411344    1.228579
  N      2.477343   -3.723723    1.010422
  C      2.245806   -3.869659   -0.349386
  C      2.100546   -2.637057   -0.942785
  C      2.519619    0.574580    1.085077
  O      2.056698    0.385907    2.199477
  O      3.298268    1.635145    0.760621
  C      3.498570    2.628176    1.815709
  O      0.076676    1.783145   -2.439676
  H      3.466832    2.041244   -3.975864
  H      2.146346    3.119658   -3.410268
  H      1.776260    1.758563   -4.510852
  H     -0.408070   -0.119309    2.806601
  H     -0.582979   -2.037059    4.351649
  H     -0.984887   -4.330328    3.459358
  H     -1.214954   -4.679593    1.001787
  H     -1.064242   -2.764387   -0.542462
  H     -3.445083    0.947675   -0.616039
  H     -5.052965    0.363898   -2.392806
  H     -4.373646   -1.146063   -4.256463
  H     -2.054587   -2.063571   -4.323124
  H     -0.433804   -1.470897   -2.543986
  H      0.475156    2.766541    0.164150
  H     -0.224678    4.762533    1.460684
  H     -2.283242    4.678895    2.863736
  H     -3.631517    2.585199    2.966754
  H     -2.928482    0.590791    1.686437
  H      3.047524   -0.041035   -0.875918
  H      2.602439   -1.926610    2.184572
  H      2.191025   -4.845604   -0.818077
  H      1.904477   -2.334520   -1.962045
  H      2.532682    3.032504    2.134830
  H      4.113595    3.405906    1.359084
  H      4.015334    2.173513    2.666985
