64
  Isotropic shielding for P: 217.882 ppm
  C      3.810611    2.768961   -3.028310
  C      4.033805    1.456000   -2.296247
  O      2.929938    1.304570   -1.345343
  C      2.830889    0.114500   -0.688045
  O      3.703687   -0.752468   -0.748489
  C      1.594279    0.047643    0.109537
  C      1.553190   -0.585924    1.362472
  N      2.492503   -1.268975    2.082928
  C      3.071197   -2.328697    1.578191
  N      4.052552   -3.003376    2.201890
  C      4.612064   -2.568095    3.483602
  C      4.643816   -4.199182    1.599403
  S      0.033334   -0.230812    2.164042
  C     -0.559174    0.728205    0.823598
  C      0.380763    0.777273   -0.191115
  C      0.086735    1.377634   -1.513199
  C     -0.340982    2.710018   -1.632899
  C     -0.637022    3.252793   -2.886986
  C     -0.505210    2.472277   -4.042084
  C     -0.074528    1.143979   -3.932377
  C      0.215634    0.601544   -2.678536
  P     -2.288098    1.331117    0.719408
  C     -2.869548    0.853011    2.413398
  C     -2.353342    1.526507    3.537136
  C     -2.833734    1.246328    4.819801
  C     -3.850661    0.298324    4.998498
  C     -4.387041   -0.358354    3.884374
  C     -3.902295   -0.079497    2.600673
  N     -3.009875    0.191114   -0.315328
  C     -3.900085    0.653201   -1.397242
  C     -3.576348   -0.074898   -2.697589
  O     -3.738799   -1.517726   -2.575983
  C     -3.599198   -2.012727   -1.220152
  C     -2.579455   -1.216961   -0.410792
  H      4.623198    2.927736   -3.748969
  H      2.859457    2.755491   -3.574350
  H      3.802519    3.612834   -2.326883
  H      4.024628    0.596710   -2.978053
  H      4.979536    1.448949   -1.740076
  H      2.762259   -2.759771    0.622574
  H      4.005313   -1.755246    3.886596
  H      5.646560   -2.221523    3.348492
  H      4.614788   -3.411992    4.185792
  H      4.534330   -5.056334    2.278102
  H      4.141649   -4.422728    0.653771
  H      5.714517   -4.039237    1.409630
  H     -0.428229    3.325364   -0.740456
  H     -0.963635    4.289082   -2.962233
  H     -0.733230    2.895836   -5.018843
  H      0.028375    0.527652   -4.824274
  H      0.540791   -0.434187   -2.596814
  H     -1.569988    2.274025    3.410994
  H     -2.419322    1.771014    5.679772
  H     -4.227546    0.081301    5.996885
  H     -5.183433   -1.090488    4.013819
  H     -4.330547   -0.585441    1.737666
  H     -3.763159    1.732152   -1.543050
  H     -4.959318    0.488252   -1.135981
  H     -2.542471    0.146626   -2.999947
  H     -4.255322    0.250112   -3.496600
  H     -4.578389   -1.991362   -0.713265
  H     -3.278182   -3.057946   -1.306657
  H     -2.496932   -1.658176    0.591086
  H     -1.587521   -1.295914   -0.886757
