32
  Isotropic shielding for P: 190.338 ppm
  N     -2.581990    2.197415    2.358199
  C     -2.543149    2.320797    1.204164
  C     -2.484994    2.467762   -0.250414
  C     -1.063453    2.282530   -0.841269
  P     -0.226869    0.692034   -0.531505
  N      0.908574    0.267492   -1.567445
  C      2.092614    0.144541   -0.813925
  C      1.949303    0.433659    0.567102
  O      0.611819    0.785858    0.889995
  C      2.982545    0.385942    1.479238
  C      4.254240    0.033980    0.984687
  C      4.432429   -0.256925   -0.373938
  C      3.362062   -0.209582   -1.281749
  O     -1.514887   -0.231215   -0.358295
  C     -1.454246   -1.713804   -0.177945
  C     -2.612548   -2.280991   -0.988539
  C     -1.535966   -2.010856    1.314085
  H     -3.175637    1.740343   -0.693853
  H     -2.853282    3.469990   -0.510666
  H     -1.126206    2.367682   -1.934167
  H     -0.383313    3.068787   -0.492396
  H      2.816351    0.621027    2.528174
  H      5.100412   -0.004263    1.666966
  H      5.423144   -0.522530   -0.739152
  H      3.504088   -0.434809   -2.337097
  H     -0.495457   -2.046946   -0.595047
  H     -2.617337   -3.375535   -0.908229
  H     -2.519954   -2.011119   -2.046974
  H     -3.570195   -1.902840   -0.607164
  H     -1.504770   -3.096631    1.472542
  H     -0.698247   -1.556421    1.853773
  H     -2.475082   -1.625369    1.731046
