37
  Isotropic shielding for P: 227.474 ppm
  C      1.536160   -2.849198    0.517353
  C      0.643947   -1.600169    0.569277
  P      0.722321   -0.566173   -1.005266
  N     -0.055333    0.862860   -0.632386
  O     -0.559067    3.557272   -0.482314
  C     -1.362328    2.752109    0.001703
  C     -1.219026    1.240953   -0.220393
  C     -2.389177    0.390006    0.085022
  C     -2.512389   -0.917019   -0.413661
  C     -3.637279   -1.695757   -0.130850
  C     -4.660787   -1.184701    0.676896
  C     -4.573424    0.124123    1.154359
  C     -3.463173    0.931055    0.848094
  C     -3.431469    2.322223    1.264728
  C     -2.463572    3.183890    0.866722
  C      2.483347   -0.036678   -0.976899
  C      3.427486   -0.842905   -1.635421
  C      4.783389   -0.498262   -1.629293
  C      5.205071    0.666314   -0.977795
  C      4.266323    1.483535   -0.334293
  C      2.912442    1.135218   -0.331606
  H      2.594992   -2.585880    0.414770
  H      1.265067   -3.501611   -0.323061
  H      1.421611   -3.427866    1.443761
  H     -0.402777   -1.883559    0.722587
  H      0.933816   -0.938292    1.396601
  H     -1.737980   -1.324245   -1.058838
  H     -3.712034   -2.702099   -0.538650
  H     -5.527849   -1.797116    0.917174
  H     -5.378742    0.542244    1.757107
  H     -4.257538    2.675540    1.883352
  H     -2.488463    4.238319    1.137111
  H      3.100751   -1.739307   -2.162200
  H      5.506277   -1.130933   -2.142230
  H      6.258578    0.941825   -0.979464
  H      4.589992    2.395518    0.165655
  H      2.180534    1.778364    0.152044
