36
  Isotropic shielding for P: 168.407 ppm
  C      3.128191    2.160110   -0.551717
  C      2.217082    1.507984    0.476465
  O      1.589709    0.359267   -0.153641
  C      0.787306   -0.435355    0.707324
  P     -1.044045   -0.081434    0.502241
  S     -2.206755   -0.946950    1.810012
  O     -1.356459   -0.387172   -1.053109
  C     -1.925792   -1.663518   -1.513720
  C     -3.333088   -1.430896   -2.038450
  O     -0.992060    1.528878    0.515333
  C     -2.227924    2.324814    0.512470
  C     -1.842641    3.775183    0.745634
  O      0.914325   -1.791067    0.369289
  C      2.165544   -2.389523    0.810441
  C      2.151356   -3.855594    0.410203
  H      3.898575    1.457717   -0.894388
  H      3.626228    3.032225   -0.107809
  H      2.551007    2.497479   -1.421640
  H      1.442160    2.208737    0.816705
  H      2.787215    1.164973    1.355912
  H      1.058643   -0.251175    1.763673
  H     -1.919467   -2.379683   -0.685128
  H     -1.245679   -2.016769   -2.296988
  H     -3.732051   -2.368655   -2.449337
  H     -3.333578   -0.676432   -2.835268
  H     -3.995594   -1.095834   -1.231366
  H     -2.719774    2.184826   -0.458602
  H     -2.885398    1.943639    1.303757
  H     -2.747398    4.397498    0.740756
  H     -1.345643    3.894872    1.716199
  H     -1.170712    4.135727   -0.042975
  H      3.003840   -1.854951    0.341183
  H      2.241941   -2.271477    1.903840
  H      2.072069   -3.960102   -0.679117
  H      3.081907   -4.338404    0.736481
  H      1.306961   -4.379041    0.875636
