39
  Isotropic shielding for P: 288.566 ppm
  C     -2.271770   -1.099000   -2.294742
  C     -2.043470   -0.940456   -0.781953
  P     -1.270405    0.716274   -0.319507
  C     -0.515369    0.278884    1.307923
  C     -0.939950    0.769959    2.554335
  C     -0.260777    0.446341    3.735122
  C      0.858876   -0.389896    3.688026
  C      1.302264   -0.892731    2.460057
  C      0.627499   -0.551648    1.282524
  O      1.043156   -1.055377    0.067365
  Si     2.417974   -0.552377   -0.792434
  C      3.899509   -1.556641   -0.215305
  C      2.694046    1.277242   -0.478752
  C      2.002590   -0.925240   -2.580721
  C     -2.777908    1.684856    0.221071
  C     -3.687483    2.066912   -0.960680
  H     -2.947712   -0.331804   -2.692209
  H     -1.323313   -1.020903   -2.841087
  H     -2.711848   -2.080653   -2.519859
  H     -1.353013   -1.714211   -0.430111
  H     -2.983085   -1.058131   -0.223109
  H     -1.812916    1.415146    2.613247
  H     -0.612872    0.840174    4.687182
  H      1.387429   -0.654076    4.602650
  H      2.165651   -1.552569    2.404992
  H      4.787477   -1.323666   -0.820105
  H      3.702364   -2.633683   -0.304365
  H      4.142795   -1.340659    0.833639
  H      2.878961    1.472052    0.586041
  H      3.566112    1.636442   -1.043006
  H      1.818405    1.862585   -0.786299
  H      1.753981   -1.987236   -2.711450
  H      1.141453   -0.329511   -2.909302
  H      2.852699   -0.694046   -3.237314
  H     -3.347961    1.117586    0.971362
  H     -2.408843    2.596579    0.711239
  H     -4.152038    1.183260   -1.414880
  H     -4.496726    2.729021   -0.624617
  H     -3.125776    2.591299   -1.745270
