14
  Isotropic shielding for P: 400.564 ppm
  P      2.737669   -0.185480   -0.414356
  C      0.907584   -0.078648   -0.168281
  C      0.225581    1.145314   -0.066837
  C     -1.168801    1.188275    0.045144
  C     -1.882024   -0.010152    0.063886
  C     -1.235682   -1.243447   -0.037173
  C      0.155922   -1.267463   -0.164852
  Br    -3.806873    0.036494    0.228573
  H      3.030047    1.186575   -0.162023
  H      3.088174   -0.594738    0.909422
  H      0.780254    2.081879   -0.069297
  H     -1.684438    2.141880    0.123910
  H     -1.803764   -2.169937   -0.025977
  H      0.656454   -2.230550   -0.262139
