22
  Isotropic shielding for P: 283.719 ppm
  C     -3.229714    0.158854   -0.349335
  C     -3.080956    0.321779    1.167230
  O     -2.264812   -0.803319    1.552137
  P     -1.080545   -1.113014    0.389152
  O     -1.968007   -0.430490   -0.803383
  O      0.005242   -0.112214    1.163715
  C      1.188266    0.072973    0.446832
  C      1.243500   -0.745821   -0.685948
  O      0.141298   -1.542143   -0.799501
  C      2.347357   -0.711355   -1.531134
  C      3.394019    0.168076   -1.200112
  C      3.327568    0.984369   -0.064000
  C      2.205237    0.947677    0.785614
  H     -4.038231   -0.533728   -0.612976
  H     -3.354515    1.108381   -0.878598
  H     -4.039418    0.253722    1.692251
  H     -2.582821    1.267219    1.428997
  H     -1.162264   -2.476011    0.708949
  H      2.392038   -1.349355   -2.410902
  H      4.271689    0.211209   -1.842217
  H      4.150765    1.655852    0.170202
  H      2.134204    1.572536    1.672928
