14
  Isotropic shielding for P: 33.918 ppm
  Cl     3.422979   -0.171309    1.300327
  P      2.443398    1.095777   -0.090910
  C      0.754630    0.396592   -0.019765
  C     -0.274013    1.330823    0.190028
  C     -1.607718    0.914901    0.261905
  C     -1.877413   -0.441868    0.120252
  C     -0.879863   -1.396914   -0.089127
  C      0.443337   -0.968293   -0.158775
  F     -3.175777   -0.862892    0.188160
  Cl     3.118245    0.234741   -1.908486
  H     -0.038477    2.388774    0.298388
  H     -2.418859    1.620596    0.423484
  H     -1.146760   -2.446028   -0.193555
  H      1.235994   -1.694901   -0.321727
