31
  Isotropic shielding for P: 219.955 ppm
  C      3.678523    0.231225   -2.037699
  C      3.092603   -0.034325   -0.662556
  C      3.042269    1.203876    0.283582
  N      1.864869    1.076917    1.170772
  P      0.839477    0.099841    0.479736
  O      1.683737   -0.479685   -0.810931
  N     -0.678463    0.510762   -0.148610
  C     -1.697530   -0.273749    0.376610
  N     -1.317570   -1.156209    1.259140
  N      0.077806   -1.031196    1.439780
  C      0.719415   -1.912541    2.405807
  C     -3.130028   -0.099460   -0.039166
  C     -3.644782    1.314229    0.315111
  C     -3.320088   -0.416014   -1.539992
  H      3.110551    1.015666   -2.554386
  H      4.718309    0.571487   -1.930913
  H      3.677746   -0.674190   -2.656809
  H      3.624867   -0.859247   -0.166322
  H      2.995976    2.129045   -0.318842
  H      3.965775    1.247221    0.878482
  H     -0.838359    1.231213   -0.842643
  H      0.651165   -2.961735    2.087941
  H      0.251608   -1.800746    3.391926
  H      1.773969   -1.627150    2.482294
  H     -3.692586   -0.836531    0.549468
  H     -3.106610    2.086886   -0.250948
  H     -3.516306    1.523165    1.384243
  H     -4.710617    1.400897    0.069461
  H     -4.382094   -0.352016   -1.808370
  H     -2.961957   -1.425458   -1.776574
  H     -2.771476    0.297818   -2.169793
