26
  Isotropic shielding for P: 310.525 ppm
  C     -3.329031   -1.480320    0.408407
  C     -2.919642   -0.051305    0.016740
  C     -1.430736    0.289036    0.242278
  P     -0.322520   -0.764791   -0.884319
  C      1.341931   -0.363755   -0.192306
  C      2.163633    0.539225   -0.890649
  C      3.424381    0.891568   -0.395947
  C      3.888893    0.332616    0.800000
  C      3.085078   -0.576213    1.500062
  C      1.820766   -0.917774    1.009454
  C     -1.157257    1.779395   -0.021282
  H     -2.861406   -2.233454   -0.238241
  H     -4.416712   -1.607404    0.329053
  H     -3.039369   -1.702379    1.445254
  H     -3.514043    0.665874    0.605299
  H     -3.176141    0.132754   -1.038591
  H     -1.164643    0.055138    1.284098
  H     -0.483155   -1.998704   -0.188878
  H      1.814003    0.966978   -1.829755
  H      4.045981    1.595162   -0.947913
  H      4.873031    0.598705    1.182574
  H      3.442933   -1.018650    2.428878
  H      1.200527   -1.620800    1.563834
  H     -0.116564    2.048309    0.194771
  H     -1.364242    2.041032   -1.068931
  H     -1.805801    2.399659    0.613607
