11
  Isotropic shielding for P: 167.048 ppm
  C     -1.950189   -0.169239    0.078663
  C     -0.445097   -0.131813    0.065843
  N      0.166010    0.918290   -0.480624
  N      1.511595    0.747546   -0.383702
  C      1.960883   -0.381247    0.209670
  P      0.646232   -1.395496    0.732255
  H     -2.328613   -1.049493   -0.457812
  H     -2.354635    0.730849   -0.398601
  H     -2.335421   -0.223617    1.105563
  H      2.096631    1.486065   -0.766123
  H      3.032705   -0.531846    0.294770
