22
  Isotropic shielding for P: 259.560 ppm
  C     -3.229263    0.128909   -0.388949
  C     -2.861046   -0.927083    0.657533
  S     -1.556487   -0.230905    1.761209
  C     -0.664441    0.811323    0.495203
  P     -1.661656    0.838882   -1.121679
  C      0.773702    0.417217    0.238558
  C      1.754269    1.416492    0.134232
  C      3.084022    1.088407   -0.155149
  C      3.451723   -0.247876   -0.340546
  C      2.480074   -1.252422   -0.232429
  C      1.153691   -0.921982    0.052604
  H     -3.838996   -0.298489   -1.197983
  H     -3.795668    0.951286    0.066469
  H     -2.492963   -1.841202    0.176565
  H     -3.705952   -1.187316    1.308206
  H     -0.685233    1.834262    0.886412
  H     -1.160528   -0.404357   -1.612656
  H      1.472076    2.458899    0.280818
  H      3.831092    1.877258   -0.230025
  H      4.485996   -0.507194   -0.560619
  H      2.758577   -2.296497   -0.368549
  H      0.406911   -1.707512    0.150869
