21
  Isotropic shielding for P: 234.476 ppm
  C     -4.446677   -0.816076   -0.075601
  O     -3.070865   -0.947277   -0.547495
  C     -2.140760   -0.222368    0.130409
  O     -2.400464    0.493736    1.082236
  C     -0.759616   -0.432463   -0.472387
  C      0.336331    0.305098    0.308651
  P      1.969482    0.072025   -0.451578
  O      2.072308    0.384506   -1.909834
  O      2.888831    0.950995    0.551785
  C      4.326343    1.012949    0.306515
  H     -4.523347   -1.152928    0.963667
  H     -5.036223   -1.455774   -0.735664
  H     -4.773412    0.226510   -0.149729
  H     -0.569278   -1.514163   -0.514933
  H     -0.790021   -0.091130   -1.516215
  H      0.141738    1.385230    0.330042
  H      0.388511   -0.040207    1.349329
  H      2.353379   -1.265752   -0.156780
  H      4.525115    1.466804   -0.670583
  H      4.764788    0.006721    0.349826
  H      4.743839    1.633361    1.103533
