23
  Isotropic shielding for P: 296.276 ppm
  C      3.572350    1.045485    0.276560
  C      2.427976    0.468872   -0.575179
  C      1.824986   -0.818664    0.021243
  P      0.426835   -1.575433   -0.993965
  C     -1.037719   -0.643163   -0.429306
  C     -1.042488    0.474531    0.457579
  C     -2.229532    1.056356    0.897039
  C     -3.482396    0.565392    0.488075
  C     -3.518086   -0.526876   -0.384876
  C     -2.330188   -1.119955   -0.829864
  Li    -1.204104   -2.729420    0.278689
  H      3.993443    1.953152   -0.177627
  H      4.387374    0.315764    0.387870
  H      3.221292    1.306792    1.285355
  H      2.791483    0.251823   -1.590554
  H      1.639089    1.225998   -0.692630
  H      2.606723   -1.591593    0.074777
  H      1.499144   -0.638897    1.057422
  H     -0.098476    0.892245    0.798080
  H     -2.181371    1.912463    1.570623
  H     -4.402332    1.028323    0.838772
  H     -4.473161   -0.921839   -0.730836
  H     -2.390842   -1.931457   -1.564947
