31
  Isotropic shielding for P: 269.477 ppm
  C      3.917769   -0.018974    1.025038
  C      3.520746    1.145002    0.129253
  O      2.133994    0.975537   -0.354471
  C      1.960889    0.199896   -1.435563
  O      2.828944   -0.318831   -2.101638
  C      0.434232    0.045298   -1.702726
  P     -0.446363   -0.629228   -0.177178
  O      0.346301   -1.768429    0.344599
  O     -1.940176   -0.907635   -0.663951
  C     -2.414431   -2.269558   -1.000729
  C     -3.326945   -2.773203    0.103819
  O     -0.587243    0.591440    0.825830
  C     -1.743968    1.507263    0.929280
  C     -1.227663    2.851269    1.407402
  Cl    -0.227185    1.674974   -2.192764
  Cl     0.178652   -1.130946   -3.039430
  H      4.924895    0.163176    1.423631
  H      3.933192   -0.961115    0.466164
  H      3.222934   -0.117836    1.867271
  H      4.177188    1.242797   -0.741123
  H      3.483812    2.092331    0.674589
  H     -1.546950   -2.921698   -1.139433
  H     -2.937323   -2.156822   -1.955707
  H     -2.774642   -2.878980    1.045375
  H     -3.726419   -3.757590   -0.176106
  H     -4.170443   -2.089255    0.259035
  H     -2.440733    1.053752    1.643494
  H     -2.231782    1.581970   -0.046438
  H     -0.533273    3.282765    0.677184
  H     -2.074065    3.539653    1.534046
  H     -0.713743    2.753074    2.371350
