11
  Isotropic shielding for P: 346.999 ppm
  C      2.573679   -0.982576    0.171826
  C      1.471455   -0.607088   -0.169058
  P     -0.099976   -0.116322   -0.786730
  O     -0.292977   -0.334563   -2.247429
  C     -1.238074   -0.974243    0.242993
  C     -2.067287   -1.594649    0.875121
  C     -0.247343    1.556306   -0.264772
  C     -0.376662    2.731598    0.007376
  H      3.549024   -1.302131    0.478185
  H     -2.792391   -2.145290    1.439225
  H     -0.479546    3.768957    0.253367
