58
  Isotropic shielding for P: 310.588 ppm
  C      2.679700    0.217087   -3.477687
  O      2.139590   -0.282967   -2.218102
  C      2.146452    0.598917   -1.194095
  O      2.580220    1.735804   -1.250546
  C      1.506290   -0.001382    0.031918
  C      2.250345   -0.463047    1.052019
  C      3.733273   -0.527275    1.011956
  O      4.439608   -0.376563    0.025683
  O      4.220558   -0.806695    2.256036
  C      5.671907   -0.897973    2.355391
  P     -0.345727    0.045995    0.088696
  O     -0.418621   -0.991796    1.435501
  C     -1.409229   -2.043977    1.313905
  C     -1.349894   -2.387291   -0.212237
  O     -1.131437   -1.068298   -0.834198
  C     -2.645605   -2.947488   -0.798314
  C     -0.154761   -3.270314   -0.596830
  C     -2.778793   -1.497950    1.758684
  C     -0.981014   -3.194225    2.228707
  O     -0.359612    1.090954   -1.258146
  C     -1.274580    2.207022   -1.138456
  C     -1.192263    2.542283    0.389319
  O     -1.056183    1.209827    1.011557
  C     -2.452514    3.175648    0.978289
  C      0.054724    3.350063    0.771952
  C     -2.677291    1.754417   -1.585291
  C     -0.762561    3.324016   -2.051137
  H      2.094445    1.078547   -3.816627
  H      3.728023    0.505489   -3.348615
  H      2.587868   -0.615949   -4.177633
  H      1.772538   -0.825411    1.955818
  H      6.131247    0.047822    2.048483
  H      6.043013   -1.708971    1.719194
  H      5.874024   -1.105879    3.408214
  H     -2.513113   -3.153482   -1.867140
  H     -3.476872   -2.246234   -0.681573
  H     -2.906317   -3.888998   -0.298628
  H     -0.040862   -3.257441   -1.686929
  H      0.774981   -2.906609   -0.148706
  H     -0.315990   -4.307025   -0.278765
  H     -3.532378   -2.294155    1.781442
  H     -2.679809   -1.084958    2.769017
  H     -3.133359   -0.699189    1.098907
  H      0.049940   -3.501184    2.029578
  H     -1.051535   -2.877134    3.276121
  H     -1.640250   -4.060502    2.089206
  H     -2.305852    3.374418    2.046638
  H     -3.322775    2.522846    0.864188
  H     -2.661227    4.130266    0.478999
  H      0.960208    2.940121    0.313520
  H      0.170408    3.327091    1.862168
  H     -0.049770    4.396300    0.460809
  H     -3.084692    0.981149   -0.925523
  H     -3.375829    2.599377   -1.609662
  H     -2.604273    1.335457   -2.595383
  H      0.290162    3.545700   -1.856232
  H     -1.352606    4.238075   -1.906584
  H     -0.862532    3.015774   -3.098869
