32
  Isotropic shielding for P: 234.183 ppm
  C      3.822352   -0.739218    0.154344
  C      2.322735   -0.742733    0.058257
  C      1.595115   -1.740915   -0.468738
  C      0.096382   -1.632235   -0.642639
  C     -0.511152   -0.300379   -0.096610
  C      0.245393    0.063308    1.226007
  C      1.576956    0.492614    0.528424
  P      0.519444    1.061085   -0.905767
  O      0.949129    0.971567   -2.344609
  C     -0.036602    2.751752   -0.468049
  C     -2.054460   -0.365832   -0.097384
  C     -2.760425    1.000823   -0.068318
  C     -2.569732   -1.238753    1.069771
  H      4.243081    0.089937   -0.435942
  H      4.154854   -0.586844    1.192898
  H      4.251629   -1.677300   -0.217233
  H      2.078381   -2.650054   -0.828743
  H     -0.157608   -1.723865   -1.710726
  H     -0.399926   -2.478856   -0.142014
  H     -0.230677    0.891016    1.762533
  H      0.371402   -0.782802    1.911364
  H      2.208076    1.219385    1.046618
  H      0.841702    3.401034   -0.574888
  H     -0.416415    2.821795    0.555035
  H     -0.805768    3.083624   -1.171846
  H     -2.343314   -0.860621   -1.038359
  H     -3.848520    0.857941   -0.032211
  H     -2.535425    1.594376   -0.961461
  H     -2.477004    1.586318    0.816490
  H     -3.655767   -1.376817    0.988660
  H     -2.366006   -0.756803    2.035741
  H     -2.107729   -2.232852    1.083499
