38
  Isotropic shielding for P: 203.412 ppm
  C      2.024946   -4.987158    0.290964
  C      1.162738   -4.166895    1.231257
  O      0.510627   -3.110007    0.422764
  P     -0.610750   -2.164914    1.054137
  S     -1.869938   -2.938060    2.286622
  O      0.154094   -0.887841    1.741641
  C      0.824129    0.110067    1.025848
  C      1.765166   -0.190237    0.035117
  C      2.359068    0.854757   -0.669077
  C      2.008157    2.171345   -0.359785
  C      1.091230    2.474194    0.652260
  C      0.496876    1.430529    1.352913
  N      2.625715    3.276360   -1.123272
  O      3.416559    2.983476   -2.037804
  O      2.320997    4.441018   -0.813692
  O     -1.143761   -1.570931   -0.370384
  C     -1.705088   -0.300696   -0.516206
  C     -1.271572    0.438518   -1.621976
  C     -1.747367    1.731924   -1.804922
  C     -2.654567    2.255201   -0.877350
  C     -3.112698    1.507220    0.210217
  C     -2.638775    0.209830    0.391577
  N     -3.141387    3.639690   -1.052698
  O     -2.734409    4.280628   -2.037301
  O     -3.930474    4.093390   -0.204969
  H      1.414285   -5.452113   -0.492252
  H      2.520720   -5.782682    0.862614
  H      2.797643   -4.367982   -0.180548
  H      1.755192   -3.673553    2.011467
  H      0.374579   -4.764901    1.701592
  H      2.010104   -1.221830   -0.195754
  H      3.084252    0.658181   -1.452132
  H      0.844415    3.508188    0.869687
  H     -0.237993    1.622110    2.129663
  H     -0.546048    0.004571   -2.304150
  H     -1.414780    2.338493   -2.640888
  H     -3.827743    1.940300    0.902172
  H     -2.974241   -0.390395    1.232353
