32
  Isotropic shielding for P: 231.024 ppm
  O     -1.015982   -0.185725   -2.370757
  P     -0.980461   -0.026055   -0.877582
  C      0.273008   -0.773562    0.303972
  C      0.290236    0.744451    0.038729
  C      1.290495    1.656775   -0.161999
  C      2.711475    1.767167    0.051944
  C      3.876147    1.007466    0.210321
  C      4.381033   -0.312913    0.488198
  C      3.830331   -1.511515    0.909641
  C      2.436336   -1.779223    0.948026
  C      1.611052   -1.230201    0.011433
  C     -2.662151    0.009948   -0.068968
  C     -2.581260    0.214291    1.454896
  C     -3.367591   -1.321749   -0.409736
  C     -3.408184    1.199500   -0.724287
  H     -0.172183   -1.130564    1.237344
  H      0.908459    2.571844   -0.626379
  H      2.989116    2.816156   -0.077763
  H      4.735119    1.678332    0.123561
  H      5.473358   -0.310867    0.495719
  H      4.523995   -2.238392    1.338932
  H      2.017107   -2.331037    1.794682
  H      2.061445   -0.838836   -0.900544
  H     -2.021011    1.119545    1.716104
  H     -3.602383    0.320091    1.847032
  H     -2.121386   -0.641091    1.962604
  H     -3.415230   -1.482773   -1.492722
  H     -4.394496   -1.294192   -0.019835
  H     -2.851530   -2.175819    0.047153
  H     -2.920147    2.154930   -0.492404
  H     -4.432533    1.234531   -0.328203
  H     -3.462079    1.089485   -1.812914
