23
  Isotropic shielding for P: 185.490 ppm
  C     -1.703574    1.495334    0.442901
  C     -1.437241    0.236638   -0.409689
  P     -0.099783   -0.766235    0.343602
  O     -0.463559   -1.433941    1.625811
  C      1.478424    0.168198    0.390664
  C      2.606174   -0.749143    0.913044
  C      1.837332    0.823693   -0.958117
  F      0.193179   -1.838805   -0.833857
  C     -2.706116   -0.626178   -0.577618
  H     -2.015647    1.221155    1.458464
  H     -2.510771    2.082587   -0.013912
  H     -0.819556    2.140496    0.517060
  H     -1.074817    0.539062   -1.402827
  H      1.295479    0.956463    1.137364
  H      2.818187   -1.554811    0.198934
  H      2.343466   -1.200416    1.875972
  H      3.523552   -0.160636    1.043777
  H      1.069322    1.530048   -1.294099
  H      2.778967    1.378789   -0.854834
  H      1.976551    0.067215   -1.740499
  H     -2.522150   -1.501146   -1.211950
  H     -3.496167   -0.024175   -1.045421
  H     -3.071151   -0.976591    0.395228
