27
  Isotropic shielding for P: 253.990 ppm
  Br     0.926065    0.827449   -2.965443
  C      2.001160    0.515230   -1.376174
  C      3.284155    0.000939   -1.583178
  C      4.117000   -0.229738   -0.485710
  C      3.659218    0.063044    0.803987
  C      2.375488    0.576412    0.985020
  C      1.504834    0.818770   -0.098119
  C      0.116188    1.331180    0.173164
  P     -0.958710   -0.012272    0.960323
  C     -1.254694   -1.199854   -0.462759
  C     -2.717365   -1.632684   -0.243095
  C     -3.562065   -0.356236    0.019381
  C     -2.685970    0.725485    0.729946
  H      3.627709   -0.213038   -2.591745
  H      5.116369   -0.630834   -0.643733
  H      4.301027   -0.108230    1.666269
  H      2.017680    0.798265    1.989572
  H     -0.363541    1.706562   -0.735856
  H      0.156442    2.150016    0.903668
  H     -0.555379   -2.043005   -0.436580
  H     -1.141952   -0.684991   -1.425133
  H     -2.775583   -2.302808    0.627394
  H     -3.101578   -2.194564   -1.105119
  H     -3.930843    0.044392   -0.933575
  H     -4.444313   -0.600836    0.623650
  H     -2.611293    1.633240    0.117684
  H     -3.100245    1.018308    1.700856
