38
  Isotropic shielding for P: 318.798 ppm
  C     -2.220065   -3.894113    0.760606
  C     -2.390161   -2.526185    0.096212
  C     -1.810873   -2.463841   -1.327830
  O     -1.517867   -1.088445   -1.594017
  P     -0.988942   -0.235054   -0.172161
  N     -1.636270   -1.469580    0.772267
  O     -0.554033    0.627386    1.236709
  C     -1.063543    1.964003    1.316641
  C     -1.454820    2.400189   -0.111969
  N     -1.842811    1.122075   -0.716457
  C     -0.320648    3.118821   -0.862928
  N      0.635884   -0.450799   -0.683168
  C      1.857144    0.073484   -0.207635
  C      2.781160    0.583939   -1.141810
  C      4.026932    1.065313   -0.730330
  C      4.372597    1.063282    0.625563
  C      3.459426    0.552555    1.558030
  C      2.220634    0.051080    1.152498
  H     -1.157918   -4.167235    0.810225
  H     -2.756859   -4.665873    0.191177
  H     -2.624741   -3.888585    1.781254
  H     -3.465608   -2.273230    0.058608
  H     -2.523539   -2.824677   -2.079644
  H     -0.890455   -3.072172   -1.385944
  H     -1.845900   -1.259701    1.740374
  H     -1.942774    1.980115    1.980446
  H     -0.284488    2.610776    1.741310
  H     -2.332649    3.061218   -0.063714
  H     -2.101307    1.127340   -1.697487
  H      0.602328    2.526625   -0.846941
  H     -0.602113    3.291026   -1.910715
  H     -0.114302    4.094891   -0.402280
  H      0.665288   -0.710137   -1.664456
  H      2.510005    0.603889   -2.197540
  H      4.722870    1.453823   -1.472927
  H      5.338363    1.446079    0.950358
  H      3.719896    0.528926    2.615707
  H      1.530163   -0.357108    1.882064
