53
  Isotropic shielding for P: 256.351 ppm
  C      3.012748   -2.090585   -1.219030
  C      1.840516   -1.158078   -0.906797
  C      2.025444   -0.428638    0.439737
  O      0.678769   -0.066939    0.902583
  P     -0.564096   -0.817618    0.147214
  N      0.563133   -1.847295   -0.716884
  C      0.079479   -2.656328   -1.836239
  C     -1.309323    0.110210   -1.280255
  C     -1.867312    1.407651   -0.776859
  C     -2.002680    1.422240    0.638057
  O     -1.616448    0.329427    1.280874
  C     -2.529345    2.559166    1.288544
  C     -2.898898    3.663543    0.532472
  C     -2.740806    3.642605   -0.864172
  C     -2.224580    2.513401   -1.526523
  N     -3.116766    4.812206   -1.643737
  O     -2.953238    4.780085   -2.885198
  O     -3.587749    5.805512   -1.045861
  C     -1.529669   -2.191153    0.868209
  C     -2.933612   -2.172830    0.850824
  C     -3.656148   -3.243492    1.383750
  C     -2.983907   -4.320823    1.973650
  C     -1.585386   -4.331806    2.013395
  C     -0.859425   -3.279050    1.447780
  C      2.874227    0.813638    0.366236
  C      4.180023    0.799494    0.874369
  C      4.998736    1.929559    0.762625
  C      4.510177    3.088967    0.151404
  C      3.200909    3.113171   -0.347687
  C      2.389103    1.980958   -0.245315
  H      2.896562   -2.560934   -2.202081
  H      3.090833   -2.880641   -0.460410
  H      3.950201   -1.520640   -1.232079
  H      1.774535   -0.399038   -1.714673
  H      2.438093   -1.130259    1.176940
  H      0.739333   -3.517407   -2.001209
  H      0.019668   -2.085991   -2.781831
  H     -0.918423   -3.045236   -1.606130
  H     -0.540865    0.239444   -2.050386
  H     -2.089188   -0.540045   -1.704351
  H     -2.630961    2.560161    2.371279
  H     -3.302180    4.553358    1.005890
  H     -2.122547    2.526839   -2.607805
  H     -3.466899   -1.327340    0.423994
  H     -4.744161   -3.230300    1.349298
  H     -3.548785   -5.147457    2.401507
  H     -1.057451   -5.163773    2.476459
  H      0.226807   -3.302459    1.447208
  H      4.555983   -0.098845    1.363162
  H      6.011865    1.906408    1.160825
  H      5.141874    3.971990    0.070250
  H      2.812486    4.016061   -0.816137
  H      1.369543    2.008994   -0.624086
