50
  Isotropic shielding for P: 294.579 ppm
  C      0.132863    3.133105    0.548787
  N     -0.196062    1.814043    1.118568
  P     -0.092478    0.392045    0.274406
  O      1.122188   -0.740234    0.673269
  C      2.429307   -0.531118    0.199827
  C      2.192202    0.317446   -1.167126
  O      1.081362    1.081019   -0.877331
  C      1.831019   -0.586342   -2.440409
  F      0.874101   -1.502742   -2.152697
  F      2.911998   -1.243794   -2.941907
  F      1.322057    0.190501   -3.427813
  C      3.369846    1.289430   -1.596481
  F      3.531372    2.306171   -0.718985
  F      3.120216    1.861744   -2.803627
  F      4.550654    0.626140   -1.697355
  C      3.122065   -1.949479    0.063577
  F      2.356417   -2.827037   -0.621599
  F      3.349379   -2.510812    1.280368
  F      4.319386   -1.844814   -0.566432
  C      3.187257    0.267449    1.353533
  F      4.520100    0.372347    1.115986
  F      3.022985   -0.361904    2.545180
  F      2.681150    1.512082    1.522313
  O     -1.095173   -0.482251    1.277998
  C     -2.138122   -1.225027    0.570575
  C     -2.421334   -0.314598   -0.672664
  O     -1.073360    0.199285   -1.012543
  C     -3.301053    0.901837   -0.353704
  C     -2.932665   -1.051616   -1.907725
  C     -1.586010   -2.611599    0.201680
  C     -3.323017   -1.361451    1.527797
  C     -0.560476    1.879335    2.544913
  H      1.135362    3.470737    0.846815
  H     -0.606224    3.852307    0.927116
  H      0.072977    3.122052   -0.539393
  H     -3.257092    1.601492   -1.196310
  H     -4.345102    0.600775   -0.211142
  H     -2.957807    1.419485    0.547363
  H     -3.093150   -0.339557   -2.725751
  H     -3.891188   -1.536613   -1.684554
  H     -2.223263   -1.812221   -2.245309
  H     -1.205203   -3.090481    1.110799
  H     -0.767729   -2.548389   -0.520782
  H     -2.375397   -3.246211   -0.217844
  H     -3.624856   -0.391395    1.933054
  H     -3.047530   -2.015545    2.363444
  H     -4.179744   -1.811353    1.010739
  H      0.182359    2.495501    3.070619
  H     -1.551464    2.341193    2.674005
  H     -0.573223    0.888862    2.996649
