33
  Isotropic shielding for P: 149.450 ppm
  F      0.014976   -2.167477    1.623314
  P      0.007883   -1.461272    0.138080
  N      1.128047   -0.154997    0.364396
  C      2.567007   -0.043497   -0.029547
  C      3.259305   -1.323869    0.474509
  C      2.694343    0.076957   -1.562446
  C      3.165105    1.192490    0.669479
  S     -0.005382    1.097523    0.424844
  O     -0.012554    1.920549   -0.782680
  O     -0.006494    1.803429    1.696679
  N     -1.125495   -0.167259    0.369367
  C     -2.566485   -0.071342   -0.021252
  C     -3.244166   -1.357880    0.487002
  C     -3.175682    1.159653    0.677017
  C     -2.698995    0.044933   -1.554045
  H      3.162559   -1.417336    1.562281
  H      2.830642   -2.219756    0.005346
  H      4.324141   -1.288238    0.214956
  H      3.751640    0.144457   -1.848167
  H      2.175054    0.969439   -1.926977
  H      2.260715   -0.803582   -2.053830
  H      2.693160    2.118079    0.319023
  H      4.235731    1.252251    0.439910
  H      3.040999    1.125134    1.756080
  H     -3.143431   -1.448299    1.574671
  H     -2.807461   -2.250136    0.018346
  H     -4.310041   -1.333836    0.230378
  H     -4.247547    1.207418    0.450475
  H     -2.714700    2.089503    0.323301
  H     -3.047740    1.095812    1.763385
  H     -2.189721    0.941916   -1.921645
  H     -3.757648    0.101257   -1.837159
  H     -2.257869   -0.832125   -2.044992
