70
  Isotropic shielding for P: 95.614 ppm
  Cl     0.008913    3.219583   -0.746602
  P      0.319251    1.662832    0.720701
  Si    -1.585350    0.410705    0.327451
  Si    -1.598604   -0.703455   -1.755551
  C     -0.484317   -2.237578   -1.761236
  C     -3.381136   -1.263664   -2.090211
  C     -1.055117    0.455355   -3.151221
  Si    -3.365355    1.981083    0.384139
  C     -3.630795    2.776535   -1.314808
  C     -4.985314    1.112142    0.855885
  C     -3.006235    3.333824    1.660427
  Si    -1.936277   -1.053082    2.160239
  C     -2.385118   -0.031631    3.693265
  C     -3.376010   -2.202711    1.705964
  C     -0.473127   -2.164527    2.623910
  C      1.652406    0.684455   -0.178481
  C      2.932659    1.506484   -0.372562
  C      3.957491    0.721135   -1.235347
  C      3.650960    0.937272   -2.734817
  C      5.391467    1.225617   -0.949280
  N      3.790576   -0.737742   -0.973332
  C      3.354523   -1.197664    0.365240
  C      1.944027   -0.580603    0.656102
  C      4.340355   -0.859847    1.518061
  C      3.230080   -2.732110    0.281210
  H     -0.653610   -2.812502   -2.683791
  H      0.577811   -1.967206   -1.726191
  H     -0.696765   -2.896482   -0.909452
  H     -3.433487   -1.783102   -3.058597
  H     -4.071443   -0.411795   -2.128254
  H     -3.740080   -1.953873   -1.316769
  H     -1.706020    1.335241   -3.215269
  H     -0.028149    0.811750   -3.008423
  H     -1.101189   -0.076508   -4.113254
  H     -3.918484    2.030872   -2.066731
  H     -4.441229    3.517984   -1.251212
  H     -2.725786    3.284494   -1.665265
  H     -5.223340    0.297218    0.160573
  H     -4.954552    0.695923    1.869894
  H     -5.810644    1.838660    0.816677
  H     -2.853622    2.912706    2.662013
  H     -3.854222    4.032687    1.711683
  H     -2.110044    3.906146    1.391584
  H     -3.298312    0.556196    3.541632
  H     -1.576124    0.664825    3.950790
  H     -2.548492   -0.694942    4.555376
  H     -4.272891   -1.652896    1.400046
  H     -3.637829   -2.826527    2.573514
  H     -3.093408   -2.874338    0.884670
  H     -0.797947   -2.858830    3.413404
  H     -0.119556   -2.761008    1.774370
  H      0.374625   -1.587694    3.011243
  H      1.268758    0.392508   -1.160983
  H      3.361735    1.750559    0.608837
  H      2.715866    2.459517   -0.867737
  H      2.614459    0.663187   -2.964024
  H      3.809345    1.985406   -3.022614
  H      4.308901    0.308911   -3.350416
  H      5.481431    2.295029   -1.186791
  H      6.117357    0.682481   -1.571452
  H      5.668487    1.086643    0.100852
  H      4.636111   -1.236711   -1.254075
  H      1.171120   -1.326362    0.453450
  H      1.882436   -0.348498    1.729101
  H      4.413366    0.217060    1.699524
  H      5.344595   -1.239179    1.285555
  H      4.005667   -1.330649    2.453016
  H      2.543572   -3.016885   -0.524480
  H      2.852139   -3.141758    1.226630
  H      4.209488   -3.190566    0.081997
