52
  Isotropic shielding for P: 170.992 ppm
  C     -0.618202   -3.459623   -1.111076
  C     -1.289383   -2.094980   -0.889677
  N     -0.340649   -0.979545   -0.736284
  P     -0.320047   -0.181900    0.778908
  N      1.411552   -0.051955    1.093786
  C      2.256433    1.113341    0.783552
  C      1.567327    2.421152    1.158682
  C      0.262329    2.657537    0.394302
  N     -0.667599    1.516456    0.602596
  C     -2.059736    1.829313    0.613343
  C     -2.562131    2.839787    1.458502
  C     -3.927109    3.127327    1.493253
  C     -4.828173    2.401897    0.701057
  C     -4.340681    1.392879   -0.133796
  C     -2.969464    1.115920   -0.189768
  C      0.464983    2.979233   -1.097708
  C      2.066119   -1.300419    1.227560
  C      3.333953   -1.536079    0.654837
  C      3.961922   -2.778531    0.794726
  C      3.343091   -3.820569    1.490979
  C      2.083409   -3.595321    2.062563
  C      1.455405   -2.356547    1.940875
  C      0.518644   -0.670063   -1.886747
  C     -0.247770   -0.158640   -3.117736
  H      0.073861   -3.688216   -0.291515
  H     -1.382414   -4.247842   -1.153531
  H     -0.057097   -3.492356   -2.053619
  H     -1.892834   -2.128763    0.026976
  H     -1.991006   -1.889941   -1.715986
  H      3.179168    1.015818    1.370185
  H      2.559949    1.135823   -0.277668
  H      1.353151    2.415574    2.236436
  H      2.257535    3.251527    0.957082
  H     -0.219524    3.532039    0.847259
  H     -1.881579    3.382563    2.111201
  H     -4.293162    3.907622    2.159330
  H     -5.893523    2.622095    0.737568
  H     -5.025823    0.825232   -0.762202
  H     -2.598141    0.357782   -0.871395
  H      0.998772    2.180657   -1.622720
  H     -0.505882    3.116525   -1.588829
  H      1.041559    3.907776   -1.210012
  H      3.829097   -0.756181    0.083940
  H      4.941067   -2.930844    0.341835
  H      3.833284   -4.786775    1.593647
  H      1.588423   -4.388448    2.621636
  H      0.488258   -2.193787    2.409611
  H      1.243798    0.083496   -1.570222
  H      1.108711   -1.558375   -2.162289
  H     -0.932949   -0.919728   -3.511387
  H     -0.834089    0.735222   -2.872569
  H      0.457069    0.100737   -3.919489
