14
  Isotropic shielding for P: 34.247 ppm
  Cl    -3.631680    0.210744    0.523090
  C     -1.905138    0.045092    0.233139
  C     -1.033968    1.023929    0.731433
  C      0.333069    0.893481    0.502708
  C      0.829675   -0.206134   -0.218465
  C     -0.060269   -1.175135   -0.709311
  C     -1.435617   -1.054845   -0.485719
  P      2.598454   -0.502476   -0.588028
  Cl     3.409835   -0.310428    1.361558
  Cl     3.120453    1.388986   -1.392347
  H     -1.426720    1.870946    1.288093
  H      1.015171    1.649025    0.886255
  H      0.315072   -2.030877   -1.269396
  H     -2.128439   -1.802205   -0.863109
