32
  Isotropic shielding for P: 167.880 ppm
  C      2.556182    0.436214   -1.421421
  C      2.330550   -0.621156   -0.347078
  O      1.398036   -0.038035    0.654882
  P     -0.044043   -0.694082    0.914102
  S     -0.114503   -2.604822    1.311333
  O     -0.873872   -0.226614   -0.399221
  C     -1.977087   -1.006083   -1.006984
  C     -3.284531   -0.675210   -0.293423
  C     -1.976505   -0.651050   -2.488872
  C     -0.635767    0.410467    2.263647
  C     -0.637740    1.856442    1.872653
  N      0.163790    2.671849    2.452212
  O      0.121366    4.011981    2.009310
  C      3.590063   -1.038372    0.400961
  H      1.610812    0.701271   -1.908346
  H      3.244892    0.049425   -2.184112
  H      2.995417    1.341780   -0.983586
  H      1.844822   -1.505613   -0.780204
  H     -1.731355   -2.066066   -0.866745
  H     -4.111967   -1.225078   -0.760480
  H     -3.502151    0.398993   -0.358565
  H     -3.239783   -0.967192    0.762570
  H     -1.009018   -0.892765   -2.944293
  H     -2.756532   -1.224113   -3.006366
  H     -2.178170    0.418385   -2.633816
  H      0.008517    0.241983    3.133563
  H     -1.650279    0.065748    2.505254
  H     -1.318471    2.179233    1.071944
  H     -0.541165    4.082055    1.280535
  H      4.314403   -1.472260   -0.300837
  H      3.351855   -1.787777    1.164110
  H      4.052432   -0.169738    0.887375
