19
  Isotropic shielding for P: 170.029 ppm
  Cl    -2.231165    0.315245    2.370881
  P     -2.419410    0.009381    0.305764
  O     -3.839245   -0.076427   -0.136327
  C     -1.316176    1.297116   -0.400965
  C      0.059556    0.676151   -0.263365
  C      0.080165   -0.721779   -0.057371
  C     -1.276594   -1.395284   -0.004651
  C      1.297990   -1.383277    0.122499
  C      2.494174   -0.659069    0.082583
  C      2.473652    0.726826   -0.121776
  C      1.256773    1.396608   -0.287269
  H     -1.622021    1.422197   -1.451190
  H     -1.422647    2.261626    0.105532
  H     -1.574292   -1.825215   -0.973508
  H     -1.358393   -2.176006    0.758217
  H      1.311102   -2.457837    0.299372
  H      3.442803   -1.174360    0.221636
  H      3.406281    1.287673   -0.141582
  H      1.237643    2.476334   -0.428481
