12
  Isotropic shielding for P: 180.263 ppm
  C     -1.940700   -0.058268   -0.182922
  C     -0.537665   -0.206282    0.372181
  O      0.405379    0.205897   -0.698047
  P      1.965123    0.330552   -0.410981
  S      2.586302    1.262839    1.143605
  Cl     2.679258   -1.595139   -0.636934
  F      2.399204    0.940792   -1.807797
  H     -2.144956    0.983249   -0.458046
  H     -2.661455   -0.361785    0.587773
  H     -2.085275   -0.695626   -1.063252
  H     -0.303992   -1.245007    0.634972
  H     -0.361323    0.438878    1.239948
