33
  Isotropic shielding for P: 137.548 ppm
  C      2.143054   -2.644666   -0.489947
  O      1.662577   -1.426849    0.161635
  P      2.049094    0.023481   -0.436707
  S      1.784208    0.257222   -2.356531
  S      1.033837    1.334405    0.847648
  C     -0.578508    1.719076   -0.139756
  O     -1.697362    1.197960    0.509971
  Si    -2.207455   -0.421418    0.561619
  C     -1.357384   -1.320156    1.973881
  C     -1.857570   -1.253642   -1.086351
  C     -4.051031   -0.278226    0.882433
  C     -0.700036    3.232629   -0.256391
  O      3.580301    0.143418    0.086948
  C      4.421502    1.252647   -0.350926
  H      1.867658   -2.637669   -1.550135
  H      1.646760   -3.468437    0.028681
  H      3.230292   -2.723556   -0.379394
  H     -0.397883    1.253630   -1.116663
  H     -1.805847   -2.315438    2.108254
  H     -1.476866   -0.766917    2.915216
  H     -0.286368   -1.447988    1.782783
  H     -0.784036   -1.316200   -1.300237
  H     -2.257225   -2.277755   -1.075202
  H     -2.337521   -0.714954   -1.914726
  H     -4.555242    0.253902    0.064720
  H     -4.507040   -1.273860    0.973695
  H     -4.245104    0.268276    1.815349
  H      0.158710    3.645216   -0.796469
  H     -0.759921    3.698744    0.734823
  H     -1.618796    3.470429   -0.808852
  H      5.403103    1.071830    0.094289
  H      4.009528    2.201942    0.011111
  H      4.490567    1.262920   -1.444170
