15
  Isotropic shielding for P: 270.425 ppm
  C      2.173520    0.322315    0.104775
  C      1.052727   -0.702264    0.183136
  O      1.244709   -1.890665   -0.058142
  P     -0.621762   -0.104231    0.794218
  C     -1.720008   -1.326420   -0.067982
  C     -0.860450    1.432150   -0.238845
  H      2.121980    1.035603    0.937522
  H      3.144113   -0.185712    0.098407
  H      2.067423    0.899481   -0.825743
  H     -2.765396   -1.080595    0.153461
  H     -1.564734   -1.325713   -1.153874
  H     -1.505612   -2.326655    0.322949
  H     -0.171472    2.215799    0.094982
  H     -0.710846    1.244515   -1.309280
  H     -1.884091    1.792394   -0.079582
