21
  Isotropic shielding for P: 48.052 ppm
  C      3.446869    0.927406   -0.762158
  O      2.270574    0.148762   -0.410279
  P      1.364258    0.647619    0.873754
  N      0.107707   -0.434687    0.683895
  C     -0.524951   -0.791517   -0.596769
  C     -1.826756    0.029365   -0.795475
  O     -2.403198    0.442397    0.464452
  C     -2.243615   -0.567877    1.467086
  C     -0.751636   -0.706806    1.859975
  Cl     0.622635    2.576837   -0.029990
  H      3.146654    1.850471   -1.271200
  H      4.037758    1.172457    0.131198
  H      4.037182    0.298872   -1.434774
  H     -0.739135   -1.869571   -0.583572
  H      0.175129   -0.602240   -1.414309
  H     -2.558419   -0.571987   -1.363246
  H     -1.622323    0.957301   -1.337830
  H     -2.838053   -0.254612    2.332105
  H     -2.642369   -1.532148    1.107378
  H     -0.561384   -1.724068    2.239160
  H     -0.496931    0.003925    2.655499
