35
  Isotropic shielding for P: 258.375 ppm
  Na    -1.682472   -1.952099    1.267102
  O      0.252393   -1.213699    1.650956
  C      1.417023   -1.156822    1.072065
  C      2.603328   -1.583027    1.755226
  C      3.860832   -1.536530    1.163495
  C      4.022628   -1.071429   -0.153697
  C      2.895061   -0.627888   -0.844951
  C      1.608933   -0.640424   -0.267299
  P      0.320637    0.216162   -1.229124
  C     -1.201120   -0.824238   -1.064837
  C     -2.475252   -0.336134   -0.698192
  C     -3.581792   -1.194925   -0.599996
  C     -3.446493   -2.565874   -0.871176
  C     -2.192928   -3.059712   -1.276116
  C     -1.093151   -2.199843   -1.383889
  C     -0.043801    1.725040   -0.224060
  C      0.731279    2.075557    0.896152
  C      0.539259    3.300433    1.543795
  C     -0.439061    4.194505    1.094445
  C     -1.215077    3.859813   -0.021706
  C     -1.005982    2.645690   -0.683933
  H      2.489386   -1.935896    2.780840
  H      4.733073   -1.863263    1.732023
  H      5.005531   -1.041794   -0.620021
  H      3.006318   -0.238213   -1.857336
  H     -2.598424    0.709489   -0.429874
  H     -4.541748   -0.795379   -0.275866
  H     -4.295045   -3.237476   -0.758624
  H     -2.067034   -4.121961   -1.478891
  H     -0.122064   -2.606055   -1.662883
  H      1.496147    1.394573    1.258037
  H      1.159571    3.555855    2.402403
  H     -0.584986    5.148541    1.598944
  H     -1.970538    4.552556   -0.390019
  H     -1.584532    2.424468   -1.580090
