18
  Isotropic shielding for P: 38.072 ppm
  C      1.778648   -0.639313   -0.657477
  C      0.548913    0.199967   -1.028524
  N     -0.224062    0.674466    0.147299
  P     -0.222364    2.236380    0.734418
  Cl    -0.899023    3.466849   -0.962326
  Cl     1.836567    2.733503    0.585272
  C     -1.438048   -0.102793    0.514540
  C     -1.126083   -1.490757    1.084073
  H      1.501665   -1.548955   -0.113855
  H      2.307447   -0.935508   -1.573723
  H      2.468226   -0.059922   -0.034710
  H      0.858531    1.074328   -1.612544
  H     -0.137382   -0.379384   -1.661955
  H     -1.993350    0.482523    1.261508
  H     -2.085196   -0.186076   -0.372516
  H     -0.654477   -2.138939    0.336556
  H     -2.060721   -1.971175    1.402346
  H     -0.459191   -1.414992    1.951616
