11
  Isotropic shielding for P: 136.825 ppm
  C      1.375865   -0.575853   -0.268896
  P      0.128822    0.585490    0.386652
  S      0.420359    1.199703    2.210697
  Br     0.196831    2.254516   -1.216163
  C     -1.507205   -0.152433    0.050112
  H      1.356649   -1.475044    0.359302
  H      1.145922   -0.832891   -1.308498
  H      2.362533   -0.107320   -0.204387
  H     -1.586981   -0.432937   -1.005665
  H     -1.610172   -1.038353    0.688841
  H     -2.282523    0.575223    0.308203
