17
  Isotropic shielding for P: 410.451 ppm
  P      2.698723   -0.083569    1.023929
  C      1.733392    0.280731   -0.567694
  C      0.251046    0.185535   -0.304194
  C     -0.453651    1.265745    0.254560
  C     -1.820020    1.162155    0.533153
  C     -2.505531   -0.028032    0.260727
  C     -1.813493   -1.111648   -0.292860
  C     -0.446557   -1.004641   -0.569968
  H      3.982953   -0.276074    0.423240
  H      2.419664   -1.483428    1.072239
  H      2.012192    1.298730   -0.868167
  H      2.037848   -0.409735   -1.360882
  H      0.074665    2.194087    0.471023
  H     -2.350410    2.011439    0.961537
  H     -3.569733   -0.109216    0.475798
  H     -2.338442   -2.040558   -0.511370
  H      0.087355   -1.851520   -1.000969
