39
  Isotropic shielding for P: 252.672 ppm
  C     -1.274201    2.068950   -2.031955
  C     -0.506781    0.753407   -1.971219
  O      0.611220    0.901392   -1.059640
  B      1.241477   -0.136547   -0.408249
  O      0.842163   -1.457923   -0.449828
  C     -0.275468   -1.986878   -1.212398
  P     -1.578800   -0.694324   -1.515123
  O     -2.573806   -1.042671   -2.588797
  C     -2.338690   -0.298756    0.086987
  C     -1.683837   -0.449974    1.322083
  C     -2.335855   -0.096402    2.507339
  C     -3.640241    0.409266    2.470243
  C     -4.299234    0.554760    1.243676
  C     -3.653301    0.201250    0.056372
  C      0.219008   -2.600921   -2.522824
  C      2.478083    0.210885    0.485455
  C      3.153559   -0.790223    1.214384
  C      4.254926   -0.481861    2.018267
  C      4.705250    0.841247    2.110119
  C      4.049061    1.851154    1.394925
  C      2.948397    1.536432    0.592693
  H     -1.663750    2.339446   -1.043762
  H     -2.113284    1.983420   -2.732915
  H     -0.608438    2.868888   -2.379003
  H     -0.107899    0.509570   -2.968523
  H     -0.726711   -2.766594   -0.583710
  H     -0.676213   -0.852869    1.370602
  H     -1.824089   -0.219674    3.460242
  H     -4.144474    0.683434    3.395495
  H     -5.317299    0.939173    1.211684
  H     -4.166485    0.297451   -0.898063
  H      0.674544   -1.843442   -3.172808
  H     -0.614503   -3.065646   -3.061188
  H      0.972447   -3.366621   -2.300831
  H      2.808097   -1.820634    1.147741
  H      4.762772   -1.269753    2.573120
  H      5.563225    1.084073    2.735710
  H      4.396567    2.881193    1.464245
  H      2.442665    2.326220    0.039652
