31
  Isotropic shielding for P: 22.525 ppm
  C      2.598013   -0.648222   -1.658507
  C      2.597833    0.067374   -0.283974
  C      1.320863   -0.287985    0.463025
  P      1.118840   -1.092861    2.038391
  N     -0.549805   -0.974544    1.883939
  N     -0.863087   -0.376540    0.730523
  N      0.140094    0.018354   -0.080863
  Si    -2.624386   -0.081831    0.302404
  C     -3.454523   -1.758488    0.364316
  C     -3.278574    1.089951    1.608678
  C     -2.635912    0.668640   -1.411053
  C      3.829777   -0.380897    0.530311
  C      2.650553    1.602093   -0.495893
  H      1.733601   -0.340608   -2.258150
  H      2.556928   -1.737804   -1.530261
  H      3.513494   -0.400861   -2.212711
  H     -3.012719   -2.444218   -0.370559
  H     -3.356203   -2.208762    1.359810
  H     -4.525090   -1.658571    0.136459
  H     -4.344016    1.296365    1.435093
  H     -3.172080    0.656405    2.610948
  H     -2.738867    2.045882    1.586276
  H     -3.673211    0.862516   -1.719588
  H     -2.180726   -0.007131   -2.145532
  H     -2.087666    1.618203   -1.434496
  H      4.750943   -0.125594   -0.008869
  H      3.823423   -1.466509    0.695810
  H      3.861160    0.116092    1.509057
  H      3.571265    1.877801   -1.027478
  H      2.638196    2.127371    0.467939
  H      1.791783    1.944474   -1.084646
