21
  Isotropic shielding for P: 325.830 ppm
  C     -0.085090    2.457370   -0.503269
  P     -0.173004    0.805295   -1.363955
  C      1.311575   -0.016470   -0.688679
  C      1.565404   -0.841003    0.379909
  C      2.951839   -1.204619    0.312628
  C      3.461951   -0.583085   -0.792457
  O      2.481030    0.141702   -1.429756
  C     -1.414342   -0.009433   -0.312264
  C     -2.130771    0.346542    0.803981
  C     -3.013260   -0.744811    1.105801
  C     -2.783041   -1.700628    0.157316
  O     -1.820052   -1.274787   -0.727552
  H      0.776343    2.997645   -0.912641
  H      0.034398    2.358468    0.581325
  H     -0.993572    3.028244   -0.730541
  H      0.842370   -1.149270    1.124329
  H      3.495918   -1.844986    0.996651
  H      4.443375   -0.548789   -1.246910
  H     -2.037332    1.274683    1.353014
  H     -3.722286   -0.807386    1.922579
  H     -3.191550   -2.684988   -0.029506
