74
  Isotropic shielding for P: 233.983 ppm
  C     -4.217926    2.707335   -0.914896
  O     -3.363594    1.536665   -1.036929
  P     -1.761676    1.653189   -1.125308
  C     -1.125197    0.130639   -0.880191
  S      0.472158   -0.061438   -1.641432
  C      1.334011   -0.651334   -0.173232
  C      2.647182   -0.427691    0.101902
  Si     3.521294    0.934387   -0.897576
  C      3.659246    0.516486   -2.740824
  C      2.595028    2.565120   -0.621139
  C      5.302364    1.266616   -0.339254
  Si     3.560241   -1.248691    1.541390
  C      5.254205   -1.883599    0.971662
  C      2.722849   -2.774618    2.292225
  C      3.753904    0.025559    2.929186
  S      0.201462   -1.684575    0.743423
  C     -1.469745   -0.958962    0.127905
  Si    -2.390694   -2.383744   -0.765078
  C     -1.569947   -2.760183   -2.423003
  C     -2.404616   -3.985386    0.244145
  C     -4.178598   -1.854520   -1.084370
  Si    -2.139874   -0.334187    1.835074
  C     -0.915595    0.903205    2.572184
  C     -2.339568   -1.800378    3.016991
  C     -3.834780    0.514613    1.791975
  O     -1.339842    2.921089   -0.207689
  C     -1.173990    4.303742   -0.662610
  O     -1.391922    2.271265   -2.569396
  C     -1.723210    1.535060   -3.783389
  H     -3.943616    3.298374   -0.034224
  H     -5.234919    2.324340   -0.802086
  H     -4.147892    3.322814   -1.819844
  H      4.193666   -0.434538   -2.874003
  H      2.686585    0.430355   -3.236862
  H      4.236337    1.299312   -3.255125
  H      1.537105    2.489475   -0.889057
  H      3.049933    3.365912   -1.222130
  H      2.661705    2.858060    0.435838
  H      5.622955    2.203158   -0.819218
  H      5.995609    0.480991   -0.660904
  H      5.410710    1.399565    0.743292
  H      5.682962   -2.513859    1.763894
  H      5.974118   -1.090735    0.750273
  H      5.148986   -2.507067    0.072722
  H      1.823122   -2.533862    2.867738
  H      2.453333   -3.520156    1.533278
  H      3.449025   -3.241841    2.974556
  H      2.763479    0.329555    3.295374
  H      4.311432   -0.401645    3.775124
  H      4.280022    0.930082    2.600589
  H     -2.124211   -3.568632   -2.922123
  H     -1.570377   -1.885457   -3.083630
  H     -0.531124   -3.087346   -2.296318
  H     -2.832357   -4.793417   -0.367062
  H     -3.007899   -3.901725    1.155190
  H     -1.390387   -4.287949    0.534372
  H     -4.760021   -1.810597   -0.154567
  H     -4.222689   -0.866995   -1.558636
  H     -4.668955   -2.579549   -1.749685
  H     -1.369214    1.375528    3.455893
  H      0.015105    0.415296    2.882073
  H     -0.666456    1.694378    1.856645
  H     -1.464240   -2.459528    3.041095
  H     -3.217657   -2.406798    2.761948
  H     -2.494517   -1.409197    4.033126
  H     -4.541695    0.044078    1.101458
  H     -4.259432    0.456273    2.805237
  H     -3.753888    1.573856    1.531047
  H     -0.266425    4.379525   -1.268707
  H     -1.074256    4.905141    0.245294
  H     -2.039827    4.637543   -1.242976
  H     -2.740564    1.132576   -3.725418
  H     -1.007182    0.720944   -3.935044
  H     -1.649562    2.258595   -4.600187
