35
  Isotropic shielding for P: 208.451 ppm
  C     -2.674613   -1.593863   -1.311045
  C     -1.654271   -0.888604   -0.461330
  C     -0.548101   -1.465240    0.069068
  C     -0.097005   -2.894519   -0.012683
  P      0.331112   -0.211835    1.052693
  O      0.543501   -0.538639    2.514278
  C     -0.882660    1.093883    0.685242
  C     -1.843417    0.566930   -0.112752
  C     -3.049324    1.307330   -0.620625
  C     -0.794737    2.471987    1.272980
  C      1.947054    0.208995    0.197668
  C      1.710969    0.558271   -1.283941
  C      2.889148   -1.011832    0.323403
  C      2.585481    1.405632    0.942560
  H     -2.424465   -2.649470   -1.451823
  H     -3.675220   -1.534892   -0.859343
  H     -2.748663   -1.127416   -2.304100
  H      0.370665   -3.203827    0.931959
  H      0.654538   -3.042846   -0.803322
  H     -0.929803   -3.577553   -0.218168
  H     -3.064669    2.344233   -0.272487
  H     -3.979268    0.820748   -0.293158
  H     -3.068831    1.317792   -1.719959
  H     -0.395704    2.428250    2.295657
  H     -0.118084    3.120731    0.695773
  H     -1.772672    2.966167    1.310269
  H      2.672435    0.801068   -1.759364
  H      1.266568   -0.281656   -1.831541
  H      1.051312    1.427418   -1.393596
  H      3.017111   -1.309808    1.370702
  H      3.877363   -0.744498   -0.078392
  H      2.522294   -1.875660   -0.241477
  H      1.995786    2.322542    0.834328
  H      2.703146    1.192027    2.011360
  H      3.582823    1.598158    0.521063
