31
  Isotropic shielding for P: 230.421 ppm
  C      3.991738    1.217232   -0.182657
  C      3.128327   -0.024377    0.008061
  O      1.718812    0.420333   -0.113964
  P      0.635648   -0.557790   -0.813932
  O      0.563969   -1.958975   -0.289349
  C     -0.883125    0.440062   -0.696413
  C     -1.286214    0.655610    0.793148
  C     -2.801203    0.892171    0.912397
  C     -3.602408   -0.360258    0.468897
  C     -2.878389   -1.157583   -0.649466
  C     -2.020170   -0.232549   -1.527834
  C      3.318575   -0.706283    1.360028
  H      5.053717    0.948164   -0.113609
  H      3.811060    1.671845   -1.164117
  H      3.770339    1.959334    0.595570
  H      3.324838   -0.742448   -0.803067
  H      1.001526   -0.528477   -2.189529
  H     -0.632317    1.409536   -1.151514
  H     -0.719631    1.499252    1.203810
  H     -1.014605   -0.227147    1.389920
  H     -3.059817    1.159448    1.945737
  H     -3.078320    1.756789    0.290533
  H     -4.597900   -0.048235    0.122778
  H     -3.763668   -1.019357    1.333274
  H     -2.227979   -1.923990   -0.207984
  H     -3.612101   -1.689315   -1.269504
  H     -2.650704    0.556735   -1.960807
  H     -1.602501   -0.789211   -2.379377
  H      2.665129   -1.580805    1.445858
  H      4.361425   -1.032748    1.469334
  H      3.085751   -0.007063    2.173875
