46
  Isotropic shielding for P: 252.908 ppm
  C      1.142889   -2.497194   -1.712887
  C      0.198666   -1.285479   -1.623992
  P      0.064475   -0.530194    0.052228
  C      0.577408   -1.737415    1.384833
  C      1.222959   -1.191638    2.670148
  O      1.692777    0.055490    0.129411
  C      2.266198    1.213977   -0.423887
  C      3.464358    0.779922   -1.308079
  F      4.303480   -0.074495   -0.668978
  F      2.997068    0.134352   -2.420018
  F      4.194785    1.844598   -1.736469
  C      2.687039    2.161684    0.733601
  F      3.685721    1.633840    1.495823
  F      1.629882    2.395962    1.554773
  F      3.114170    3.365295    0.260214
  O     -0.389305    1.109292   -0.120747
  C     -1.685818    1.497561   -0.388331
  O     -2.628138    0.474236   -0.090730
  C     -2.031255   -0.718807    0.412634
  C     -2.711627   -1.910724   -0.316159
  F     -2.887837   -1.660671   -1.639200
  F     -3.944809   -2.215324    0.182845
  F     -1.948911   -3.043143   -0.203546
  C     -2.401491   -0.774001    1.928216
  F     -2.298061   -2.034770    2.444591
  F     -1.581662    0.033905    2.658818
  F     -3.670794   -0.347656    2.160890
  C     -1.826921    1.854224   -1.924642
  F     -0.808753    2.655518   -2.332870
  F     -1.784670    0.726018   -2.674621
  F     -2.998910    2.483191   -2.178713
  C     -2.021127    2.760322    0.506810
  F     -1.630194    2.552061    1.782065
  F     -1.373723    3.864094    0.045845
  F     -3.351012    3.012515    0.505159
  H      2.137238   -2.272471   -1.315044
  H      1.258150   -2.771555   -2.768644
  H      0.737323   -3.366272   -1.183668
  H     -0.781828   -1.538172   -2.019536
  H      0.582840   -0.466607   -2.243005
  H     -0.275965   -2.378733    1.603127
  H      1.315880   -2.351327    0.856290
  H      0.582893   -0.481924    3.198269
  H      1.413267   -2.037572    3.343356
  H      2.176548   -0.705617    2.451885
  H      1.586492    1.783606   -1.068264
