27
  Isotropic shielding for P: 270.183 ppm
  O      3.401709   -1.214300   -0.775751
  P      2.305985   -0.074113   -0.910086
  O      1.673956    0.119991   -2.245384
  O      1.263109   -0.546575    0.237357
  C      0.067780   -0.064595    0.841542
  C     -1.092266    0.188936   -0.307314
  C     -1.549751   -1.177785   -0.991070
  F     -0.480233   -1.953672   -1.315665
  F     -2.203767   -0.927151   -2.148565
  F     -2.377584   -1.901577   -0.193120
  C     -2.400455    0.949871    0.197178
  F     -2.980657    0.378752    1.276134
  F     -2.117123    2.237636    0.503944
  F     -3.325191    0.975289   -0.796779
  O     -0.601787    1.042023   -1.288718
  C     -0.204947   -1.224042    1.910015
  F     -1.369211   -1.071115    2.570291
  F      0.792278   -1.253085    2.831938
  F     -0.213204   -2.435832    1.306488
  C      0.429575    1.265634    1.638602
  F      1.608735    1.125136    2.289443
  F     -0.523996    1.545811    2.562004
  F      0.562937    2.331286    0.814912
  O      3.101813    1.167183   -0.317031
  H      3.097894   -2.094981   -1.073711
  H      0.146287    0.630946   -1.816189
  H      2.988012    1.980129   -0.847562
