43
  Isotropic shielding for P: -62.745 ppm
  Cl     1.720947   -1.302618    3.035341
  P     -0.145860   -1.451468    1.983532
  C      0.036199   -0.405085    0.490258
  Si    -1.314164   -1.048286   -0.778593
  C     -0.678018   -2.409607   -1.925137
  C     -1.931831    0.340543   -1.903452
  C     -2.825824   -1.758136    0.113960
  Si     1.778512   -0.296435   -0.360082
  C      1.644012    0.423589   -2.107673
  C      2.611238   -1.982860   -0.494120
  C      2.980505    0.845392    0.552981
  Si    -0.520486    1.352280    1.176257
  C     -0.176756    2.734670   -0.064810
  C     -2.362388    1.399188    1.608515
  C      0.367363    1.814628    2.779826
  Cl     0.105423   -3.484206    1.324360
  H     -1.528488   -2.712959   -2.553986
  H     -0.333770   -3.291285   -1.377364
  H      0.123816   -2.082936   -2.595120
  H     -2.609715   -0.126166   -2.633321
  H     -1.127095    0.826577   -2.463801
  H     -2.500842    1.112293   -1.375423
  H     -3.592560   -1.958463   -0.649229
  H     -2.608522   -2.706875    0.617035
  H     -3.259100   -1.071255    0.847307
  H      1.197845    1.423464   -2.116533
  H      1.083757   -0.206267   -2.805846
  H      2.668322    0.515721   -2.497948
  H      2.015055   -2.710067   -1.053650
  H      2.834798   -2.410858    0.488526
  H      3.563354   -1.841211   -1.026630
  H      3.180513    0.513611    1.575637
  H      3.929269    0.820569   -0.003508
  H      2.650246    1.889304    0.585198
  H      0.892196    2.893620   -0.240470
  H     -0.666442    2.586333   -1.031099
  H     -0.578551    3.658982    0.375960
  H     -3.028903    1.284502    0.747804
  H     -2.569162    2.380809    2.059266
  H     -2.624646    0.634256    2.349751
  H      0.074777    1.174606    3.620374
  H      0.067407    2.843802    3.027639
  H      1.457567    1.788006    2.698471
