44
  Isotropic shielding for P: 258.234 ppm
  C      1.101266   -2.467367    3.346751
  C      0.957062   -1.266908    2.398085
  C      0.038256   -1.610667    1.208985
  P     -0.101259   -0.262425   -0.010370
  C      1.446941   -0.019681   -0.833512
  C      1.683441    1.135376   -1.647942
  O      0.936154    2.076354   -1.936028
  C      3.162410    1.068113   -2.136569
  C      3.609908   -0.390762   -1.840101
  C      2.532526   -0.958310   -0.858921
  O      2.687123   -2.045658   -0.295130
  F      3.599426   -1.139106   -3.004395
  F      4.874673   -0.469058   -1.316491
  F      3.923671    1.960775   -1.397489
  F      3.293819    1.414871   -3.455074
  C     -0.577103    1.242982    0.867627
  C      0.407194    2.134306    1.321815
  C      0.036148    3.251620    2.072830
  C     -1.311513    3.479030    2.375726
  C     -2.292720    2.586953    1.927405
  C     -1.929253    1.468419    1.173372
  C     -1.408773   -0.659833   -1.196128
  C     -1.961056   -1.949650   -1.262745
  C     -2.944459   -2.235648   -2.214634
  C     -3.374998   -1.241606   -3.099641
  C     -2.819776    0.042868   -3.036946
  C     -1.837984    0.339206   -2.090121
  H      0.124980   -2.779213    3.743302
  H      1.746164   -2.212892    4.197310
  H      1.547492   -3.325180    2.826833
  H      1.945642   -0.972706    2.025914
  H      0.544913   -0.407036    2.941712
  H      0.416095   -2.490673    0.675767
  H     -0.983559   -1.818442    1.556088
  H      1.453530    1.962570    1.083058
  H      0.799480    3.947136    2.415972
  H     -1.597692    4.353352    2.957697
  H     -3.341246    2.763695    2.159475
  H     -2.695334    0.782444    0.818722
  H     -1.633043   -2.731560   -0.583055
  H     -3.372354   -3.235205   -2.262476
  H     -4.141057   -1.467517   -3.839366
  H     -3.150067    0.815985   -3.728094
  H     -1.394870    1.331148   -2.049717
