22
  Isotropic shielding for P: 76.194 ppm
  C      3.240481    0.376840   -0.330002
  C      1.772472    0.556844    0.093159
  P      0.622677   -0.568054   -0.851598
  C     -1.072147   -0.196540   -0.069887
  C     -2.051028   -1.270730   -0.592765
  C     -1.475946    1.186259   -0.639079
  C     -1.085705   -0.169309    1.467468
  Cl     1.125995   -2.412666    0.110976
  H      3.367630    0.535392   -1.408915
  H      3.881912    1.095807    0.196468
  H      3.599198   -0.631924   -0.091854
  H      1.433565    1.577876   -0.139535
  H      1.654182    0.406824    1.172998
  H     -2.046396   -1.319176   -1.689899
  H     -3.072229   -1.025076   -0.267751
  H     -1.800370   -2.264854   -0.204548
  H     -2.511774    1.407736   -0.345005
  H     -1.430093    1.205235   -1.736659
  H     -0.839907    1.991812   -0.252332
  H     -0.733891   -1.118296    1.888899
  H     -2.114264   -0.003745    1.820938
  H     -0.464359    0.639642    1.869025
