35
  Isotropic shielding for P: 119.348 ppm
  C      3.793752    0.140085   -0.854071
  C      3.054661   -0.778313   -1.831862
  O      1.615400   -0.753863   -1.581784
  P      1.163139   -1.293864   -0.059006
  O      2.081231   -0.238150    0.870685
  C      3.514399   -0.267274    0.595574
  N     -0.346006   -0.498587    0.067697
  C     -0.491813    0.907629   -0.218466
  C     -0.632218    1.808418    0.846204
  C     -0.769919    3.174792    0.591154
  C     -0.759615    3.648725   -0.727555
  C     -0.617433    2.747291   -1.788161
  C     -0.488973    1.376249   -1.537675
  C     -1.474490   -1.193800    0.597649
  C     -2.766567   -0.881679    0.137112
  C     -3.876568   -1.566508    0.636221
  C     -3.720443   -2.581008    1.589122
  C     -2.436603   -2.888734    2.052796
  C     -1.322022   -2.191473    1.577750
  H      3.476236    1.179396   -1.012412
  H      4.875453    0.080718   -1.047345
  H      3.424384   -1.814227   -1.744488
  H      3.180216   -0.453224   -2.870091
  H      3.970367    0.427442    1.309077
  H      3.906751   -1.279186    0.795051
  H     -0.628492    1.429718    1.866056
  H     -0.877110    3.871191    1.421401
  H     -0.863048    4.714306   -0.925677
  H     -0.613853    3.108982   -2.815311
  H     -0.384625    0.667690   -2.353390
  H     -2.895816   -0.105333   -0.612873
  H     -4.869411   -1.311132    0.268518
  H     -4.587487   -3.115779    1.972208
  H     -2.298654   -3.660177    2.809052
  H     -0.334623   -2.410320    1.977045
