35
  Isotropic shielding for P: 211.511 ppm
  C     -0.521745    3.540873   -0.535464
  C     -0.685505    2.019982   -0.425281
  S      0.601035    1.171238   -1.476509
  C      0.857000   -0.366508   -0.469149
  P     -0.333055   -0.371866    1.003936
  C     -0.548107    1.486536    1.003833
  C     -1.940224   -0.870506    0.233890
  C     -2.173963   -1.034278   -1.142348
  C     -3.431459   -1.435361   -1.608033
  C     -4.477176   -1.670891   -0.708739
  C     -4.257087   -1.510717    0.664604
  C     -2.996417   -1.125711    1.129812
  C      2.285221   -0.539998    0.007510
  C      3.012705    0.508874    0.592028
  C      4.304860    0.294956    1.079882
  C      4.895526   -0.971229    0.985925
  C      4.181833   -2.021441    0.398076
  C      2.887310   -1.805386   -0.085483
  H     -0.597662    3.877182   -1.577236
  H     -1.316076    4.039401    0.037203
  H      0.449646    3.860919   -0.137853
  H     -1.664434    1.730131   -0.825401
  H      0.589762   -1.228567   -1.090610
  H     -1.430547    1.743276    1.606030
  H      0.333249    1.918750    1.496732
  H     -1.385767   -0.828057   -1.862665
  H     -3.594424   -1.557198   -2.678101
  H     -5.454608   -1.981583   -1.074329
  H     -5.062156   -1.697558    1.373851
  H     -2.827294   -1.027160    2.202463
  H      2.572712    1.502056    0.644438
  H      4.854411    1.120664    1.529776
  H      5.904691   -1.135155    1.360233
  H      4.633680   -3.008491    0.310802
  H      2.334061   -2.627374   -0.539329
