14
  Isotropic shielding for P: 201.843 ppm
  C      2.710620   -0.234774   -0.230470
  S      1.105539    0.025783   -1.112012
  P     -0.203991   -0.022592    0.550120
  C     -1.258570    1.542359    0.167104
  F     -2.375773    1.563257    0.954454
  F     -1.667425    1.690750   -1.123441
  F     -0.510769    2.642957    0.483958
  C     -1.482921   -1.317812   -0.080579
  F     -2.589810   -1.320765    0.721502
  F     -0.905950   -2.555157    0.010539
  F     -1.911456   -1.166642   -1.364288
  H      3.469912   -0.212774   -1.019344
  H      2.896090    0.573437    0.480999
  H      2.724606   -1.208025    0.265858
