18
  Isotropic shielding for P: 204.721 ppm
  C      2.540451   -0.842395   -0.914864
  P      1.867058    0.333001    0.293398
  O      2.422063    1.715234    0.212228
  C      0.059745    0.253356    0.236736
  C     -0.648306    1.461299    0.136209
  C     -2.045125    1.443968    0.070181
  C     -2.733529    0.226362    0.102322
  C     -2.026820   -0.979624    0.203441
  C     -0.632432   -0.969145    0.273146
  Cl     2.330260   -0.613864    2.116608
  H      2.297407   -0.465983   -1.916241
  H      3.627926   -0.885496   -0.790690
  H      2.110783   -1.839755   -0.777749
  H     -0.102235    2.401407    0.110064
  H     -2.593728    2.380982   -0.006367
  H     -3.820977    0.214798    0.050685
  H     -2.562983   -1.926479    0.232117
  H     -0.089664   -1.907470    0.368876
