16
  Isotropic shielding for P: 134.259 ppm
  C     -3.088006    0.482984   -0.132718
  C     -1.917429   -0.441805   -0.406822
  O     -0.678119    0.316301   -0.114827
  P      0.755730   -0.394994   -0.148665
  S      1.018656   -2.075364    0.771812
  S      1.914307    1.274736    0.375936
  C      3.510981    0.442413    0.772787
  F      0.997633   -0.570306   -1.736387
  H     -3.045398    1.372761   -0.772377
  H     -4.024104   -0.051078   -0.343390
  H     -3.097943    0.799651    0.917131
  H     -1.930233   -1.328075    0.238036
  H     -1.878079   -0.757413   -1.456386
  H      3.354545   -0.316140    1.543477
  H      4.154071    1.242426    1.153603
  H      3.953388    0.003802   -0.124808
