22
  Isotropic shielding for P: 68.156 ppm
  C      3.942749    0.051797   -0.305171
  O      2.707968   -0.651707   -0.483615
  C      1.610153    0.009233    0.171784
  C      0.342457   -0.801633   -0.075033
  P     -1.109555   -0.119448    0.873024
  O     -2.320053   -1.189945    0.497995
  C     -2.570308   -1.661473   -0.855810
  O     -1.350628    1.165155   -0.176000
  C     -2.330447    2.159234    0.215534
  H      4.715753   -0.516707   -0.833217
  H      4.210594    0.126139    0.763146
  H      3.888036    1.070844   -0.725860
  H      1.820981    0.091088    1.254291
  H      1.500777    1.033087   -0.225782
  H      0.116346   -0.830646   -1.148894
  H      0.489977   -1.832557    0.278908
  H     -2.541822   -0.830275   -1.570958
  H     -1.831025   -2.420818   -1.139660
  H     -3.569778   -2.107911   -0.850985
  H     -3.347479    1.800019    0.007703
  H     -2.131480    3.056093   -0.380297
  H     -2.243314    2.400631    1.284694
