30
  Isotropic shielding for P: 284.982 ppm
  F     -0.825456   -2.895097    0.751893
  C     -0.958548   -1.599925    1.122582
  C     -1.187853   -0.682070   -0.167608
  O     -0.197461   -0.986828   -1.090466
  P      1.292130   -0.051805   -0.959760
  O      0.462261    1.038793    0.009099
  C     -0.945792    0.903512    0.104579
  C     -1.393203    1.483915    1.506515
  F     -1.224701    2.829520    1.563654
  F     -0.673576    0.964851    2.524640
  F     -2.705109    1.224390    1.729967
  C     -1.521957    1.853447   -1.039283
  F     -2.871712    1.951098   -0.994819
  F     -1.152099    1.411742   -2.269131
  F     -1.006286    3.101123   -0.921793
  O      2.675875    0.879407   -0.825215
  C      3.569305    0.353739    0.183670
  C      3.407875   -1.163764    0.058184
  O      2.014266   -1.370636   -0.344563
  C     -2.586991   -1.078832   -0.799477
  F     -2.716050   -0.612690   -2.061577
  F     -2.722680   -2.427921   -0.867868
  F     -3.620146   -0.600789   -0.060574
  F      0.184769   -1.272561    1.775671
  F     -1.990232   -1.517227    2.004945
  H      1.235760    0.141813   -2.341597
  H      3.273729    0.717945    1.178044
  H      4.584513    0.690426   -0.046799
  H      3.552165   -1.697865    1.001647
  H      4.047107   -1.587807   -0.724859
