19
  Isotropic shielding for P: 172.925 ppm
  C      1.960792   -0.733355    1.123279
  B      1.422411    0.124191   -0.079594
  O      0.054085    0.420611   -0.203881
  P     -1.147351    0.087441    0.881806
  C     -1.929406   -1.415441   -0.039769
  F     -3.140295   -1.728015    0.506434
  F     -1.095296   -2.489778    0.152127
  F     -2.096559   -1.280417   -1.381350
  C     -2.372000    1.416151    0.221579
  F     -1.936425    2.639065    0.661252
  F     -2.502771    1.500548   -1.127095
  F     -3.613051    1.202988    0.752727
  C      2.333153    0.687454   -1.226294
  H      3.028789   -0.564173    1.309725
  H      1.411006   -0.584742    2.063496
  H      1.851690   -1.801598    0.867672
  H      1.773918    1.073196   -2.087131
  H      3.054105   -0.067677   -1.572859
  H      2.943304    1.513451   -0.821926
