46
  Isotropic shielding for P: 204.600 ppm
  C      0.960966    2.665513   -1.818468
  C      0.033799    2.870698   -0.607840
  N     -0.227099    1.572338    0.090649
  P     -0.532788    0.085655   -0.619863
  S     -1.816639   -0.033547   -2.115760
  O     -0.974951   -0.692746    0.721349
  Si    -2.137766   -1.887811    1.070728
  C     -1.988680   -3.304912   -0.148015
  C     -3.838468   -1.101080    1.029082
  C     -1.677624   -2.435849    2.806044
  N      0.931170   -0.516045   -1.132652
  C      2.124527   -0.967508   -0.348472
  C      3.331700   -0.861786   -1.303368
  C      2.362981   -0.079370    0.884009
  C      1.933581   -2.436247    0.093194
  C     -1.296475    3.514811   -1.060366
  C      0.729583    3.780115    0.426240
  H      0.494268    2.032506   -2.580753
  H      1.175808    3.642407   -2.269054
  H      1.908047    2.204345   -1.519053
  H     -0.805589    1.703827    0.919116
  H     -2.216621   -2.968784   -1.166448
  H     -0.976125   -3.728375   -0.142693
  H     -2.691923   -4.106789    0.118925
  H     -4.607454   -1.831747    1.317777
  H     -4.070391   -0.732691    0.022536
  H     -3.898048   -0.255223    1.727711
  H     -1.714895   -1.593947    3.510540
  H     -2.372138   -3.208348    3.164935
  H     -0.663049   -2.855736    2.830395
  H      0.831171   -1.013160   -2.014721
  H      4.244395   -1.217426   -0.808508
  H      3.171381   -1.474052   -2.201528
  H      3.484601    0.177898   -1.617033
  H      2.504749    0.967733    0.599589
  H      3.268698   -0.428751    1.395474
  H      1.528449   -0.131858    1.590319
  H      1.085405   -2.528119    0.779483
  H      2.833088   -2.805078    0.604149
  H      1.746991   -3.078869   -0.777279
  H     -1.111593    4.487931   -1.534646
  H     -1.956033    3.676013   -0.196510
  H     -1.813893    2.864708   -1.773749
  H      0.918054    4.772214   -0.003552
  H      1.686358    3.346701    0.741827
  H      0.098471    3.910235    1.316358
