42
  Isotropic shielding for P: 257.200 ppm
  C     -3.076867   -0.046041   -0.661816
  C     -2.435799   -1.323808   -0.088987
  N     -0.961993   -1.119816    0.105989
  P      0.060785   -0.427855   -1.031379
  O     -0.232507   -0.695953   -2.472310
  C      0.069665    1.355951   -0.700796
  C     -0.326978    1.901286    0.529891
  C     -0.263472    3.281334    0.744895
  C      0.198072    4.128125   -0.269493
  C      0.584966    3.591831   -1.504298
  C      0.516857    2.213493   -1.720906
  O      1.499589   -1.037858   -0.637327
  C      2.500281   -0.764285    0.435874
  C      3.150459    0.604568    0.196331
  C      3.523161   -1.891210    0.243578
  C      1.845823   -0.852014    1.818313
  C     -2.689600   -2.515366   -1.039474
  C     -3.023464   -1.620706    1.304328
  H     -2.926873    0.808425    0.007561
  H     -2.662681    0.201704   -1.645608
  H     -4.155497   -0.206195   -0.779260
  H     -0.533224   -1.924652    0.559522
  H     -0.692449    1.243605    1.314153
  H     -0.576828    3.695812    1.701912
  H      0.248674    5.202864   -0.101678
  H      0.934098    4.248800   -2.299331
  H      0.804565    1.793954   -2.682426
  H      4.011442    0.715516    0.867965
  H      3.505819    0.680320   -0.837855
  H      2.456928    1.426640    0.391508
  H      3.965744   -1.838431   -0.758044
  H      4.324655   -1.799258    0.987124
  H      3.043002   -2.869693    0.363534
  H      2.612390   -0.704890    2.589727
  H      1.392746   -1.838624    1.975052
  H      1.077637   -0.084910    1.952930
  H     -2.256781   -2.313594   -2.025093
  H     -3.767010   -2.696207   -1.153327
  H     -2.229882   -3.429331   -0.638986
  H     -2.561504   -2.518085    1.739475
  H     -4.104248   -1.797382    1.234025
  H     -2.849400   -0.777855    1.984805
