20
  Isotropic shielding for P: 344.650 ppm
  C     -0.742363   -2.381354   -0.002695
  C     -0.816440   -0.859034   -0.232501
  C      0.286823   -0.159267    0.588849
  P      0.400706    1.692705    0.270303
  C      1.895655    2.065818    1.151292
  C      2.840126    2.396290    1.843048
  C      1.008451    1.699613   -1.398516
  C      1.287427    1.764619   -2.580754
  C     -2.220738   -0.320019    0.095180
  H     -0.930956   -2.626827    1.052583
  H     -1.494827   -2.902503   -0.609744
  H      0.246139   -2.777162   -0.270855
  H     -0.613993   -0.671002   -1.298467
  H      0.080670   -0.253925    1.665500
  H      1.266367   -0.609596    0.390121
  H      3.701429    2.685176    2.408651
  H      1.552489    1.817218   -3.616245
  H     -2.457775   -0.475717    1.157902
  H     -2.306528    0.754212   -0.113097
  H     -2.982862   -0.839348   -0.500357
