30
  Isotropic shielding for P: 296.625 ppm
  C      0.747979    2.008715    2.040257
  O      0.836395    0.649425    1.650208
  P     -0.026080    0.045965    0.101794
  C     -1.664108    0.462836    0.948054
  C     -2.860550    0.067663    0.068963
  C     -2.386942   -1.031566   -0.909850
  C     -1.039782   -0.542813   -1.441490
  C      0.849968   -1.562413    0.369385
  C      2.056659   -1.469689   -0.608186
  C      2.526231    0.001197   -0.707501
  C      1.290295    0.923413   -0.904210
  H      0.522427    2.690182    1.197569
  H      1.710664    2.332316    2.469785
  H     -0.033403    2.170411    2.806210
  H     -1.626019   -0.106067    1.885653
  H     -1.660250    1.521719    1.221184
  H     -3.708109   -0.267057    0.681856
  H     -3.202076    0.936619   -0.512317
  H     -3.129514   -1.206725   -1.700951
  H     -2.262581   -1.983135   -0.368226
  H     -1.198851    0.327976   -2.097566
  H     -0.493555   -1.296396   -2.022821
  H      1.179071   -1.632802    1.408347
  H      0.200521   -2.412789    0.135960
  H      2.873506   -2.123737   -0.275516
  H      1.749159   -1.821267   -1.602970
  H      3.237242    0.129570   -1.535632
  H      3.036361    0.284661    0.219858
  H      1.487909    1.941890   -0.561183
  H      0.987430    0.962099   -1.956367
