19
  Isotropic shielding for P: -60.557 ppm
  C      1.549647   -1.465543   -0.313063
  C      0.993213   -0.308224    0.527886
  N      0.054275    0.564402   -0.229053
  P      0.388141    1.783405   -1.288467
  Se     0.077835    2.696006    2.417170
  Cl     2.461335    1.838801   -1.305545
  Cl     0.072346    3.756898    0.439045
  C     -1.412263    0.326669   -0.057946
  C     -1.887431   -1.030607   -0.582794
  H      2.110453   -1.090612   -1.176170
  H      0.755079   -2.126237   -0.675157
  H      2.234418   -2.058580    0.307181
  H      0.436990   -0.679797    1.395059
  H      1.803277    0.316137    0.910926
  H     -1.941330    1.138117   -0.578614
  H     -1.629488    0.446918    1.009287
  H     -2.977093   -1.091950   -0.465565
  H     -1.444925   -1.860066   -0.019765
  H     -1.644479   -1.155737   -1.644916
