11
  Isotropic shielding for P: 145.261 ppm
  C     -1.407155   -0.535947   -0.144770
  P     -0.066085    0.700181   -0.130149
  S     -0.077057    1.978582   -1.597812
  Cl    -0.332734    1.566220    1.786619
  C      1.493179   -0.214289    0.114013
  H     -1.340814   -1.180020    0.739068
  H     -2.367837   -0.011802   -0.158970
  H     -1.304584   -1.133154   -1.058796
  H      2.304311    0.506229    0.258072
  H      1.414554   -0.874348    0.984939
  H      1.684222   -0.801752   -0.792114
