37
  Isotropic shielding for P: 216.848 ppm
  C     -1.911985    0.903130   -2.607618
  C     -1.307571    0.820328   -1.193532
  C     -2.363598    0.556522   -0.134071
  C     -2.660006    1.528604    0.831581
  C     -3.646486    1.301347    1.798888
  C     -4.346022    0.089982    1.814816
  C     -4.054756   -0.889565    0.856684
  C     -3.073851   -0.656340   -0.111874
  N     -0.266647   -0.255868   -1.136308
  P      1.320685    0.112796   -1.593506
  O      1.407154    0.687804   -2.976445
  C      2.115077    1.121731   -0.267907
  C      2.774404    0.102347    0.646008
  C      2.842766   -1.167833    0.183795
  C      2.236678   -1.425279   -1.187031
  C      3.473281   -2.346673    0.873499
  C      3.306767    0.611315    1.957983
  H     -1.124193    1.108431   -3.339898
  H     -2.398951   -0.043606   -2.871957
  H     -2.659889    1.705766   -2.648801
  H     -0.847724    1.795260   -0.963252
  H     -2.115533    2.472650    0.823678
  H     -3.865621    2.068686    2.539969
  H     -5.112623   -0.090610    2.566647
  H     -4.596732   -1.834235    0.860871
  H     -2.858466   -1.420860   -0.856751
  H     -0.317173   -0.793848   -0.271057
  H      1.381091    1.746776    0.260777
  H      2.852742    1.802508   -0.719550
  H      1.575144   -2.303027   -1.201796
  H      3.007223   -1.591855   -1.955630
  H      3.891904   -2.097138    1.853262
  H      2.737460   -3.154060    1.010786
  H      4.281396   -2.765634    0.253809
  H      2.497280    1.063207    2.551892
  H      3.777800   -0.169454    2.563101
  H      4.048982    1.406792    1.788933
