37
  Isotropic shielding for P: 248.581 ppm
  Cl     5.796807   -0.148576   -0.474386
  C      4.299532   -0.409612    0.549970
  C      3.104933   -0.747476   -0.336994
  P      1.592903   -0.945394    0.652853
  O      1.669504   -1.928175    1.754975
  O      1.184428    0.541380    1.196510
  C      0.703707    1.480589    0.270983
  C      1.605674    2.403242   -0.255317
  C      1.179483    3.353418   -1.184056
  C     -0.161351    3.352705   -1.567138
  C     -1.069138    2.448050   -1.017262
  C     -0.655083    1.490969   -0.078517
  C     -1.749464    0.606701    0.516700
  C     -1.856050   -0.834916    0.012005
  C     -0.793236   -1.666425   -0.382029
  O      0.517118   -1.192626   -0.532343
  C     -1.000727   -2.994405   -0.761024
  C     -2.283228   -3.535657   -0.781304
  C     -3.353531   -2.708293   -0.438695
  C     -3.149741   -1.385629   -0.058370
  Cl    -4.996192   -3.340897   -0.495758
  C     -1.884476    0.684403    2.101917
  Cl    -3.664855    0.605786    2.542241
  Cl    -1.269708    2.267302    2.731607
  Cl    -1.067794   -0.657578    2.963056
  Cl    -0.730461    4.530087   -2.745952
  H      4.539030   -1.221148    1.239558
  H      4.155576    0.517324    1.109618
  H      2.936072    0.028525   -1.092933
  H      3.264018   -1.699063   -0.859544
  H      2.643567    2.376433    0.066725
  H      1.876600    4.075377   -1.600176
  H     -2.115383    2.495977   -1.308759
  H     -2.674399    1.089614    0.189657
  H     -0.140357   -3.592918   -1.049719
  H     -2.448036   -4.569021   -1.073536
  H     -4.005842   -0.770070    0.195142
