22
  Isotropic shielding for P: 183.342 ppm
  Cl     3.063515    1.067563   -1.284232
  P      2.603052   -0.590893   -0.124006
  O      3.023374   -1.861059   -0.762480
  C      0.852147   -0.469315    0.363766
  C      0.379035    0.881396    0.999752
  C     -0.924159    1.179647    0.212608
  C     -0.522186    0.755572   -1.221614
  C     -0.147514   -0.693220   -0.820667
  C     -1.471217   -1.177392   -0.167689
  C     -1.987539    0.106829    0.577117
  Cl     3.635889   -0.178155    1.631393
  H      0.787539   -1.300921    1.080763
  H      0.217186    0.778999    2.077999
  H      1.112853    1.681109    0.845285
  H     -1.269607    2.211613    0.332404
  H      0.310647    1.335075   -1.630573
  H     -1.359762    0.781552   -1.929387
  H      0.229859   -1.348110   -1.610613
  H     -1.314467   -2.029229    0.504611
  H     -2.175016   -1.493699   -0.947343
  H     -2.065224   -0.039183    1.661616
  H     -2.978403    0.401921    0.211392
