37
  Isotropic shielding for P: 210.760 ppm
  C     -0.134411    5.251905    0.148038
  O      0.029849    3.835955    0.475676
  C     -0.379216    2.958396   -0.469553
  O     -0.874224    3.276744   -1.538277
  C     -0.081265    1.515581   -0.053870
  N     -0.913349    0.580794   -0.817027
  P     -2.157952   -0.257997   -0.025869
  O     -3.232986    0.582220    0.605852
  C     -2.647793   -1.525686   -1.263873
  C     -1.804976   -2.786854   -0.923976
  C     -1.264360   -2.646254    0.486146
  C     -1.331267   -1.437387    1.060833
  C      1.438664    1.223566   -0.272583
  C      1.789823   -0.180110    0.158515
  C      2.027378   -0.470146    1.511388
  C      2.284867   -1.779252    1.929502
  C      2.306013   -2.821492    0.995516
  C      2.075016   -2.542798   -0.356167
  C      1.819965   -1.231653   -0.768887
  H     -1.193164    5.477843   -0.014198
  H      0.250619    5.790870    1.015946
  H      0.439657    5.498111   -0.751391
  H     -0.295566    1.422122    1.017660
  H     -1.190912    0.984951   -1.714149
  H     -2.498864   -1.173027   -2.289588
  H     -3.718160   -1.715554   -1.118871
  H     -2.396725   -3.706081   -1.030202
  H     -0.956785   -2.880722   -1.619654
  H     -0.812051   -3.509806    0.972868
  H     -0.958386   -1.200980    2.052544
  H      1.664740    1.365574   -1.337581
  H      2.017433    1.960497    0.298709
  H      2.006944    0.337131    2.244034
  H      2.467962   -1.985912    2.983005
  H      2.503067   -3.842480    1.318671
  H      2.089821   -3.348110   -1.089294
  H      1.630696   -1.019960   -1.819896
