30
  Isotropic shielding for P: 0.483 ppm
  C      4.439557    1.008527    0.757756
  C      3.076185    0.695111    0.183132
  C      2.169471    1.721773   -0.127982
  C      0.895296    1.435238   -0.623148
  C      0.495835    0.108751   -0.831114
  C      1.396942   -0.922729   -0.530901
  C      2.668610   -0.632573   -0.030531
  C     -0.886185   -0.210034   -1.363224
  N     -1.738369   -0.870893   -0.333292
  C     -1.989032   -2.202434   -0.390677
  C     -2.715689   -2.826570    0.596276
  C     -3.157642   -2.016105    1.666035
  N     -2.941421   -0.713704    1.736854
  C     -2.244242   -0.088282    0.729850
  N     -2.012702    1.198089    0.682733
  P     -2.332428    2.187834    1.974909
  Cl    -4.486220    2.498312    1.835537
  Cl    -1.692546    4.037061    1.076237
  H      4.383817    1.129699    1.850048
  H      5.155003    0.202996    0.552375
  H      4.841206    1.943433    0.347428
  H      2.460576    2.760337    0.027669
  H      0.199331    2.244006   -0.832713
  H      1.110087   -1.962318   -0.690998
  H      3.357340   -1.447282    0.192072
  H     -0.837010   -0.903443   -2.209705
  H     -1.401316    0.702391   -1.674403
  H     -1.580645   -2.727185   -1.250136
  H     -2.924134   -3.890149    0.552023
  H     -3.709572   -2.459858    2.497495
