31
  Isotropic shielding for P: 239.691 ppm
  C      5.362613    0.177471   -0.238344
  O      4.204037    0.751031   -0.881208
  C      2.980474    0.197307   -0.619323
  C      2.768070   -0.896435    0.237334
  C      1.470781   -1.378578    0.428858
  C      0.372479   -0.790169   -0.216538
  C      0.602035    0.299976   -1.080031
  C      1.887712    0.790044   -1.280117
  P     -1.273648   -1.461569    0.131772
  O     -1.252902   -2.905333    0.553786
  C     -2.357702   -0.991491   -1.281976
  C     -2.847392    0.434906   -1.008451
  O     -3.348679    1.148162   -1.861680
  C     -2.605682    0.902856    0.444066
  C     -2.120028   -0.299167    1.286370
  C     -3.825528    1.633375    1.031877
  H      6.211679    0.771216   -0.585950
  H      5.496647   -0.872441   -0.533236
  H      5.281076    0.248305    0.855054
  H      3.596185   -1.377128    0.748882
  H      1.310127   -2.235054    1.080861
  H     -0.218086    0.771380   -1.616878
  H      2.070263    1.627029   -1.951066
  H     -3.228457   -1.664124   -1.217884
  H     -1.924623   -1.093241   -2.281190
  H     -1.779904    1.628826    0.356211
  H     -1.467421   -0.005365    2.114975
  H     -2.973873   -0.853231    1.702684
  H     -4.671836    0.942449    1.142065
  H     -4.133515    2.457793    0.379238
  H     -3.584904    2.041301    2.021040
