34
  Isotropic shielding for P: 165.719 ppm
  C     -2.871255   -2.148232    1.029937
  C     -1.611431   -1.874177    0.226057
  O     -1.803123   -0.658703   -0.583464
  P     -0.936923    0.687719   -0.379728
  S     -0.344815    1.043704    1.445493
  C      0.383244    0.583794   -1.656861
  C      1.304020   -0.613170   -1.431064
  O      0.969939   -1.712835   -1.875782
  C      2.572978   -0.434329   -0.667540
  C      2.944134    0.789861   -0.080156
  C      4.137410    0.894621    0.638569
  C      4.975556   -0.217403    0.774290
  C      4.615402   -1.441568    0.191793
  C      3.423475   -1.549116   -0.520792
  O     -1.869628    1.798373   -1.083113
  C     -2.878942    2.562677   -0.330149
  C     -4.159714    1.766976   -0.126412
  H     -3.052476   -1.345928    1.755363
  H     -2.756103   -3.092968    1.578976
  H     -3.744656   -2.235934    0.371698
  H     -0.743171   -1.736641    0.879979
  H     -1.393625   -2.670552   -0.493202
  H     -0.134770    0.440365   -2.612145
  H      0.907249    1.543111   -1.665912
  H      2.299859    1.659561   -0.158210
  H      4.411286    1.844107    1.094838
  H      5.906513   -0.132696    1.332705
  H      5.266168   -2.307900    0.297508
  H      3.128129   -2.492210   -0.974359
  H     -2.433342    2.869421    0.624031
  H     -3.047678    3.450316   -0.948605
  H     -4.913066    2.414632    0.342944
  H     -4.556717    1.411306   -1.084991
  H     -3.993525    0.903718    0.527205
