31
  Isotropic shielding for P: 245.288 ppm
  C      5.023833   -0.136326   -0.161132
  N      3.720253    0.470179   -0.521489
  N      2.639169   -0.376457   -0.143704
  C      1.939649   -0.149626    1.005424
  O      2.275609    0.693202    1.848575
  C      0.685313   -1.014901    1.171786
  P     -0.485063   -0.787215   -0.206130
  O      0.028218   -1.253390   -1.525417
  O     -1.789315   -1.543448    0.358286
  C     -2.839694   -2.017325   -0.564589
  C     -3.738418   -0.882155   -1.035171
  O     -0.826168    0.783828   -0.271682
  C     -1.364165    1.517815    0.886823
  C     -1.878782    2.857131    0.389503
  H      5.805731    0.595645   -0.397392
  H      5.094678   -0.411757    0.903379
  H      5.186928   -1.030284   -0.774129
  H      3.596213    1.325141    0.030866
  H      2.179022   -0.865027   -0.913265
  H      0.947204   -2.080875    1.187171
  H      0.213100   -0.757891    2.124420
  H     -3.395147   -2.754009    0.024573
  H     -2.353071   -2.524436   -1.405841
  H     -4.551376   -1.296665   -1.646872
  H     -3.183589   -0.161478   -1.647088
  H     -4.183809   -0.354862   -0.182528
  H     -0.553393    1.644841    1.615305
  H     -2.165163    0.921122    1.340677
  H     -1.073294    3.431241   -0.084352
  H     -2.265545    3.437702    1.237599
  H     -2.689231    2.720184   -0.336707
