27
  Isotropic shielding for P: 267.459 ppm
  C      3.571520   -1.381518   -0.158801
  C      2.527717   -0.321794    0.098918
  C      1.293603   -0.665988    0.549405
  P      0.043976    0.535702    1.012576
  O     -0.034104    0.823013    2.489008
  C      0.523048    1.970464   -0.030977
  C      2.010018    2.129722   -0.170842
  C      2.872449    1.096193   -0.129901
  Cl     4.596841    1.462309   -0.363618
  C     -1.528300   -0.080134    0.331820
  C     -2.652474   -0.105308    1.171301
  C     -3.881010   -0.565043    0.684446
  C     -3.990769   -1.002858   -0.640112
  C     -2.869568   -0.983637   -1.480349
  C     -1.641522   -0.524504   -0.996679
  H      4.427689   -1.260013    0.517811
  H      3.145118   -2.378578   -0.010984
  H      3.964348   -1.308292   -1.181777
  H      1.067709   -1.714790    0.741071
  H      0.066781    1.827407   -1.024762
  H      0.068217    2.872429    0.398719
  H      2.394058    3.134485   -0.335203
  H     -2.553907    0.233849    2.200461
  H     -4.750722   -0.581965    1.339211
  H     -4.946826   -1.361613   -1.018061
  H     -2.952386   -1.328711   -2.509705
  H     -0.771505   -0.520726   -1.651875
