33
  Isotropic shielding for P: 246.778 ppm
  C     -0.596018    3.286309   -1.980797
  O     -0.530899    2.684078   -0.650299
  C     -0.089800    1.400004   -0.614521
  O      0.227255    0.757608   -1.597996
  C     -0.069669    0.881816    0.819328
  P     -1.285683   -0.478992    1.057109
  O     -1.435184   -0.870806    2.484032
  O     -0.805599   -1.595530    0.021626
  C     -1.243192   -2.980798    0.192618
  O     -2.637572    0.059887    0.350809
  C     -3.558907    0.909657    1.101136
  C      1.352377    0.547841    1.354171
  N      2.157009   -0.285933    0.460110
  C      2.234992   -1.667966    0.599834
  O      1.713724   -2.302285    1.503657
  C      3.058077   -2.296129   -0.516942
  S      3.787209   -0.934920   -1.506919
  C      2.949227    0.313419   -0.535790
  O      3.061372    1.514305   -0.696273
  H     -0.952519    4.304740   -1.814218
  H     -1.293587    2.725236   -2.611358
  H      0.398494    3.288608   -2.437948
  H     -0.455189    1.673155    1.475174
  H     -0.709220   -3.553701   -0.568801
  H     -2.324508   -3.054594    0.030643
  H     -0.977694   -3.335534    1.192643
  H     -3.764483    0.472522    2.083636
  H     -4.474870    0.958318    0.506836
  H     -3.135597    1.915296    1.214383
  H      1.898519    1.483274    1.505597
  H      1.262990    0.020587    2.308567
  H      3.840642   -2.930598   -0.089565
  H      2.398404   -2.908979   -1.141680
