51
  Isotropic shielding for P: 248.978 ppm
  C     -3.491721   -4.761686   -0.327272
  C     -3.178816   -3.326684    0.126387
  C     -1.759020   -2.875742   -0.253716
  C     -1.444528   -1.446807    0.201122
  N     -0.075819   -1.066870   -0.192335
  C      0.326471    0.267238    0.256543
  P      2.144993    0.596565    0.001764
  O      2.476267    1.898990   -0.635004
  O      2.821050   -0.626396   -0.791321
  C      3.009860   -1.963116   -0.205744
  C      2.874306   -2.989010   -1.317214
  O      2.630566    0.435522    1.543950
  C      4.023547    0.770583    1.884689
  C      4.112690    2.185260    2.438602
  C     -0.521802    1.466993   -0.189774
  C     -1.181955    2.145543    0.856896
  C     -1.971896    3.242341    0.564176
  O     -2.690396    4.017764    1.432895
  C     -3.303024    5.069152    0.623184
  O     -2.990041    4.782520   -0.765646
  C     -2.143210    3.694979   -0.746665
  C     -1.527071    3.071195   -1.802977
  C     -0.710857    1.952198   -1.507225
  N     -0.059022    1.346600   -2.672570
  O      0.647198    0.328042   -2.513326
  O     -0.236245    1.868109   -3.790936
  H     -4.509933   -5.058679   -0.043077
  H     -3.406160   -4.857644   -1.418892
  H     -2.793459   -5.479702    0.125523
  H     -3.911252   -2.633364   -0.315519
  H     -3.302158   -3.251318    1.218310
  H     -1.019193   -3.562260    0.184981
  H     -1.636757   -2.940001   -1.347316
  H     -1.511431   -1.379780    1.298161
  H     -2.208186   -0.756193   -0.205571
  H      0.031543   -1.130158   -1.204655
  H      0.242978    0.251573    1.350459
  H      2.263255   -2.126137    0.577195
  H      4.012671   -1.980595    0.240731
  H      3.065273   -3.993283   -0.914874
  H      3.595569   -2.794352   -2.120547
  H      1.862832   -2.969836   -1.739201
  H      4.657003    0.648287    0.996710
  H      4.320945    0.023412    2.629402
  H      5.145913    2.394418    2.748828
  H      3.459725    2.299800    3.313070
  H      3.820491    2.917356    1.677695
  H     -1.063684    1.809417    1.883630
  H     -4.389078    5.043387    0.766871
  H     -2.866714    6.035757    0.906743
  H     -1.642117    3.406211   -2.826945
