36
  Isotropic shielding for P: 183.777 ppm
  C      5.377582    1.524894    0.229693
  O      4.505200    0.622300    0.945665
  C      3.339452    0.238974    0.347784
  C      2.536559   -0.650015    1.092534
  C      1.331056   -1.097975    0.575174
  C      0.900841   -0.677094   -0.701448
  C      1.705707    0.203211   -1.437151
  C      2.917480    0.667908   -0.922755
  P     -0.668039   -1.262045   -1.356238
  S     -0.991819   -0.774434   -3.220192
  N     -0.752854   -2.964900   -1.031229
  C     -1.769333   -3.399090   -0.241950
  S     -2.132274   -4.980670    0.096815
  C     -2.551802   -2.206853    0.277372
  N     -1.841564   -0.993828   -0.169518
  C     -2.307088    0.303175    0.181375
  C     -2.920754    1.129122   -0.774762
  C     -3.357605    2.412710   -0.440236
  C     -3.208517    2.883426    0.868144
  C     -2.613231    2.073641    1.839863
  C     -2.158669    0.800647    1.491281
  Cl    -1.381255   -0.184614    2.725113
  H      4.875427    2.481858    0.033061
  H      6.234553    1.683747    0.888698
  H      5.711670    1.078174   -0.716500
  H      2.880299   -0.971194    2.073563
  H      0.718914   -1.777181    1.161893
  H      1.377505    0.526073   -2.422452
  H      3.519087    1.352435   -1.512383
  H     -0.178676   -3.640000   -1.532900
  H     -2.610255   -2.245559    1.371312
  H     -3.576269   -2.245186   -0.123207
  H     -3.042958    0.745316   -1.783727
  H     -3.825061    3.037748   -1.198466
  H     -3.554679    3.878711    1.140028
  H     -2.488429    2.426468    2.860448
