33
  Isotropic shielding for P: 247.064 ppm
  C     -3.688784    2.485239    1.053195
  C     -2.756262    2.833407   -0.097535
  O     -1.549305    1.983305   -0.088330
  P     -1.529840    0.571921   -0.839863
  O     -2.218698    0.492211   -2.157559
  C      0.257779    0.231032   -0.966279
  S      1.055963    0.104196    0.675458
  C      2.756878   -0.226323    0.262152
  C      3.642367   -0.362333    1.349699
  C      4.994530   -0.625611    1.138696
  C      5.471310   -0.754023   -0.169858
  C      4.612658   -0.622215   -1.259961
  C      3.255232   -0.358410   -1.043558
  Cl     7.183422   -1.086483   -0.442264
  O     -2.105196   -0.422121    0.292751
  C     -2.304532   -1.847289   -0.016864
  C     -3.135012   -2.454936    1.100020
  H     -3.164800    2.554729    2.014283
  H     -4.528036    3.194366    1.063551
  H     -4.092807    1.472376    0.945201
  H     -3.247155    2.725643   -1.071969
  H     -2.364863    3.851846   -0.007212
  H      0.361046   -0.712986   -1.515547
  H      0.706027    1.038051   -1.557543
  H      3.272186   -0.261348    2.368908
  H      5.671962   -0.729117    1.982535
  H      4.992839   -0.722864   -2.273519
  H      2.604045   -0.259323   -1.906510
  H     -1.315730   -2.322080   -0.082344
  H     -2.806869   -1.926381   -0.988535
  H     -2.629272   -2.343604    2.066965
  H     -3.281262   -3.525886    0.906210
  H     -4.119619   -1.975190    1.158227
