44
  Isotropic shielding for P: 257.332 ppm
  C      4.130539   -0.092994    1.613290
  Si     3.475329   -0.749908   -0.015481
  O      2.121943    0.189707   -0.467116
  P      0.681531    0.333851    0.209208
  O      0.568073   -0.253329    1.577460
  O     -0.306993   -0.295237   -0.873117
  Si    -1.614881   -1.386465   -0.747938
  C     -2.689458   -0.948577    0.720220
  C     -2.526473   -1.169723   -2.372111
  C     -0.892649   -3.109018   -0.576159
  C      0.348966    2.127088    0.112253
  C     -1.103355    2.430706    0.395211
  C     -1.570913    2.538867    1.714095
  C     -2.926196    2.765156    1.972022
  C     -3.834460    2.883357    0.913278
  C     -3.376734    2.776128   -0.405307
  C     -2.020996    2.549666   -0.660299
  C      2.944722   -2.542668    0.119515
  C      4.692833   -0.484564   -1.416306
  H      3.373706   -0.196087    2.400999
  H      5.028549   -0.646335    1.922174
  H      4.399813    0.968901    1.530934
  H     -3.531378   -1.652787    0.786959
  H     -3.099344    0.064054    0.632917
  H     -2.114555   -1.008317    1.651801
  H     -3.383155   -1.855694   -2.429915
  H     -2.906483   -0.144526   -2.471852
  H     -1.868355   -1.376731   -3.226710
  H     -0.211547   -3.339081   -1.406254
  H     -0.330656   -3.200917    0.362013
  H     -1.689726   -3.865854   -0.570958
  H      1.014927    2.608179    0.839866
  H      0.638052    2.462324   -0.891197
  H     -0.869776    2.432073    2.540250
  H     -3.274185    2.845100    3.000745
  H     -4.890205    3.057648    1.114199
  H     -4.075909    2.867101   -1.235265
  H     -1.668853    2.457932   -1.686791
  H      2.476879   -2.887377   -0.811950
  H      3.811367   -3.187299    0.323056
  H      2.221749   -2.672166    0.934265
  H      4.276538   -0.829904   -2.372176
  H      4.949631    0.578360   -1.519540
  H      5.622190   -1.040740   -1.230084
