47
  Isotropic shielding for P: 224.500 ppm
  C     -2.314196    4.036801    1.292094
  N     -1.448356    3.318182    0.347688
  C     -1.687923    1.871208    0.393921
  P     -0.243707    0.894014   -0.208052
  O      0.126835    1.154522   -1.637063
  O     -0.681288   -0.623909    0.111215
  Si    -1.726739   -1.771533   -0.584026
  C     -1.017682   -3.437419   -0.099832
  C     -3.424993   -1.515304    0.177631
  C     -1.776040   -1.540686   -2.442650
  C      1.090582    1.230314    0.988444
  C      2.510087    0.835605    0.518720
  Si     2.928792   -1.015425    0.353390
  C      4.810553   -1.174065    0.480580
  C      2.387137   -1.695200   -1.322861
  C      2.126078   -1.980026    1.767066
  C     -1.585158    3.860763   -1.013371
  H     -2.064114    5.104843    1.272171
  H     -3.392744    3.931091    1.049428
  H     -2.149852    3.659948    2.308945
  H     -1.851136    1.565000    1.435760
  H     -2.584985    1.560099   -0.181829
  H     -0.962265   -3.543539    0.991624
  H     -0.008443   -3.573978   -0.507520
  H     -1.653239   -4.246701   -0.486128
  H     -4.117338   -2.302027   -0.154086
  H     -3.852501   -0.547015   -0.113968
  H     -3.374555   -1.550124    1.274356
  H     -2.152848   -0.545002   -2.708088
  H     -2.436920   -2.292410   -2.897659
  H     -0.777665   -1.646989   -2.884458
  H      0.823236    0.736362    1.932408
  H      1.030164    2.314300    1.165391
  H      3.228255    1.255789    1.240372
  H      2.724667    1.327415   -0.441280
  H      5.128752   -2.218398    0.353904
  H      5.175075   -0.827616    1.457816
  H      5.310200   -0.576579   -0.295102
  H      2.915505   -1.172597   -2.132237
  H      1.314884   -1.562707   -1.493752
  H      2.620356   -2.766316   -1.403368
  H      2.400067   -3.043187    1.719470
  H      1.032691   -1.911033    1.727888
  H      2.457743   -1.593436    2.741345
  H     -1.326519    4.926418   -1.003963
  H     -0.908664    3.334340   -1.692271
  H     -2.621992    3.756105   -1.397862
