37
  Isotropic shielding for P: 265.379 ppm
  C      1.534379    1.280518    1.434187
  O      2.821677    1.275877    0.736212
  P      3.413380   -0.095644    0.126692
  O      3.102198   -1.307036    0.931704
  C      2.779722   -0.185242   -1.570849
  C      3.442837   -0.060525   -2.716237
  O      1.373621   -0.371871   -1.526854
  C      0.889988   -1.652819   -1.656913
  O      1.543615   -2.611982   -1.994689
  C     -0.596691   -1.741534   -1.351794
  O     -1.082523   -0.523968   -0.779523
  C     -2.404320   -0.472828   -0.402424
  C     -3.324601   -1.517326   -0.568409
  C     -4.648168   -1.339723   -0.141588
  C     -5.061924   -0.144730    0.443241
  C     -4.127777    0.893026    0.600654
  C     -2.806953    0.737653    0.185709
  C     -4.565787    2.172527    1.266422
  F     -4.758409    2.003139    2.619553
  F     -5.758553    2.632547    0.767461
  F     -3.660239    3.186832    1.126898
  O      4.946001    0.276661   -0.132113
  C      5.880198    0.325451    0.994315
  H      1.466401    0.419877    2.106733
  H      1.505882    2.213181    2.003343
  H      0.719676    1.254633    0.702880
  H      2.935724   -0.154479   -3.674601
  H      4.509967    0.139841   -2.708391
  H     -1.118711   -1.975591   -2.293370
  H     -0.732205   -2.588779   -0.663799
  H     -3.031869   -2.459455   -1.021648
  H     -5.360183   -2.152191   -0.272784
  H     -6.090313   -0.013938    0.769409
  H     -2.079563    1.535384    0.303972
  H      5.860377   -0.623868    1.539757
  H      5.617355    1.155157    1.659830
  H      6.866189    0.491232    0.554619
