46
  Isotropic shielding for P: 273.467 ppm
  C      2.817517    0.309878    3.369743
  C      2.361054   -1.060443    2.900915
  O      2.581588   -1.118323    1.448154
  C      2.091358   -2.201892    0.809551
  O      1.584564   -3.162008    1.367425
  C      2.275546   -2.091822   -0.707902
  C      2.036710   -0.712983   -1.262866
  C      0.817968   -0.199748   -1.483546
  C      0.521988    1.154235   -1.989614
  C     -0.566347    1.375147   -2.854068
  C     -0.848455    2.660964   -3.315230
  C     -0.061985    3.750681   -2.924627
  C      1.012899    3.520518   -2.062870
  C      1.312945    2.245533   -1.587162
  Cl     2.003105    4.884265   -1.535497
  O     -0.315321   -1.019552   -1.268701
  P     -1.273692   -0.731706    0.025889
  O     -0.505592   -0.419951    1.256380
  O     -2.205164   -2.017914   -0.005622
  C     -1.673052   -3.344105    0.388994
  C     -1.852257   -3.575798    1.879805
  O     -2.327173    0.372582   -0.442674
  C     -2.309945    1.726846    0.144273
  C     -3.522968    2.466610   -0.387795
  H      2.233694    1.100859    2.883532
  H      2.671230    0.390698    4.454900
  H      3.881301    0.470700    3.153474
  H      1.293787   -1.223626    3.080550
  H      2.931223   -1.872933    3.368341
  H      3.303506   -2.411676   -0.928529
  H      1.599694   -2.827271   -1.156430
  H      2.897628   -0.090058   -1.491936
  H     -1.189869    0.538226   -3.154260
  H     -1.690046    2.823639   -3.985967
  H     -0.281312    4.756219   -3.273685
  H      2.131142    2.102651   -0.887369
  H     -0.620918   -3.413884    0.096140
  H     -2.258020   -4.050371   -0.208903
  H     -1.258415   -2.861310    2.459313
  H     -2.907682   -3.484808    2.165431
  H     -1.509468   -4.589387    2.127895
  H     -2.331138    1.629280    1.235164
  H     -1.376458    2.218934   -0.150137
  H     -4.451030    1.959313   -0.096724
  H     -3.537100    3.483164    0.027229
  H     -3.487241    2.540329   -1.481180
