28
  Isotropic shielding for P: 252.846 ppm
  C     -1.653815   -2.881480    0.524923
  C     -1.861539   -1.407806    0.830551
  O     -0.981504   -0.616051   -0.049399
  P      0.005067    0.502533    0.550046
  O      0.512567    0.276190    1.927057
  C      1.293249    0.561868   -0.752415
  C      2.189647   -0.658498   -0.673018
  O      1.933744   -1.744016   -1.165025
  O      3.308140   -0.388739    0.046130
  C      4.209052   -1.517022    0.261230
  O     -0.773352    1.910536    0.456340
  C     -1.534998    2.316989   -0.733360
  C     -2.413624    3.493990   -0.344931
  H     -2.336189   -3.483113    1.140822
  H     -1.859683   -3.095010   -0.531190
  H     -0.623703   -3.182800    0.749196
  H     -2.887051   -1.084187    0.614854
  H     -1.623414   -1.174280    1.874245
  H      1.863763    1.482784   -0.593046
  H      0.805366    0.586650   -1.732721
  H      3.692275   -2.306870    0.816283
  H      5.037940   -1.110904    0.844465
  H      4.561048   -1.908451   -0.698973
  H     -0.820879    2.594017   -1.520807
  H     -2.130786    1.463355   -1.079282
  H     -3.120028    3.207815    0.443759
  H     -1.805704    4.333134    0.014613
  H     -2.985588    3.829167   -1.220442
