26
  Isotropic shielding for P: 167.658 ppm
  C      3.609077    1.059318   -0.625631
  C      2.715496    1.249320    0.589652
  O      1.309599    0.902317    0.307092
  P      0.764723   -0.606958    0.361453
  S      1.677160   -1.884634    1.502951
  N     -0.848246   -0.357337    0.616888
  C     -1.718590   -1.514422    0.938877
  C     -2.472446   -2.109899   -0.257895
  C     -1.520148    0.925166    0.268543
  C     -1.651825    1.229041   -1.230495
  Cl     0.973029   -1.194687   -1.692408
  H      3.697574    0.001732   -0.896503
  H      3.223658    1.614736   -1.489069
  H      4.612039    1.439456   -0.387501
  H      2.658827    2.300095    0.891808
  H      3.049539    0.645902    1.441479
  H     -1.089116   -2.278967    1.405697
  H     -2.428805   -1.170134    1.704138
  H     -3.064772   -2.971215    0.079307
  H     -1.775628   -2.452516   -1.031510
  H     -3.161384   -1.384607   -0.707225
  H     -0.978977    1.738928    0.763702
  H     -2.513373    0.866401    0.730737
  H     -2.176937    0.428761   -1.762899
  H     -0.670180    1.363759   -1.696602
  H     -2.220192    2.160444   -1.358582
