51
  Isotropic shielding for P: 239.785 ppm
  C     -5.144717   -1.379003    0.080464
  C     -4.349421   -0.561048    1.087929
  O     -2.908655   -0.837448    0.963535
  P     -1.995198    0.108728    0.034837
  O     -2.478316    0.341946   -1.358580
  C     -0.339521   -0.681432    0.157246
  N      0.499692    0.169231   -0.708626
  C      1.954333   -0.127044   -0.592963
  C      2.494127    0.487249    0.747415
  C      3.934968    1.002367    0.606742
  C      4.013798    2.176167   -0.402668
  C      2.975731    2.022652   -1.546805
  C      2.664303    0.541410   -1.806039
  C      2.196978   -1.622764   -0.610439
  C      1.229181   -2.527538   -0.430525
  C     -0.233237   -2.215586   -0.148218
  C     -0.662856   -3.045012    1.086037
  C     -1.074439   -2.642464   -1.376738
  O     -1.905877    1.455406    0.926509
  C     -1.832695    2.789026    0.313825
  C     -0.502584    3.443321    0.650852
  H     -4.884013   -1.092522   -0.944298
  H     -4.949374   -2.450707    0.210462
  H     -6.218780   -1.203079    0.231955
  H     -4.522493    0.515368    0.962284
  H     -4.598639   -0.832970    2.119555
  H     -0.017847   -0.520371    1.195326
  H      0.209237    0.023662   -1.678138
  H      1.834118    1.318499    1.029571
  H      2.430206   -0.259217    1.548468
  H      4.584172    0.177791    0.276826
  H      4.318360    1.319420    1.585857
  H      5.028781    2.228778   -0.821449
  H      3.841982    3.127132    0.121193
  H      2.042599    2.537975   -1.283155
  H      3.346366    2.499822   -2.463746
  H      3.599616    0.003015   -2.015485
  H      2.033616    0.416783   -2.697709
  H      3.226159   -1.952884   -0.766982
  H      1.471632   -3.592362   -0.471636
  H     -0.069873   -2.766758    1.967641
  H     -0.502499   -4.114545    0.894192
  H     -1.721040   -2.889318    1.316897
  H     -2.148313   -2.569794   -1.168820
  H     -0.851458   -2.019260   -2.250899
  H     -0.846938   -3.684425   -1.638342
  H     -1.977912    2.688987   -0.767309
  H     -2.676282    3.353082    0.731055
  H     -0.480295    4.462230    0.239847
  H     -0.360453    3.506451    1.737255
  H      0.323771    2.870956    0.216389
