34
  Isotropic shielding for P: 191.641 ppm
  C      2.492789    1.545141    0.358521
  C      1.646022    0.518809    1.116787
  N      1.623838   -0.796973    0.449028
  C      2.658102   -1.705457    0.494535
  C      2.245968   -2.800822   -0.239763
  N      0.981769   -2.591198   -0.734066
  C      0.620653   -1.377371   -0.313016
  P     -0.984946   -0.620280   -0.687208
  S     -2.050096   -1.663429   -1.964758
  N     -1.694769   -0.356848    0.844963
  C     -3.138913   -0.024965    0.811150
  C     -1.423235   -1.360662    1.899224
  N     -0.507568    0.936500   -1.186752
  C      0.047750    0.982858   -2.552430
  C     -1.274757    2.136953   -0.830945
  H      2.090337    1.709938   -0.645823
  H      3.534459    1.212517    0.270220
  H      2.483730    2.500714    0.898596
  H      0.613895    0.860503    1.213365
  H      2.042907    0.360805    2.127569
  H      3.571903   -1.495663    1.036374
  H      2.789356   -3.718461   -0.433645
  H     -3.407098    0.447853    1.764817
  H     -3.364043    0.669491   -0.001121
  H     -3.757221   -0.925169    0.668479
  H     -1.932436   -2.318358    1.701543
  H     -1.794828   -0.958292    2.849908
  H     -0.352340   -1.547197    2.000672
  H      0.648546    1.896263   -2.653419
  H      0.697302    0.118112   -2.725824
  H     -0.737933    0.983024   -3.324994
  H     -1.526228    2.119518    0.232391
  H     -2.199788    2.247231   -1.422790
  H     -0.643029    3.014714   -1.021683
