44
  Isotropic shielding for P: 241.665 ppm
  O      3.769815   -3.572947    0.697461
  C      2.778624   -2.920266    1.528181
  C      2.483660   -1.478978    1.101111
  C      1.906592   -1.384128   -0.325362
  N      1.600660   -0.028215   -0.819972
  C      0.715082    0.823769   -0.009233
  P     -1.028418    0.201877    0.105953
  O     -1.956615    1.178429    0.744801
  O     -1.346706   -0.233639   -1.402090
  C     -2.734175   -0.362470   -1.876364
  C     -3.273000   -1.766627   -1.640518
  O     -0.966645   -1.224901    0.877169
  C     -1.181748   -1.288762    2.329470
  C     -2.626290   -1.650575    2.642979
  C      0.676013    2.235248   -0.571113
  C      0.537153    2.456044   -1.950853
  C      0.477699    3.758796   -2.454437
  C      0.550006    4.855671   -1.586849
  C      0.686600    4.641086   -0.210648
  C      0.749688    3.337602    0.291728
  H      4.609179   -3.088848    0.804029
  H      1.874886   -3.536384    1.428882
  H      3.090534   -2.947387    2.585359
  H      1.776078   -1.055774    1.828458
  H      3.406078   -0.878307    1.171848
  H      0.995197   -1.991612   -0.383395
  H      2.623069   -1.817216   -1.033684
  H      2.469333    0.487848   -0.971758
  H      1.018029    0.896319    1.053419
  H     -2.677180   -0.127530   -2.944538
  H     -3.345466    0.399335   -1.378310
  H     -3.348198   -1.988613   -0.570237
  H     -2.624529   -2.516680   -2.109960
  H     -4.275471   -1.849084   -2.082779
  H     -0.487269   -2.058693    2.684732
  H     -0.906216   -0.328798    2.783242
  H     -2.899703   -2.599710    2.165253
  H     -3.305214   -0.865062    2.292772
  H     -2.751325   -1.761912    3.729073
  H      0.474302    1.603090   -2.621547
  H      0.368826    3.918373   -3.526296
  H      0.501421    5.869754   -1.980506
  H      0.745096    5.487612    0.471851
  H      0.850751    3.172267    1.363680
