23
  Isotropic shielding for P: 257.570 ppm
  C     -1.575854    0.068976    1.207307
  C     -0.780944    0.032782   -0.103597
  C     -1.369666   -0.987506   -1.073448
  O     -0.923112    1.373856   -0.746105
  P      0.258353    2.378792   -0.280077
  O      0.855842    3.204612   -1.355511
  O      1.184856    1.288497    0.481512
  C      0.775624   -0.101616    0.108552
  C      1.536158   -0.475928   -1.169275
  C      1.173500   -1.005040    1.271453
  H     -1.612174   -0.925425    1.666598
  H     -2.602050    0.385520    0.989738
  H     -1.140358    0.769210    1.928690
  H     -1.201835   -2.003432   -0.694328
  H     -0.922505   -0.902618   -2.067586
  H     -2.450642   -0.830171   -1.163217
  H     -0.257197    3.153164    0.775247
  H      2.608315   -0.328960   -0.998401
  H      1.368363   -1.528486   -1.425506
  H      1.233635    0.145363   -2.018912
  H      0.767311   -0.644528    2.220735
  H      0.808286   -2.024523    1.094640
  H      2.265893   -1.042738    1.351592
