27
  Isotropic shielding for P: 187.426 ppm
  C     -0.952780    2.585923    0.686460
  C     -0.757474    1.234447    1.387284
  N     -0.430555    0.142477    0.445880
  C      0.858008   -0.124166    0.154292
  N      1.808116    0.670373    0.724412
  P      3.321188    0.319028    0.363970
  N      3.512822   -0.928125   -0.655198
  C      2.341248   -1.466657   -1.009388
  N      1.100084   -1.178525   -0.695505
  Cl     2.506831   -2.848073   -2.127312
  Cl     4.413892   -0.011273    2.063747
  Cl     4.273394    1.967902   -0.386595
  C     -1.581960   -0.573977   -0.189187
  C     -1.673753   -2.036895    0.276108
  C     -1.617647   -0.415277   -1.718686
  H     -0.028694    2.895904    0.184652
  H     -1.218803    3.352961    1.425729
  H     -1.757043    2.536976   -0.058396
  H      0.047460    1.303635    2.123202
  H     -1.672397    0.936938    1.913295
  H     -2.455526   -0.044924    0.209657
  H     -1.658474   -2.095454    1.372047
  H     -0.842334   -2.625910   -0.120700
  H     -2.616760   -2.472853   -0.077655
  H     -1.520807    0.640535   -2.000575
  H     -2.581849   -0.782297   -2.093215
  H     -0.816385   -0.982792   -2.198523
