38
  Isotropic shielding for P: 234.433 ppm
  O      1.375252   -0.050967   -2.469287
  C      0.959603    0.321301   -1.380533
  N      1.651800    0.363205   -0.152800
  C      3.027292    0.003800    0.002405
  C      3.384198   -0.967180    0.944987
  C      4.731534   -1.307848    1.094914
  C      5.708319   -0.696663    0.299684
  C      5.336718    0.265052   -0.647638
  C      3.994493    0.624817   -0.795641
  C      0.790022    0.689258    0.916668
  O      1.047077    0.732772    2.108769
  N     -0.425845    1.036274    0.315439
  N     -0.308925    0.828031   -1.106201
  C     -1.541876    0.311878   -1.746197
  C     -1.801495   -1.158068   -1.310794
  P     -1.873534   -1.229547    0.543223
  O     -0.756605   -2.017837    1.165894
  C     -1.739694    0.630524    0.855519
  C     -2.828758    1.341526    0.071901
  C     -2.689079    1.179252   -1.254265
  Cl    -3.774120    1.837047   -2.454924
  C     -3.894030    2.094016    0.804468
  C     -3.551330   -1.729060    1.037762
  H      2.616074   -1.443475    1.547595
  H      5.015525   -2.058991    1.829668
  H      6.755614   -0.969640    0.416694
  H      6.092389    0.741962   -1.269129
  H      3.695996    1.374867   -1.523599
  H     -1.397089    0.388601   -2.825379
  H     -0.976365   -1.806450   -1.628034
  H     -2.728930   -1.522694   -1.766634
  H     -1.753175    0.858560    1.923608
  H     -3.453701    2.938214    1.355216
  H     -4.378640    1.446059    1.548968
  H     -4.659045    2.479727    0.124359
  H     -3.643361   -1.640831    2.126484
  H     -4.309066   -1.109557    0.545635
  H     -3.697042   -2.777930    0.751493
