36
  Isotropic shielding for P: 236.138 ppm
  C      4.445216   -0.341028    0.147480
  Si     2.718840   -0.738273   -0.459570
  O      1.792800    0.697625   -0.439048
  P      1.253000    1.575166    0.791773
  O      2.078964    1.512348    2.039672
  C     -0.506866    1.104098    1.030084
  N     -1.280912    1.329718   -0.196596
  C     -1.388791    0.137244   -1.066638
  C     -2.379395   -0.920306   -0.537837
  C     -3.764860   -0.292272   -0.289030
  C     -3.647943    0.954743    0.609237
  C     -2.609684    1.938424    0.032578
  C      1.867483   -2.001077    0.638693
  C      2.702801   -1.260884   -2.259653
  H      4.411033    0.025878    1.180827
  H      4.912603    0.433364   -0.475680
  H      5.084629   -1.234466    0.115212
  H      1.169413    2.851859    0.181864
  H     -0.542752    0.075122    1.427543
  H     -0.870041    1.761484    1.831244
  H     -0.390190   -0.289018   -1.200589
  H     -1.725824    0.485747   -2.055275
  H     -1.996968   -1.355482    0.398482
  H     -2.451549   -1.745764   -1.260984
  H     -4.448134   -1.027831    0.157830
  H     -4.204371    0.002538   -1.256419
  H     -4.621022    1.458915    0.702106
  H     -3.346121    0.655642    1.625329
  H     -2.967166    2.314649   -0.939112
  H     -2.481943    2.808066    0.689668
  H      2.420644   -2.950774    0.635376
  H      1.814858   -1.644484    1.675747
  H      0.845806   -2.205453    0.291625
  H      3.289446   -2.179558   -2.399714
  H      3.137787   -0.480772   -2.898768
  H      1.679309   -1.455186   -2.607065
