45
  Isotropic shielding for P: 250.443 ppm
  O     -0.203417    4.723260    0.068207
  P     -0.139480    3.502169    0.900483
  O     -1.318872    2.413442    0.663721
  C     -0.797673    1.051162    0.523951
  C      0.707758    1.195403    0.180079
  O      1.123323    2.499399    0.707439
  C      1.554852    0.103002    0.801950
  O      2.870962    0.178467    0.257290
  C      3.768155   -0.789833    0.855240
  C      5.134958   -0.606924    0.250374
  C      5.966154    0.436862    0.687924
  C      7.222068    0.635499    0.107384
  C      7.662499   -0.212143   -0.917609
  C      6.841346   -1.255860   -1.358926
  C      5.582780   -1.448798   -0.777639
  C     -1.576294    0.321442   -0.553589
  O     -2.879999    0.029082   -0.052049
  C     -3.735159   -0.563770   -1.061057
  C     -5.084530   -0.822243   -0.445136
  C     -5.405486   -2.086103    0.071518
  C     -6.647547   -2.314371    0.674302
  C     -7.580416   -1.274993    0.768806
  C     -7.267652   -0.009001    0.257220
  C     -6.026668    0.213929   -0.346978
  H     -0.135838    3.776076    2.279590
  H     -0.933401    0.545523    1.490385
  H      0.860877    1.216825   -0.907769
  H      1.571609    0.229485    1.898872
  H      1.095305   -0.878399    0.577800
  H      3.794756   -0.628470    1.946550
  H      3.388806   -1.808347    0.666598
  H      5.624015    1.096154    1.485087
  H      7.858861    1.447382    0.455297
  H      8.642283   -0.060484   -1.367825
  H      7.179751   -1.918042   -2.154333
  H      4.942145   -2.259713   -1.123599
  H     -1.629920    0.953392   -1.457107
  H     -1.042613   -0.610980   -0.817537
  H     -3.281679   -1.502684   -1.421463
  H     -3.817635    0.130074   -1.914612
  H     -4.678581   -2.894790   -0.001713
  H     -6.887339   -3.300747    1.068397
  H     -8.548119   -1.450916    1.236057
  H     -7.991688    0.801393    0.325985
  H     -5.783454    1.198384   -0.745655
