47
  Isotropic shielding for P: 234.669 ppm
  C      7.283137    0.399927   -0.647953
  O      6.460883    0.464476    0.533143
  C      5.097228    0.380996    0.371260
  C      4.334418    0.438728    1.549576
  C      2.945844    0.345914    1.486928
  C      2.293690    0.209197    0.251500
  C      3.053720    0.173473   -0.922105
  C      4.448645    0.248854   -0.867977
  N      0.869966    0.183106    0.225028
  C      0.065845   -0.741844   -0.403008
  S      0.705846   -2.117799   -1.158009
  N     -1.280093   -0.466176   -0.358732
  C     -1.848520    0.785026    0.151838
  P     -2.080119    2.055168   -1.192946
  O     -3.103227    1.614923   -2.206731
  C     -2.528887    3.568687   -0.275783
  C     -0.431840    2.358433   -1.906750
  C     -2.287223   -1.401458   -0.910059
  C     -3.144833   -2.004657    0.182058
  C     -4.540298   -1.875714    0.147853
  C     -5.333954   -2.442707    1.153326
  C     -4.734895   -3.139066    2.208089
  C     -3.339345   -3.267050    2.252219
  C     -2.549993   -2.703289    1.246633
  H      7.139122   -0.551518   -1.179531
  H      8.314472    0.471408   -0.292429
  H      7.066709    1.236666   -1.327593
  H      4.844654    0.541223    2.505112
  H      2.359817    0.368669    2.405008
  H      2.557788    0.077436   -1.882788
  H      5.013845    0.211040   -1.794092
  H      0.434810    0.791574    0.908993
  H     -1.287213    1.208294    0.991453
  H     -2.851688    0.569611    0.541737
  H     -1.742779    3.849192    0.435937
  H     -2.676134    4.384618   -0.993495
  H     -3.468576    3.398906    0.263316
  H     -0.075915    1.443169   -2.391740
  H     -0.530994    3.144925   -2.664905
  H      0.290035    2.670131   -1.144266
  H     -2.905516   -0.849004   -1.626845
  H     -1.732212   -2.175162   -1.448707
  H     -5.005518   -1.325167   -0.669529
  H     -6.416970   -2.334864    1.114553
  H     -5.349032   -3.579245    2.992176
  H     -2.868119   -3.811044    3.069687
  H     -1.466386   -2.808302    1.278739
