43
  Isotropic shielding for P: 253.150 ppm
  C     -0.826292    3.684113    0.881988
  C     -1.025356    2.285477    1.512772
  C     -0.089699    1.266104    0.903265
  N      1.040229    1.060182    1.524548
  C      1.969331    0.182117    1.052812
  N      3.101818   -0.125227    1.660343
  C      3.738304   -1.046046    0.836140
  C      2.958951   -1.313208   -0.321024
  N      1.812106   -0.520047   -0.174034
  P      0.570057   -0.269084   -1.292242
  O     -0.050941   -1.499336   -1.851054
  N     -0.465563    0.671303   -0.303218
  C     -1.841142    0.836835   -0.854935
  C     -2.908522    0.073221   -0.091972
  C     -2.668813   -1.213037    0.412234
  C     -3.683562   -1.907472    1.078373
  C     -4.947384   -1.327767    1.244028
  C     -5.192264   -0.045593    0.740125
  C     -4.174950    0.650839    0.078799
  C      1.232066    0.844348   -2.556316
  C      3.357504   -2.204953   -1.315821
  C      4.592409   -2.837146   -1.130696
  C      5.383985   -2.584727    0.009608
  C      4.970127   -1.695154    1.003961
  H      0.208246    4.020582    1.020064
  H     -1.044663    3.684596   -0.193375
  H     -1.493564    4.409787    1.362796
  H     -2.069896    1.972066    1.421373
  H     -0.785848    2.329982    2.579531
  H     -1.812286    0.473131   -1.890047
  H     -2.091361    1.900881   -0.903855
  H     -1.694579   -1.676413    0.275655
  H     -3.487049   -2.905836    1.466006
  H     -5.734581   -1.870734    1.764432
  H     -6.170174    0.415832    0.868196
  H     -4.364782    1.654070   -0.303303
  H      1.670248    1.732391   -2.086965
  H      0.424049    1.141536   -3.235013
  H      1.999065    0.313242   -3.132090
  H      2.736372   -2.412122   -2.183765
  H      4.944935   -3.542810   -1.880581
  H      6.336465   -3.100884    0.116281
  H      5.577102   -1.505037    1.886768
