48
  Isotropic shielding for P: 150.862 ppm
  C      1.732201   -2.992706    1.156401
  C      0.492671   -2.093974    1.266161
  N      0.376335   -1.082529    0.197130
  P      0.376688    0.541305    0.655315
  N      1.257998    1.383289   -0.603566
  C      0.461109    2.044375   -1.630637
  C     -1.006279    1.893451   -1.250366
  O     -1.934451    2.363319   -1.905169
  N     -1.115311    1.178615   -0.075044
  C     -2.373371    0.810825    0.501397
  C     -2.613247    1.058803    1.858221
  C     -3.821092    0.660618    2.437887
  C     -4.816075    0.022927    1.681018
  C     -4.556369   -0.217117    0.320434
  C     -3.349334    0.163017   -0.267511
  C     -6.139071   -0.369461    2.300160
  C      2.653460    1.399354   -0.658638
  C      3.335504    2.045632   -1.713294
  C      4.731718    2.052379   -1.769880
  C      5.468851    1.412169   -0.775166
  C      4.820386    0.762810    0.278756
  C      3.428778    0.753170    0.332911
  Cl     7.235609    1.416282   -0.847312
  C      0.088578   -1.560009   -1.170365
  C      1.321744   -1.701086   -2.077339
  H      1.781603   -3.663205    2.025259
  H      2.649284   -2.390953    1.129016
  H      1.703415   -3.617339    0.255467
  H     -0.419150   -2.713304    1.272124
  H      0.516004   -1.553751    2.222062
  H      0.614792    1.611322   -2.633099
  H      0.694498    3.117754   -1.695578
  H     -1.856588    1.563512    2.455168
  H     -3.994240    0.856748    3.495640
  H     -5.309083   -0.717868   -0.288221
  H     -3.162367   -0.037387   -1.318768
  H     -6.059463   -0.456898    3.390354
  H     -6.911275    0.384029    2.084041
  H     -6.499651   -1.326315    1.901281
  H      2.782710    2.549339   -2.500176
  H      5.238711    2.556319   -2.589160
  H      5.398198    0.263595    1.052776
  H      2.943510    0.242555    1.160439
  H     -0.427763   -2.526766   -1.082378
  H     -0.628346   -0.871086   -1.635911
  H      1.014359   -2.079330   -3.062114
  H      1.820165   -0.737284   -2.223636
  H      2.053639   -2.398844   -1.656389
