53
  Isotropic shielding for P: 269.459 ppm
  O      2.393865   -1.123225   -2.327144
  C      2.482386   -0.892486   -1.123681
  O      3.648318   -0.820479   -0.427575
  C      4.975161   -1.029920   -1.089947
  C      5.053510   -2.450590   -1.665341
  C      5.200407    0.053030   -2.153910
  C      5.954284   -0.859944    0.077760
  C      1.290390   -0.658283   -0.277558
  C      1.326407   -0.450058    1.056378
  C      0.214275   -0.202938    1.975788
  C      0.437459   -0.586846    3.319003
  C     -0.541515   -0.448261    4.298586
  C     -1.776916    0.110702    3.955594
  C     -2.005474    0.536282    2.645122
  C     -1.036457    0.396720    1.636021
  P     -1.326866    1.134243   -0.040698
  C     -2.815044    2.185282    0.258031
  C     -2.586331    3.481793    0.755888
  C     -3.651864    4.351342    1.001484
  C     -4.964765    3.944411    0.730873
  C     -5.201604    2.663418    0.220178
  C     -4.134751    1.787227   -0.011046
  C     -2.058402   -0.278373   -0.976613
  C     -2.172321   -0.133003   -2.371130
  C     -2.712937   -1.157251   -3.152509
  C     -3.129974   -2.351585   -2.551254
  C     -3.007418   -2.510730   -1.166601
  C     -2.478918   -1.478783   -0.382654
  H      6.079938   -2.644163   -2.003162
  H      4.375433   -2.577807   -2.512809
  H      4.802994   -3.188493   -0.892798
  H      4.512771   -0.064163   -2.995040
  H      6.230067   -0.020259   -2.527496
  H      5.064792    1.050127   -1.716513
  H      5.762649   -1.608369    0.856424
  H      5.859260    0.139148    0.520245
  H      6.983370   -0.986101   -0.280266
  H      0.364126   -0.714216   -0.837802
  H      2.303125   -0.504838    1.538481
  H      1.404627   -1.015155    3.579630
  H     -0.341314   -0.766063    5.320339
  H     -2.557590    0.227984    4.705604
  H     -2.960408    0.995092    2.405001
  H     -1.565527    3.808992    0.953203
  H     -3.458181    5.349057    1.392738
  H     -5.796072    4.624089    0.911260
  H     -6.219685    2.341445    0.005050
  H     -4.333300    0.790884   -0.398343
  H     -1.830264    0.786206   -2.845984
  H     -2.797067   -1.029082   -4.230566
  H     -3.540320   -3.155587   -3.160096
  H     -3.325456   -3.438848   -0.693545
  H     -2.392975   -1.611473    0.693401
