60
  Isotropic shielding for P: 214.819 ppm
  O      0.909382    1.978125   -3.012219
  C      0.972094    0.762993   -2.221283
  P      2.381276    1.005675   -1.027613
  O      2.265960    2.359925   -0.386799
  C      2.442828   -0.409948    0.119598
  C      3.267027   -0.123451    1.402465
  C      4.733407    0.125446    1.128328
  C      5.266847    1.420290    1.110791
  C      6.618999    1.599927    0.807964
  N      7.463544    0.589225    0.525993
  C      6.946227   -0.654841    0.549721
  C      5.609127   -0.931103    0.842148
  O      3.740999    0.772977   -1.900447
  C     -0.312216    0.404323   -1.511144
  C     -0.907477    1.288463   -0.604918
  C     -2.067868    0.960589    0.100767
  C     -2.629482   -0.323007   -0.135702
  C     -2.061066   -1.248353   -1.048447
  C     -0.896524   -0.845290   -1.717853
  C     -2.680755   -2.642337   -1.322323
  C     -4.113755   -2.501390   -1.912457
  C     -1.860715   -3.440134   -2.364414
  C     -2.693265   -3.505678   -0.027441
  O     -3.776088   -0.620272    0.578546
  C     -2.696406    1.964260    1.095300
  C     -4.132465    2.342844    0.639936
  C     -2.722902    1.363351    2.527639
  C     -1.882360    3.278212    1.170993
  H      0.950029    2.730793   -2.387255
  H      1.244310   -0.037777   -2.919352
  H      2.839247   -1.277249   -0.424272
  H      1.404560   -0.635024    0.392838
  H      3.158834   -0.991885    2.066425
  H      2.833136    0.741614    1.917065
  H      4.631418    2.280464    1.311654
  H      7.046691    2.603963    0.789108
  H      7.638184   -1.468601    0.325143
  H      5.256457   -1.962247    0.844920
  H      3.944780    1.541578   -2.468684
  H     -0.438120    2.251499   -0.440604
  H     -0.423414   -1.517186   -2.426960
  H     -4.529769   -3.496345   -2.118227
  H     -4.078509   -1.941494   -2.855323
  H     -4.824475   -1.981398   -1.258789
  H     -2.340393   -4.413386   -2.526635
  H     -0.835419   -3.625987   -2.021733
  H     -1.816875   -2.924016   -3.331086
  H     -1.671061   -3.630249    0.351424
  H     -3.102397   -4.499995   -0.248997
  H     -3.289494   -3.086418    0.792198
  H     -4.085261   -1.513340    0.356281
  H     -4.796762    1.475658    0.609042
  H     -4.107054    2.795799   -0.360266
  H     -4.558262    3.080112    1.334324
  H     -3.328870    0.455765    2.582492
  H     -1.703757    1.121841    2.858562
  H     -3.139069    2.099889    3.228483
  H     -1.841781    3.792330    0.202382
  H     -2.366809    3.953723    1.887075
  H     -0.854469    3.106941    1.514645
