54
  Isotropic shielding for P: 252.648 ppm
  F      2.981749   -1.268080    3.736314
  C      2.288047   -0.502349    4.623249
  C      2.021396    0.912356    4.096271
  N      1.247142    0.905093    2.872242
  C     -0.103049    0.877707    2.740873
  C     -0.379062    0.802181    1.380358
  C      0.908292    0.790750    0.744783
  N      1.885193    0.850069    1.659504
  C      1.239651    0.683593   -0.720903
  C      2.629857    1.289085   -1.086503
  C      3.724273    0.212672   -1.175506
  C      3.418282   -0.804819   -2.306298
  C      1.892213   -1.019299   -2.499541
  C      1.135132   -0.804271   -1.180720
  P     -2.076734    0.755964    0.790326
  O     -3.008178    1.535903    1.683200
  C     -2.032040    1.389516   -0.915363
  C     -1.861917    2.775731   -1.081965
  C     -1.776827    3.324026   -2.362920
  C     -1.866521    2.493192   -3.487916
  C     -2.051200    1.115915   -3.327504
  C     -2.136525    0.564410   -2.044564
  C     -2.536823   -1.002031    0.668479
  C     -3.876009   -1.309784    0.366311
  C     -4.292463   -2.640619    0.292306
  C     -3.376839   -3.675784    0.524858
  C     -2.046095   -3.375356    0.833844
  C     -1.626267   -2.042352    0.905351
  F      3.018747   -0.440033    5.777322
  F      1.127803   -1.167280    4.908513
  H      2.984396    1.394957    3.905291
  H      1.482630    1.463793    4.873984
  H     -0.768351    0.929358    3.593228
  H      0.477400    1.245880   -1.269799
  H      2.903438    2.056934   -0.354238
  H      2.545055    1.794477   -2.059303
  H      4.704264    0.679564   -1.343952
  H      3.789894   -0.306146   -0.209621
  H      3.859810   -0.457250   -3.251125
  H      3.899868   -1.764466   -2.070480
  H      1.696917   -2.026583   -2.891520
  H      1.502456   -0.314025   -3.248985
  H      0.079893   -1.082772   -1.281132
  H      1.557961   -1.457649   -0.403524
  H     -1.793594    3.419278   -0.206518
  H     -1.640868    4.397248   -2.485676
  H     -1.797035    2.920805   -4.486836
  H     -2.128496    0.469440   -4.200036
  H     -2.275602   -0.507153   -1.926583
  H     -4.590706   -0.505808    0.198752
  H     -5.330454   -2.871527    0.058508
  H     -3.702929   -4.713272    0.470320
  H     -1.334057   -4.177078    1.022873
  H     -0.592911   -1.814112    1.151665
