48
  Isotropic shielding for P: 228.342 ppm
  C      6.257636    1.939483    1.357640
  C      4.821303    1.659858    1.833511
  C      3.799677    1.473809    0.693506
  C      4.028172    0.213277   -0.159504
  C      3.039171    0.056729   -1.332972
  C      1.548306   -0.047849   -0.952397
  C      1.222580   -1.261785   -0.066389
  C     -0.269229   -1.391716    0.307045
  P     -1.372540   -1.778240   -1.094268
  O     -0.836355   -2.797792   -2.040603
  O     -1.644104   -0.340695   -1.858861
  C     -2.347419    0.667173   -1.201701
  C     -1.962078    1.978937   -1.483864
  C     -2.624128    3.041894   -0.868910
  C     -3.664321    2.784392    0.033984
  C     -4.048285    1.470588    0.296857
  C     -3.415804    0.373013   -0.323398
  C     -3.857617   -1.020556   -0.098606
  C     -3.008849   -2.108940   -0.420503
  C     -3.426655   -3.433400   -0.234152
  C     -4.693830   -3.704095    0.284200
  C     -5.546748   -2.639006    0.600927
  C     -5.139317   -1.318965    0.405275
  H      6.291809    2.834391    0.719381
  H      6.928900    2.110988    2.209834
  H      6.666901    1.101710    0.778514
  H      4.815455    0.762115    2.472669
  H      4.489930    2.492370    2.472675
  H      3.820807    2.361733    0.039202
  H      2.791006    1.440460    1.130637
  H      5.045699    0.230533   -0.575413
  H      3.985158   -0.673194    0.492721
  H      3.315039   -0.838875   -1.911495
  H      3.164554    0.912229   -2.015275
  H      1.218655    0.871215   -0.444700
  H      0.963921   -0.107455   -1.880005
  H      1.791622   -1.203078    0.871851
  H      1.546186   -2.182460   -0.572176
  H     -0.642628   -0.480002    0.796361
  H     -0.414054   -2.217430    1.019201
  H     -1.140770    2.143381   -2.177368
  H     -2.319176    4.064654   -1.082076
  H     -4.172755    3.606382    0.533782
  H     -4.849460    1.287051    1.008242
  H     -2.757107   -4.246728   -0.507859
  H     -5.018961   -4.732487    0.429108
  H     -6.543679   -2.838508    0.990617
  H     -5.836815   -0.514910    0.625452
