43
  Isotropic shielding for P: 242.914 ppm
  C      3.849908   -2.017173    0.566988
  C      2.916485   -0.821094    0.361152
  C      3.675111    0.464490   -0.079205
  C      2.734748    1.666334   -0.254082
  C      1.610873    1.356267   -1.255629
  C      0.840527    0.048486   -0.909930
  C      1.798153   -1.109618   -0.629654
  O      1.658752   -2.189829   -1.194899
  P     -0.333736    0.312252    0.511258
  O      0.315155    0.784837    1.786156
  C     -1.528550    1.527701   -0.139142
  C     -2.380543    1.244360   -1.219030
  C     -3.264908    2.219374   -1.687475
  C     -3.304395    3.481251   -1.079832
  C     -2.458933    3.765834   -0.001863
  C     -1.571548    2.792081    0.468493
  C     -1.242350   -1.251325    0.721734
  C     -1.544672   -2.128054   -0.333934
  C     -2.274231   -3.294869   -0.089042
  C     -2.706281   -3.595378    1.207865
  C     -2.401574   -2.729009    2.264430
  C     -1.670848   -1.562471    2.023986
  H      4.368027   -2.277598   -0.365076
  H      3.295837   -2.902820    0.898935
  H      4.605569   -1.776046    1.325365
  H      2.406684   -0.575787    1.309433
  H      4.445479    0.686903    0.671518
  H      4.201926    0.256942   -1.024664
  H      2.298728    1.933041    0.716658
  H      3.303479    2.536942   -0.609705
  H      0.905830    2.194762   -1.325900
  H      2.041427    1.221525   -2.259091
  H      0.211631   -0.245298   -1.759943
  H     -2.364463    0.264165   -1.691334
  H     -3.925943    1.994760   -2.522922
  H     -3.995649    4.239047   -1.445124
  H     -2.490133    4.744694    0.473890
  H     -0.912091    2.999158    1.308447
  H     -1.195972   -1.923795   -1.342188
  H     -2.496550   -3.973546   -0.910690
  H     -3.272251   -4.506452    1.395530
  H     -2.728914   -2.963634    3.275937
  H     -1.420094   -0.891306    2.842683
