75
  Isotropic shielding for P: 240.405 ppm
  N     -2.898995    6.397364    3.033492
  N     -1.894358    6.246991    2.502683
  N     -0.822609    6.250088    1.887605
  C      0.011010    5.021598    1.964280
  C     -0.486229    3.919007    1.023016
  C      0.478413    2.713166    1.056243
  P      0.177637    1.511602   -0.275790
  O      0.481080    1.998764   -1.652875
  O     -1.371041    1.154211    0.009769
  C     -2.187202    0.434830   -0.996524
  C     -3.605626    0.994669   -0.918670
  C     -4.538817    0.329109   -1.988307
  C     -5.775468   -0.316133   -1.336873
  C     -3.745166   -0.677565   -2.857043
  C     -2.954594   -1.711674   -2.024915
  C     -2.119496   -1.094846   -0.839222
  C     -2.577734   -1.699873    0.523211
  C     -2.201214   -3.198070    0.557361
  C     -2.011725   -1.024234    1.788696
  O      0.969754    0.177048    0.151834
  C      2.134422   -0.321492   -0.610238
  C      1.966442   -1.822620   -0.830325
  C      3.023042   -2.340226   -1.846214
  C      3.270603   -3.844067   -1.641299
  C      4.339319   -1.514317   -1.746854
  C      4.566818   -0.975480   -0.325255
  C      3.473104    0.047891    0.093523
  C      3.382737    0.242597    1.635332
  C      2.890369   -0.987660    2.421930
  C      4.730572    0.740777    2.195975
  O     -1.805568    3.561122    1.472228
  H      1.017183    5.331776    1.666223
  H      0.043795    4.642710    2.996515
  H     -0.531493    4.326598   -0.000733
  H      1.515551    3.049761    0.920782
  H      0.407633    2.204477    2.026518
  H     -1.750653    0.694858   -1.967571
  H     -4.003259    0.826256    0.091030
  H     -3.563005    2.080961   -1.067442
  H     -4.899869    1.121208   -2.659335
  H     -6.444088   -0.739813   -2.098805
  H     -6.344664    0.426494   -0.761652
  H     -5.493502   -1.122806   -0.647876
  H     -3.059910   -0.124108   -3.514364
  H     -4.440081   -1.208404   -3.523322
  H     -3.663448   -2.440195   -1.613460
  H     -2.293511   -2.276687   -2.694324
  H     -1.066752   -1.376368   -0.969601
  H     -3.675690   -1.627416    0.569250
  H     -1.107115   -3.310894    0.557710
  H     -2.595126   -3.752440   -0.302723
  H     -2.587793   -3.673898    1.468169
  H     -2.314300   -1.601728    2.673582
  H     -0.915156   -0.994448    1.764188
  H     -2.370457    0.000800    1.917064
  H      2.100706    0.179814   -1.583625
  H      2.067172   -2.353624    0.124748
  H      0.957226   -2.028936   -1.206000
  H      2.613266   -2.198437   -2.857438
  H      3.936582   -4.244914   -2.417234
  H      3.736075   -4.034340   -0.663278
  H      2.328787   -4.409215   -1.676604
  H      5.189092   -2.138516   -2.056335
  H      4.305170   -0.669653   -2.450988
  H      5.553727   -0.502680   -0.254191
  H      4.579538   -1.820009    0.378301
  H      3.769093    1.028214   -0.312574
  H      2.651983    1.043291    1.806313
  H      3.547501   -1.855871    2.278815
  H      1.874401   -1.274753    2.131945
  H      2.879305   -0.762174    3.497136
  H      5.091641    1.618852    1.642663
  H      5.505384   -0.035214    2.138809
  H      4.624839    1.025186    3.251485
  H     -2.075364    2.764207    0.971949
