48
  Isotropic shielding for P: 248.203 ppm
  C      4.364812   -1.762769   -0.256796
  C      3.842860   -2.277193    0.933767
  C      2.541046   -1.943029    1.327722
  C      1.755647   -1.093431    0.533180
  C      2.286390   -0.579672   -0.662741
  C      3.584430   -0.913285   -1.054718
  P      0.053182   -0.684671    1.087829
  C     -0.119702    1.105215    0.927264
  C      0.709056    2.005587    1.718091
  C      1.083529    3.291638    1.273301
  C      1.942312    4.068698    2.051000
  N      2.462956    3.674011    3.230220
  C      2.112713    2.442037    3.653876
  C      1.259705    1.593207    2.953198
  C     -1.160174    1.385526    0.061232
  C     -1.688828    0.210639   -0.634328
  C     -1.035848   -0.966602   -0.321230
  C     -1.207441   -2.313204   -0.859229
  C     -1.327786   -2.563917   -2.242172
  C     -1.395640   -3.878089   -2.702576
  N     -1.346995   -4.963499   -1.903108
  C     -1.220603   -4.726084   -0.582304
  C     -1.148935   -3.450464   -0.024281
  C     -2.953200    0.294448   -1.465823
  C     -3.357256    1.735534   -1.825325
  C     -3.247969    2.655148   -0.600821
  C     -1.782512    2.748636   -0.140179
  H      5.376803   -2.020970   -0.564972
  H      4.445513   -2.937071    1.555912
  H      2.134320   -2.343938    2.254941
  H      1.681405    0.079934   -1.282201
  H      3.990983   -0.512405   -1.982027
  H      0.740296    3.672122    0.315858
  H      2.236288    5.061473    1.705475
  H      2.537720    2.121493    4.606827
  H      1.009483    0.618359    3.367257
  H     -1.329979   -1.743800   -2.955409
  H     -1.482726   -4.074291   -3.772700
  H     -1.174956   -5.605272    0.063155
  H     -1.058121   -3.335401    1.053977
  H     -2.865153   -0.315514   -2.370654
  H     -3.764663   -0.163960   -0.875528
  H     -4.380326    1.735280   -2.224120
  H     -2.702792    2.119597   -2.623630
  H     -3.869737    2.256935    0.216605
  H     -3.625522    3.659860   -0.832057
  H     -1.692178    3.339877    0.780059
  H     -1.212511    3.293176   -0.911414
