51
  Isotropic shielding for P: 249.582 ppm
  C     -4.956384    1.885960   -1.790218
  C     -4.084500    2.200921   -0.583895
  O     -2.750975    1.581833   -0.715133
  P     -2.490049    0.086703   -0.202773
  O     -3.375953   -0.977855   -0.750006
  C     -0.722164   -0.146170   -0.712260
  C      0.281930    1.075312   -0.530536
  C      1.740479    0.629265   -0.732603
  N      2.741853    1.171807   -0.109375
  C      3.953460    0.641803   -0.529967
  C      3.852865   -0.349387   -1.544751
  S      2.172994   -0.600319   -1.942885
  C      4.987280   -0.983933   -2.064105
  C      6.232957   -0.609758   -1.559014
  C      6.346679    0.374427   -0.555024
  C      5.217524    1.002970   -0.035153
  C      0.018422    2.006032   -1.649984
  N     -0.151255    2.744962   -2.530034
  C      0.139845    1.930048    0.781172
  C      0.461965    1.254327    2.118723
  C     -0.255754   -1.466200   -0.190813
  C     -0.463162   -2.740008   -0.646916
  C      0.231601   -3.615935    0.250088
  C      0.817488   -2.819626    1.191924
  O      0.520312   -1.497884    0.946546
  O     -2.523743    0.202506    1.401711
  C     -3.279234   -0.753298    2.236204
  C     -2.403797   -1.914231    2.677935
  H     -5.913622    2.416629   -1.692879
  H     -4.469738    2.217198   -2.715566
  H     -5.156729    0.811260   -1.859118
  H     -4.541374    1.858399    0.353478
  H     -3.877196    3.272506   -0.499431
  H     -0.844638   -0.291519   -1.794837
  H      4.902351   -1.744380   -2.837194
  H      7.130600   -1.086901   -1.947941
  H      7.332768    0.644655   -0.182354
  H      5.293476    1.763038    0.739487
  H      0.805540    2.789661    0.646632
  H     -0.882760    2.319356    0.792080
  H      0.381473    2.013187    2.908716
  H     -0.238156    0.450876    2.351380
  H      1.479466    0.855217    2.135585
  H     -1.044372   -3.013854   -1.517965
  H      0.289701   -4.696228    0.197134
  H      1.438474   -3.006854    2.057056
  H     -4.148425   -1.098367    1.666991
  H     -3.619113   -0.153459    3.087399
  H     -1.512064   -1.557750    3.206077
  H     -2.976930   -2.556099    3.361379
  H     -2.089612   -2.520848    1.821632
