47
  Isotropic shielding for P: 247.643 ppm
  O     -1.920474   -2.500765    0.929440
  P     -1.926802   -1.248255    0.090998
  C     -2.896374   -1.451869   -1.443795
  C     -3.097259   -0.405561   -2.359865
  C     -3.838461   -0.623132   -3.524402
  C     -4.386341   -1.886582   -3.781700
  C     -4.191399   -2.931006   -2.871190
  C     -3.448756   -2.715384   -1.705196
  C     -2.667338    0.171240    0.970228
  C     -3.517084   -0.111410    2.052202
  C     -4.133124    0.927899    2.755765
  C     -3.901612    2.258329    2.387231
  C     -3.049190    2.547335    1.314879
  C     -2.433922    1.508980    0.609072
  C     -0.261890   -0.710319   -0.451926
  C      0.700505   -0.464988    0.723262
  C      2.111140   -0.078125    0.250867
  C      3.088391    0.157106    1.424924
  C      4.474182    0.542123    0.954392
  C      4.818161    1.889228    0.753292
  C      6.083036    2.246055    0.272897
  C      7.029381    1.255725   -0.016367
  C      6.700394   -0.090855    0.180798
  C      5.433933   -0.441155    0.661439
  H     -2.684877    0.583023   -2.168410
  H     -3.990714    0.192373   -4.229670
  H     -4.964712   -2.054101   -4.688949
  H     -4.617784   -3.913545   -3.067385
  H     -3.291953   -3.519440   -0.989197
  H     -3.681100   -1.147521    2.341237
  H     -4.789962    0.699524    3.593587
  H     -4.379049    3.068041    2.936761
  H     -2.859477    3.581270    1.030912
  H     -1.767054    1.751687   -0.215412
  H     -0.358586    0.184878   -1.081836
  H      0.109813   -1.516888   -1.100721
  H      0.753256   -1.371885    1.341757
  H      0.301369    0.330748    1.369308
  H      2.512882   -0.869826   -0.399739
  H      2.059927    0.833824   -0.363887
  H      2.683779    0.947996    2.073267
  H      3.142882   -0.758464    2.031634
  H      4.087524    2.665944    0.980779
  H      6.331509    3.296801    0.128815
  H      8.015674    1.530831   -0.386743
  H      7.431874   -0.868404   -0.035603
  H      5.185880   -1.491478    0.816349
