45
  Isotropic shielding for P: 201.826 ppm
  O      2.558701   -1.812765    0.939945
  C      1.777909   -1.500671    0.060063
  N      1.467557   -0.172534   -0.330674
  C      2.111456    0.987011    0.213599
  C      2.399895    1.048945    1.584267
  C      3.018380    2.186301    2.107883
  C      3.341912    3.264385    1.277005
  C      3.055678    3.192606   -0.090704
  C      2.448543    2.055124   -0.629127
  C      0.465368   -0.128657   -1.334091
  O      0.058285    0.882640   -1.877257
  C      0.023341   -1.556847   -1.629505
  C      1.021100   -2.445755   -0.865095
  C      0.235544   -3.580129   -0.222583
  C     -0.808299   -3.288856    0.825872
  C     -1.230619   -3.430930   -0.622359
  C     -1.431686   -2.000860   -1.210164
  C     -2.427262   -1.927227   -2.370835
  P     -2.099672   -1.219704    0.358361
  O     -3.523675   -1.612133    0.586453
  O     -0.964074   -1.941817    1.318862
  C     -1.805587    0.536105    0.612151
  C     -2.554870    1.440072   -0.162803
  C     -2.387173    2.812908    0.013203
  C     -1.485322    3.291615    0.972933
  C     -0.756676    2.395157    1.759455
  C     -0.913154    1.018021    1.580538
  H      2.142274    0.219854    2.232886
  H      3.239979    2.229614    3.172781
  H      3.817194    4.151852    1.691083
  H      3.309922    4.022461   -0.747681
  H      2.230748    2.001588   -1.690014
  H      0.098258   -1.696199   -2.714687
  H      1.774269   -2.873484   -1.540608
  H      0.695388   -4.564089   -0.180113
  H     -1.051280   -4.042399    1.569561
  H     -1.862439   -4.246946   -0.960399
  H     -2.504428   -0.900394   -2.748159
  H     -3.422086   -2.255264   -2.051993
  H     -2.091229   -2.569419   -3.196127
  H     -3.261030    1.070452   -0.903537
  H     -2.958216    3.510347   -0.596871
  H     -1.353972    4.363944    1.107792
  H     -0.055663    2.764951    2.504083
  H     -0.343182    0.321127    2.186705
