51
  Isotropic shielding for P: 290.015 ppm
  O      5.708231    0.692076   -1.427034
  N      4.504018    0.175749   -0.860954
  C      3.456912    0.702755   -1.424732
  C      2.169140    0.228488   -0.900558
  N      1.086352    0.693890   -1.461370
  N     -0.113158    0.277985   -0.961210
  P     -1.560724    0.697057   -1.718354
  O     -1.526732    0.630566   -3.201468
  N     -2.029846    2.226022   -1.223410
  C     -2.001875    2.836097    0.048641
  C     -1.719008    2.123909    1.229394
  C     -1.713100    2.786709    2.461106
  C     -1.992161    4.154375    2.545345
  C     -2.278579    4.862289    1.370759
  C     -2.282652    4.213774    0.135650
  N     -2.601130   -0.323794   -0.886607
  C     -2.390584   -1.708103   -0.666792
  C     -1.700017   -2.492166   -1.608249
  C     -1.469012   -3.845144   -1.349239
  C     -1.934778   -4.438620   -0.170108
  C     -2.639853   -3.660617    0.755941
  C     -2.861998   -2.302344    0.516404
  C      2.116574   -0.750266    0.228763
  C      1.672459   -2.063278   -0.005381
  C      1.528391   -2.962248    1.055796
  C      1.828686   -2.558075    2.361190
  C      2.272511   -1.251466    2.601289
  C      2.413559   -0.350716    1.541634
  C      3.520234    1.716504   -2.536237
  H      6.389347    0.210764   -0.920248
  H     -0.116957   -0.390888   -0.187021
  H     -2.250430    2.844358   -2.000089
  H     -1.497946    1.062322    1.198759
  H     -1.487635    2.219460    3.362981
  H     -1.987278    4.661278    3.508072
  H     -2.498639    5.927885    1.413539
  H     -2.502487    4.770547   -0.775167
  H     -3.306973    0.119798   -0.305534
  H     -1.356551   -2.043639   -2.537463
  H     -0.929088   -4.440834   -2.083534
  H     -1.756262   -5.494656    0.022363
  H     -3.011817   -4.108600    1.676076
  H     -3.393233   -1.693192    1.247132
  H      1.432778   -2.375966   -1.019642
  H      1.175563   -3.973003    0.861243
  H      1.715273   -3.256548    3.188668
  H      2.507462   -0.932716    3.615633
  H      2.754244    0.665766    1.728312
  H      4.100920    1.315917   -3.376972
  H      4.040446    2.620016   -2.191102
  H      2.517608    1.980619   -2.875815
