59
  Isotropic shielding for P: 244.464 ppm
  C      3.128849    1.516768   -2.914828
  O      2.650950    0.979791   -1.657892
  C      1.272691    0.764685   -1.585850
  O      0.543403    1.053943   -2.555513
  C      0.823202    0.227993   -0.344207
  P     -0.903479    0.020491   -0.292036
  C     -1.563180   -1.372534   -1.266879
  C     -2.851919   -1.877434   -1.023482
  C     -3.331430   -2.959969   -1.765460
  C     -2.526130   -3.545456   -2.749874
  C     -1.239216   -3.049106   -2.987448
  C     -0.756488   -1.966956   -2.246625
  C     -1.452565   -0.314257    1.412746
  C     -1.296141   -1.606053    1.947170
  C     -1.692916   -1.871597    3.259774
  C     -2.253545   -0.857408    4.045222
  C     -2.413154    0.427550    3.515304
  C     -2.014631    0.700614    2.202764
  C     -1.777788    1.530432   -0.820575
  C     -2.976955    1.482331   -1.543682
  C     -3.636964    2.667559   -1.884371
  C     -3.105070    3.904138   -1.504157
  C     -1.903497    3.954201   -0.786547
  C     -1.240791    2.773163   -0.447722
  C      1.694232   -0.340931    0.772857
  C      2.162315   -1.742313    0.324864
  O      1.406981   -2.704054    0.455784
  C      3.508645   -1.893371   -0.353341
  C      2.792163    0.613272    1.269847
  C      3.512770    0.121725    2.513609
  O      3.399001   -1.032151    2.917688
  C      4.385459    1.135263    3.233987
  H      2.873240    0.852503   -3.748778
  H      2.702107    2.508599   -3.105189
  H      4.214894    1.586509   -2.803785
  H     -3.475307   -1.437507   -0.247916
  H     -4.328464   -3.350848   -1.569448
  H     -2.898339   -4.392435   -3.324005
  H     -0.607321   -3.508580   -3.745441
  H      0.245715   -1.587831   -2.421245
  H     -0.838274   -2.389060    1.349364
  H     -1.560499   -2.871799    3.668347
  H     -2.565517   -1.068395    5.066881
  H     -2.852016    1.219090    4.120315
  H     -2.150956    1.699375    1.797654
  H     -3.391435    0.529045   -1.858948
  H     -4.564513    2.622289   -2.452571
  H     -3.619250    4.825449   -1.772905
  H     -1.478127    4.913992   -0.497977
  H     -0.296814    2.808456    0.091889
  H      1.045488   -0.539136    1.632093
  H      3.611657   -2.908144   -0.749753
  H      3.617023   -1.154017   -1.155947
  H      4.312013   -1.706854    0.371862
  H      3.548456    0.808956    0.497617
  H      2.348900    1.598231    1.482025
  H      3.740487    1.883641    3.718332
  H      5.023232    1.677008    2.522449
  H      4.998615    0.641332    3.993851
