61
  Isotropic shielding for P: 254.415 ppm
  C     -5.019692   -2.556632   -1.386494
  C     -3.901690   -1.687715   -0.835654
  O     -2.628545   -2.224944   -1.339204
  P     -1.189133   -1.905610   -0.690370
  O     -0.152631   -2.780113   -1.294697
  C     -0.876909   -0.093736   -0.897641
  C      0.600817    0.186105   -0.784129
  C      1.444065    0.373155   -1.863112
  N      2.724662    0.400585   -1.385909
  N      2.757197    0.231806   -0.028011
  C      1.473214    0.103084    0.344575
  C      1.153315   -0.121765    1.767798
  C      1.721533   -1.212777    2.447047
  C      1.437914   -1.431946    3.797690
  C      0.584073   -0.562749    4.487341
  C      0.023731    0.533148    3.820083
  C      0.308887    0.754419    2.469841
  C      3.927590    0.567046   -2.126653
  C      3.893808    1.170113   -3.392839
  C      5.075773    1.303236   -4.126057
  C      6.292251    0.853778   -3.599903
  C      6.317805    0.266298   -2.328955
  C      5.142227    0.116132   -1.589977
  N     -1.772251    0.663908   -0.025430
  C     -1.892764    2.051644   -0.138453
  C     -2.460537    2.777506    0.932277
  C     -2.639167    4.157200    0.841179
  C     -2.257012    4.852991   -0.314707
  C     -1.690497    4.139066   -1.375893
  C     -1.502034    2.755612   -1.295944
  O     -1.373387   -1.996605    0.907390
  C     -1.200236   -3.283167    1.604188
  C     -1.840374   -3.159641    2.974015
  H     -4.918933   -3.592194   -1.038649
  H     -5.012356   -2.552613   -2.483498
  H     -5.988339   -2.167192   -1.045416
  H     -3.989825   -0.648109   -1.171919
  H     -3.881139   -1.700768    0.260580
  H     -1.173755    0.085318   -1.941351
  H      1.220959    0.432790   -2.919742
  H      2.378639   -1.889862    1.905315
  H      1.879778   -2.284453    4.311259
  H      0.361783   -0.735036    5.539161
  H     -0.625759    1.224717    4.354639
  H     -0.095511    1.628886    1.966226
  H      2.958519    1.547822   -3.797603
  H      5.043784    1.771521   -5.108275
  H      7.211054    0.963548   -4.172713
  H      7.258569   -0.086723   -1.910041
  H      5.151410   -0.345984   -0.607758
  H     -1.810117    0.313920    0.927347
  H     -2.763091    2.243798    1.833135
  H     -3.078182    4.694022    1.681134
  H     -2.395014    5.930031   -0.383147
  H     -1.381714    4.662164   -2.280173
  H     -1.048888    2.231472   -2.132135
  H     -1.666869   -4.076626    1.007256
  H     -0.123856   -3.477070    1.670930
  H     -1.382275   -2.342583    3.542137
  H     -2.918745   -2.975821    2.888743
  H     -1.692125   -4.094408    3.531167
