30
  Isotropic shielding for P: 281.599 ppm
  C      3.007680   -2.332684   -0.257034
  C      2.081546   -2.234373   -1.218029
  C      0.708161   -1.611585   -1.115645
  P      0.386620   -0.593101    0.431081
  C     -1.451048   -0.119541    0.205732
  C     -1.761124    0.642531   -1.095874
  C     -1.839610    0.750471    1.424231
  C     -2.270865   -1.429950    0.252977
  C      1.337836    0.945858   -0.115192
  C      1.386840    2.043776    0.903323
  C      0.980617    3.302997    0.697466
  H      3.961767   -2.822419   -0.447148
  H      2.849045   -1.936313    0.745554
  H      2.310191   -2.655221   -2.202029
  H      0.522569   -1.004423   -2.014856
  H     -0.041471   -2.416677   -1.142048
  H     -2.842395    0.838490   -1.159319
  H     -1.248791    1.610783   -1.132160
  H     -1.476914    0.068492   -1.986479
  H     -1.289750    1.697474    1.438645
  H     -1.640870    0.225011    2.367849
  H     -2.915067    0.980319    1.383713
  H     -3.342364   -1.188897    0.313454
  H     -2.012049   -2.035533    1.132456
  H     -2.118630   -2.042962   -0.643323
  H      0.962908    1.315067   -1.078806
  H      2.353872    0.557148   -0.284972
  H      1.789945    1.768936    1.882114
  H      1.046235    4.058217    1.479478
  H      0.564920    3.618112   -0.260663
