21
  Isotropic shielding for P: 155.103 ppm
  C      3.023841    1.146986    0.680026
  S      2.122607   -0.416379    1.059853
  P      1.251813   -0.779604   -0.844805
  S      2.471411   -0.925893   -2.344475
  O      0.406256   -2.125649   -0.551351
  C     -0.813503   -2.037492    0.288484
  C     -1.734546   -0.920675   -0.191185
  C     -1.044044    0.444982   -0.191987
  O      0.150491    0.380894   -1.085512
  C     -1.907619    1.577038   -0.721471
  H      3.736895    0.976549   -0.131022
  H      2.318833    1.940300    0.418321
  H      3.556710    1.409727    1.599252
  H     -0.501065   -1.886208    1.329305
  H     -1.279907   -3.021484    0.191815
  H     -2.103844   -1.143911   -1.201720
  H     -2.601704   -0.877656    0.482655
  H     -0.671135    0.681004    0.814784
  H     -2.781125    1.705873   -0.069519
  H     -2.257376    1.355144   -1.737509
  H     -1.343190    2.516654   -0.736745
