44
  Isotropic shielding for P: 305.715 ppm
  C     -0.062128   -3.490328   -0.131599
  N      0.534092   -2.319494    0.501031
  C      1.798757   -1.847693   -0.035570
  C      2.148928   -0.696854    0.920561
  O      0.864562   -0.075266    1.274982
  P     -0.487273   -0.964569    0.972448
  O     -1.383276    0.411518    1.517368
  C     -2.618803    0.583479    0.785159
  C     -2.205095    0.208991   -0.681629
  O     -1.261700   -0.911498   -0.481165
  C     -1.428402    1.323916   -1.394119
  C     -3.338596   -0.312291   -1.563102
  C     -3.697687   -0.360071    1.358922
  C     -3.066672    2.038839    0.949405
  C      3.073839    0.347666    0.349867
  C      2.655465    1.192524   -0.690982
  C      3.534360    2.132981   -1.234678
  C      4.846040    2.234751   -0.750987
  C      5.270309    1.394594    0.284164
  C      4.384398    0.459952    0.834286
  H     -0.279937   -3.341552   -1.204727
  H      0.611867   -4.353954   -0.032547
  H     -1.005840   -3.737708    0.373251
  H      2.570832   -2.629155    0.001683
  H      1.730737   -1.486883   -1.081633
  H      2.570440   -1.108038    1.847138
  H     -1.098171   -1.763417    1.963487
  H     -2.098669    2.135189   -1.701937
  H     -0.955890    0.910588   -2.293285
  H     -0.648202    1.738975   -0.747979
  H     -4.117276    0.453571   -1.670163
  H     -3.792290   -1.215504   -1.143966
  H     -2.955390   -0.549105   -2.563297
  H     -3.452668   -1.415019    1.193553
  H     -3.770621   -0.188471    2.439473
  H     -4.678685   -0.160602    0.911288
  H     -2.263928    2.734600    0.687466
  H     -3.351845    2.218215    1.993317
  H     -3.938834    2.248691    0.316700
  H      1.637726    1.119284   -1.067084
  H      3.197400    2.787610   -2.037207
  H      5.530101    2.967466   -1.176354
  H      6.285947    1.470899    0.669497
  H      4.711978   -0.186524    1.648153
