34
  Isotropic shielding for P: 238.504 ppm
  C      2.709543    1.107920    1.860638
  O      2.611568   -0.042769    0.988288
  P      1.460633   -0.199522   -0.211022
  C      2.083649    1.099320   -1.330456
  C      2.075886   -1.867333   -0.626803
  O     -0.022508   -0.448721   -1.356475
  C     -1.246763   -0.557546   -0.754852
  C     -1.076236    0.340501    0.599531
  O      0.271709    0.148167    0.954600
  C     -1.240375    1.906242    0.365207
  F     -0.724357    2.598684    1.414379
  F     -2.538500    2.273491    0.221246
  F     -0.551555    2.321953   -0.725588
  C     -1.948628   -0.054614    1.860541
  F     -1.789289    0.838250    2.875027
  F     -3.268577   -0.081757    1.549063
  F     -1.603189   -1.261502    2.359539
  C     -1.508491   -2.108545   -0.455183
  F     -2.764419   -2.372885   -0.005172
  F     -0.621731   -2.587416    0.458398
  F     -1.310097   -2.840731   -1.581352
  C     -2.376464   -0.078172   -1.762296
  F     -3.583940    0.049338   -1.149316
  F     -2.532993   -0.970030   -2.777948
  F     -2.073046    1.106597   -2.340382
  H      2.569518    2.049587    1.314091
  H      1.967945    1.043561    2.664780
  H      3.718644    1.087928    2.285285
  H      3.158269    0.922235   -1.449214
  H      1.943908    2.084188   -0.875850
  H      1.575760    1.070761   -2.294821
  H      1.637652   -2.225980   -1.558366
  H      1.831180   -2.551038    0.191216
  H      3.165201   -1.800258   -0.706632
