43
  Isotropic shielding for P: 83.041 ppm
  C     -1.455165   -2.065571   -2.387518
  C     -0.305331   -1.321404   -1.693999
  N     -0.467833   -1.173263   -0.235271
  P     -0.179055    0.275512    0.586612
  N     -1.068789    1.396817   -0.402457
  C     -0.683461    2.827468   -0.317960
  C     -0.833023    3.469253    1.074699
  C     -2.533764    1.174905   -0.435856
  C     -3.125988    1.419899   -1.830956
  O      1.338629    0.834391   -0.021818
  C      2.471750    0.375377    0.634184
  C      2.864394    0.936513    1.857383
  C      4.030091    0.481774    2.483715
  C      4.802920   -0.528346    1.896084
  C      4.402187   -1.085149    0.674502
  C      3.235150   -0.640188    0.043491
  C     -0.455707   -2.411777    0.575299
  C     -1.855470   -2.924107    0.946439
  H     -1.294428   -2.059377   -3.474479
  H     -2.419694   -1.587308   -2.179106
  H     -1.514307   -3.112623   -2.066223
  H     -0.215997   -0.312512   -2.110433
  H      0.643538   -1.846396   -1.899190
  H      0.352547    2.922491   -0.657170
  H     -1.303720    3.371880   -1.041973
  H     -0.149856    3.005186    1.797833
  H     -1.856522    3.367207    1.457944
  H     -0.596402    4.540979    1.024380
  H     -2.732450    0.139578   -0.136710
  H     -3.046580    1.817340    0.300457
  H     -2.675834    0.746101   -2.569650
  H     -2.959724    2.452329   -2.164074
  H     -4.210853    1.244802   -1.815506
  H      2.257386    1.722338    2.302546
  H      4.335392    0.919944    3.432924
  H      5.710425   -0.877395    2.385462
  H      4.997082   -1.871516    0.211959
  H      2.908467   -1.065948   -0.903169
  H      0.111247   -2.222786    1.497437
  H      0.100699   -3.178876    0.017098
  H     -2.384938   -2.176245    1.551158
  H     -2.459271   -3.132225    0.056041
  H     -1.777541   -3.848968    1.535674
