18
  Isotropic shielding for P: 27.027 ppm
  C     -3.211790    0.142236   -1.560762
  C     -2.539500   -0.551838   -0.388732
  O     -1.199843    0.034369   -0.216740
  P     -0.040550   -0.886167    0.462218
  O      1.109182    0.262764    0.359328
  C      2.453254   -0.053175    0.870775
  C      3.459104    0.797262    0.114285
  Cl    -0.593592   -0.727374    2.613937
  H     -2.655523   -0.030680   -2.490277
  H     -4.228497   -0.253714   -1.684415
  H     -3.280268    1.222948   -1.384866
  H     -2.444263   -1.633208   -0.562562
  H     -3.088355   -0.394248    0.548129
  H      2.455133    0.171298    1.944715
  H      2.651690   -1.126207    0.735988
  H      3.451074    0.555498   -0.955656
  H      3.236315    1.864341    0.237873
  H      4.466428    0.605897    0.507264
