12
  Isotropic shielding for P: 99.869 ppm
  Cl     1.339354    0.269279   -2.966362
  P      1.993889    0.055450   -0.803618
  N      0.944551   -1.173382   -0.228088
  C     -0.270319   -0.717030    0.281472
  C     -0.254659    0.656325    0.415004
  N      0.971362    1.174453   -0.000725
  C     -1.290850    1.469704    0.921179
  N     -2.131488    2.161534    1.338773
  C     -1.325086   -1.589139    0.624953
  N     -2.181275   -2.329908    0.903969
  H      1.077853   -2.156172   -0.453418
  H      1.126768    2.179089   -0.033043
