49
  Isotropic shielding for P: 312.357 ppm
  C      1.921631   -2.208141    1.849495
  C      2.200761   -1.036470    0.888193
  C      3.675791   -0.596239    0.997897
  C      1.321011    0.180864    1.229121
  O     -0.047802    0.067752    0.732683
  P     -0.380728    0.030889   -0.881036
  O      1.235875   -0.380627   -1.297286
  C      1.855498   -1.459685   -0.569984
  O     -1.986266    0.527634   -0.528308
  C     -2.852267   -0.273514    0.301432
  C     -2.938253   -1.754178   -0.188736
  C     -2.269551   -1.803271   -1.569915
  O     -0.866657   -1.402105   -1.526231
  C     -2.220114   -2.707531    0.789361
  C     -4.412562   -2.181733   -0.340413
  C     -0.196257    1.551174   -1.937118
  C      0.505127    2.644824   -1.160879
  C      1.877309    2.883656   -1.337330
  C      2.536218    3.861593   -0.584837
  C      1.830734    4.614456    0.361529
  C      0.460712    4.385861    0.542263
  C     -0.195717    3.409580   -0.213299
  H      0.855058   -2.465908    1.855032
  H      2.220792   -1.951934    2.875000
  H      2.483362   -3.102525    1.545931
  H      3.895333   -0.189695    1.995267
  H      4.344726   -1.450104    0.826715
  H      3.907345    0.178130    0.254757
  H      1.759997    1.097798    0.823208
  H      1.215180    0.294708    2.314424
  H      2.764309   -1.729448   -1.122906
  H      1.190143   -2.333552   -0.565932
  H     -3.835585    0.209172    0.232457
  H     -2.520177   -0.229907    1.348134
  H     -2.801398   -1.160527   -2.282903
  H     -2.251777   -2.828561   -1.958665
  H     -2.259018   -3.742684    0.423111
  H     -2.706218   -2.675732    1.773625
  H     -1.170299   -2.429589    0.923780
  H     -4.488991   -3.225316   -0.675072
  H     -4.935896   -1.545456   -1.066922
  H     -4.934333   -2.097986    0.622279
  H      0.388184    1.264974   -2.815573
  H     -1.194672    1.867737   -2.246906
  H      2.431635    2.289061   -2.061407
  H      3.601045    4.033870   -0.736014
  H      2.342246    5.374377    0.950311
  H     -0.097594    4.968771    1.273713
  H     -1.257792    3.225536   -0.061850
