76
  Isotropic shielding for P: 341.710 ppm
  C     -9.643426    1.419347    1.209986
  C    -10.312051    0.792274   -0.025378
  C    -10.172902   -0.742754   -0.103761
  C     -8.724766   -1.271313   -0.157581
  C     -7.929024   -0.795474   -1.385375
  C     -6.525595   -1.422534   -1.508006
  C     -5.570726   -1.131236   -0.329423
  C     -5.356605    0.364775   -0.018700
  C     -4.807672    1.207170   -1.188498
  C     -3.431621    0.795374   -1.754498
  C     -2.240262    0.947053   -0.775491
  C     -1.940856   -0.299875    0.079546
  P     -0.562432    0.004420    1.315195
  C      0.943830   -0.112509    0.195541
  C      2.279936   -0.171710    0.963609
  C      2.629917    1.138086    1.691640
  C      3.906804    1.100598    2.555221
  C      5.225995    0.832839    1.788891
  C      5.641630   -0.649870    1.720923
  C      6.907056   -0.913067    0.881101
  C      8.195355   -0.305651    1.466351
  C      9.474768   -0.665830    0.686079
  C      9.549529   -0.060159   -0.726499
  C     10.870408   -0.368667   -1.451102
  C     10.945379    0.244698   -2.858866
  H    -10.028706    0.969999    2.136879
  H     -8.555127    1.276342    1.199118
  H     -9.834567    2.499889    1.255765
  H     -9.898846    1.250710   -0.935957
  H    -11.383799    1.042629   -0.020240
  H    -10.678968   -1.186178    0.768824
  H    -10.716087   -1.102143   -0.992394
  H     -8.753628   -2.372753   -0.159240
  H     -8.196290   -0.985227    0.762578
  H     -8.502823   -1.036629   -2.294613
  H     -7.838290    0.299679   -1.368874
  H     -6.629406   -2.514614   -1.608375
  H     -6.064626   -1.073912   -2.444078
  H     -4.602665   -1.605523   -0.545203
  H     -5.948816   -1.623252    0.578581
  H     -6.311040    0.807280    0.301741
  H     -4.685669    0.455242    0.847730
  H     -5.537051    1.195196   -2.012031
  H     -4.743458    2.256317   -0.858871
  H     -3.467829   -0.238800   -2.129355
  H     -3.239065    1.426923   -2.634385
  H     -1.338329    1.191649   -1.354618
  H     -2.420444    1.811656   -0.116837
  H     -2.818664   -0.591861    0.667745
  H     -1.685843   -1.148956   -0.570887
  H     -0.486036   -1.331084    1.822585
  H      0.835571   -0.992767   -0.453179
  H      0.929891    0.774005   -0.455133
  H      2.253624   -1.000681    1.688695
  H      3.075539   -0.417356    0.246002
  H      2.729343    1.940821    0.942115
  H      1.784503    1.424625    2.334667
  H      3.787266    0.345878    3.349789
  H      3.984502    2.069756    3.069604
  H      5.140494    1.233135    0.764795
  H      6.034652    1.401673    2.268152
  H      5.802722   -1.020100    2.747037
  H      4.816419   -1.245683    1.308315
  H      6.741630   -0.531978   -0.138391
  H      7.049011   -2.001512    0.783182
  H      8.302049   -0.651715    2.507144
  H      8.106830    0.790370    1.514291
  H      9.561816   -1.762855    0.616062
  H     10.349954   -0.323699    1.261013
  H      8.712341   -0.428803   -1.338591
  H      9.421357    1.032995   -0.655607
  H     10.998437   -1.460780   -1.518600
  H     11.710935    0.002342   -0.843235
  H     11.898000    0.007040   -3.351263
  H     10.133894   -0.133169   -3.497169
  H     10.853017    1.339400   -2.816386
