40
  Isotropic shielding for P: 33.096 ppm
  C     -1.036484   -3.364270    0.857473
  C     -1.554950   -1.952252    0.496531
  C     -0.381367   -0.996459    0.204069
  P      1.301668   -1.627828    0.063662
  C      2.035649   -0.084265   -0.250599
  S      0.940061    1.246928   -0.285694
  C     -0.518958    0.368162    0.034556
  C     -1.719023    1.258458    0.069581
  C     -2.003247    2.016267    1.219909
  C     -3.086217    2.900192    1.241143
  C     -3.894692    3.049168    0.107691
  C     -3.607328    2.314838   -1.048624
  C     -2.523129    1.430729   -1.069710
  C      3.457507    0.206118   -0.483290
  C      4.290785   -0.732094   -1.128474
  C      5.633994   -0.441986   -1.377104
  C      6.176197    0.793214   -0.998624
  C      5.361949    1.733532   -0.355528
  C      4.022290    1.442359   -0.094764
  C     -2.451197   -2.078527   -0.763432
  C     -2.405400   -1.444342    1.689052
  H     -0.460619   -3.807182    0.034995
  H     -0.398551   -3.341711    1.750542
  H     -1.889811   -4.022502    1.064244
  H     -1.374793    1.902247    2.101136
  H     -3.296312    3.476135    2.141178
  H     -4.736518    3.739775    0.122600
  H     -4.221459    2.437062   -1.939574
  H     -2.289804    0.879652   -1.978011
  H      3.868830   -1.679222   -1.459015
  H      6.256750   -1.176928   -1.884541
  H      7.220246    1.021983   -1.204961
  H      5.771524    2.695619   -0.050712
  H      3.408852    2.174171    0.428186
  H     -3.247348   -2.813921   -0.582882
  H     -2.923302   -1.124980   -1.016856
  H     -1.862372   -2.413201   -1.627240
  H     -2.909623   -0.501287    1.463042
  H     -1.778898   -1.294699    2.577940
  H     -3.174905   -2.189157    1.932203
