60
  Isotropic shielding for P: 291.231 ppm
  C     -0.406415    3.511171    2.023947
  C      0.134623    2.168525    2.528471
  N     -0.579266    1.005805    1.994458
  N     -1.741990    0.602719    2.612834
  N     -2.244493   -0.434230    2.059194
  N     -1.484739   -0.896409    0.993394
  P     -0.161734    0.125460    0.591296
  N     -0.071916    0.817109   -0.780651
  Si    -0.940439    1.821477   -1.856733
  C      0.136875    3.305933   -2.318832
  C     -1.312979    0.864206   -3.445640
  C     -2.563200    2.464565   -1.124663
  N      1.296657   -0.617476    0.886039
  Si     2.652476   -0.393553   -0.272675
  C      4.145789   -1.298270    0.454111
  C      3.140747    1.419243   -0.418689
  C      2.290594   -1.168198   -1.948302
  C      1.507481   -1.287488    2.199927
  C      1.399653   -2.815045    2.146744
  C     -2.106092   -1.980754    0.164554
  C     -2.555761   -3.125480    1.094096
  C     -1.060224   -2.502648   -0.838326
  C     -3.318819   -1.403424   -0.593829
  H     -0.291603    3.596687    0.938095
  H      0.145967    4.335042    2.495066
  H     -1.468929    3.620168    2.273110
  H      1.189211    2.050018    2.247580
  H      0.079454    2.111489    3.622912
  H      1.071673    2.978834   -2.794947
  H      0.402352    3.898747   -1.432634
  H     -0.386170    3.968039   -3.024069
  H     -1.817456    1.503910   -4.184224
  H     -1.958326   -0.003689   -3.255384
  H     -0.382735    0.494366   -3.899575
  H     -3.104950    3.079890   -1.857829
  H     -3.223378    1.641648   -0.822450
  H     -2.378782    3.084662   -0.237880
  H      4.987379   -1.167617   -0.241777
  H      3.980701   -2.376195    0.571566
  H      4.457065   -0.890704    1.424567
  H      3.377554    1.833471    0.571660
  H      2.344781    2.021238   -0.864672
  H      4.042303    1.511801   -1.042092
  H      1.475325   -0.655478   -2.466925
  H      2.018010   -2.225908   -1.834114
  H      3.192360   -1.120067   -2.576250
  H      2.492990   -0.996873    2.582600
  H      0.775008   -0.893976    2.915437
  H      2.091815   -3.241307    1.411386
  H      1.644010   -3.239385    3.130515
  H      0.384915   -3.130292    1.884793
  H     -1.707466   -3.525386    1.661781
  H     -3.318005   -2.785266    1.802127
  H     -2.979054   -3.935805    0.487993
  H     -0.195154   -2.937645   -0.328897
  H     -1.526594   -3.283501   -1.450379
  H     -0.709765   -1.709519   -1.505256
  H     -3.002366   -0.625537   -1.295534
  H     -3.816658   -2.198365   -1.163302
  H     -4.042306   -0.970631    0.106478
