32
  Isotropic shielding for P: 215.119 ppm
  C      3.791221   -0.984356   -0.827273
  C      3.323312    0.361080   -1.370254
  Se     1.463680    0.322124   -2.141254
  P      0.366130    0.212095   -0.165221
  O      1.086117    0.869824    0.966699
  O      0.051738   -1.349448    0.008284
  C     -0.654147   -1.822460    1.244415
  C     -2.025935   -2.330543    0.820376
  C      0.237832   -2.878839    1.881705
  O     -1.097066    0.801451   -0.494175
  C     -1.298791    2.277403   -0.569760
  C     -2.204225    2.526909   -1.768408
  C     -1.874483    2.751189    0.759287
  H      4.827610   -0.893174   -0.468686
  H      3.764421   -1.760687   -1.601569
  H      3.171443   -1.314212    0.014427
  H      3.309967    1.141564   -0.605633
  H      3.928902    0.700922   -2.217629
  H     -0.756935   -0.962206    1.918016
  H     -2.575447   -2.688072    1.701302
  H     -1.924987   -3.163245    0.112260
  H     -2.607534   -1.531051    0.348077
  H     -0.238050   -3.264434    2.792899
  H      1.211463   -2.453204    2.150427
  H      0.394095   -3.716403    1.189549
  H     -0.315956    2.736461   -0.741759
  H     -1.739376    2.155230   -2.689256
  H     -3.171293    2.025690   -1.631411
  H     -2.383504    3.604123   -1.878998
  H     -2.836022    2.260006    0.958229
  H     -2.039337    3.836190    0.724549
  H     -1.184440    2.529972    1.580879
