26
  Isotropic shielding for P: 166.978 ppm
  C     -0.416260    2.343239    1.121842
  N     -0.678816    1.188779    0.258235
  C     -1.951547    1.195092   -0.493504
  C     -2.065270   -0.194371   -1.135462
  N     -1.469142   -1.118653   -0.148464
  P     -0.213134   -0.367836    0.661661
  S      0.117641   -0.805674    2.539344
  O      1.093580   -0.742868   -0.286392
  C      2.435055   -0.866526    0.189075
  C      3.233855    0.384742   -0.160440
  F      4.531605    0.245455    0.251297
  F      3.256346    0.633280   -1.504318
  F      2.732176    1.506671    0.440604
  C     -1.399588   -2.539465   -0.500970
  H     -0.301720    3.242185    0.502375
  H     -1.239009    2.507186    1.836982
  H      0.508027    2.187702    1.683718
  H     -2.794774    1.377913    0.194102
  H     -1.940195    1.988946   -1.251139
  H     -1.520298   -0.234235   -2.094415
  H     -3.111349   -0.469366   -1.316887
  H      2.899683   -1.722109   -0.313818
  H      2.462959   -1.010261    1.276996
  H     -0.806235   -2.710943   -1.413892
  H     -0.947663   -3.098562    0.325719
  H     -2.415928   -2.920119   -0.662049
