24
  Isotropic shielding for P: 62.394 ppm
  C      2.937677    1.129492   -0.299236
  O      2.660758   -0.169113    0.280982
  P      1.403900   -1.054010   -0.375025
  O      0.101941   -0.527642    0.516699
  Si    -1.288808    0.283661   -0.006186
  C     -0.795041    1.838127   -0.941805
  C     -2.282951   -0.865537   -1.112480
  C     -2.225013    0.702310    1.564693
  C      1.763659   -2.584406    0.586944
  H      3.981109    1.369118   -0.068663
  H      2.796299    1.114752   -1.389627
  H      2.280822    1.891794    0.140587
  H     -0.207253    1.592891   -1.836761
  H     -1.687727    2.391613   -1.265994
  H     -0.192572    2.505427   -0.311022
  H     -3.209540   -0.378806   -1.448291
  H     -2.556817   -1.786007   -0.578950
  H     -1.705760   -1.147372   -2.003816
  H     -1.625384    1.348837    2.219590
  H     -2.481973   -0.207449    2.123870
  H     -3.159107    1.230908    1.327505
  H      2.697780   -3.033913    0.227895
  H      0.943875   -3.297078    0.432859
  H      1.850129   -2.347797    1.655531
