31
  Isotropic shielding for P: 108.701 ppm
  O      3.980517   -1.479677   -0.770823
  C      3.281004   -0.933449    0.054829
  C      2.767581   -1.541708    1.353893
  O      2.015571   -0.530199    2.057434
  P      1.753693    0.872584    1.188752
  O      2.848157    0.358078   -0.068190
  N      0.243959    0.572513    0.450056
  C     -0.107376   -0.758730    0.016653
  C     -0.636255   -1.678873    0.930001
  C     -0.909708   -2.985759    0.514701
  C     -0.656707   -3.370821   -0.807871
  C     -0.135377   -2.444213   -1.719238
  C      0.141272   -1.136650   -1.309204
  C     -0.627913    1.659230    0.127299
  C     -0.107863    2.912974   -0.238751
  C     -0.971298    3.983499   -0.493665
  C     -2.357696    3.808461   -0.427938
  C     -2.875173    2.548565   -0.098777
  C     -2.021126    1.480709    0.185051
  H      3.612866   -1.855142    1.978609
  H      2.135836   -2.410771    1.130666
  H     -0.816921   -1.368156    1.955997
  H     -1.317734   -3.703326    1.224484
  H     -0.865002   -4.390410   -1.127411
  H      0.064832   -2.741279   -2.747165
  H      0.558709   -0.410020   -2.002600
  H      0.966453    3.047085   -0.345164
  H     -0.553718    4.950181   -0.770745
  H     -3.027474    4.638746   -0.643484
  H     -3.952392    2.396095   -0.052225
  H     -2.430619    0.510465    0.454824
