22
  Isotropic shielding for P: 82.350 ppm
  C     -3.551340    0.824555   -0.925492
  C     -2.770329   -0.170712   -0.052072
  C     -1.246942   -0.049665   -0.234805
  C     -0.486222   -1.041189    0.639028
  O      0.960321   -0.975949    0.377290
  P      1.887912   -0.010975    1.325116
  O      2.411101    1.185572    0.287736
  C      3.510679    0.763673   -0.547625
  C      4.110045   -0.493981    0.074165
  O      5.117120   -1.069722   -0.267074
  O      3.330538   -0.917924    1.128762
  H     -3.338179    0.664407   -1.991607
  H     -3.278832    1.860900   -0.681634
  H     -4.634035    0.717311   -0.778386
  H     -3.024463   -0.008994    1.006912
  H     -3.084300   -1.198003   -0.293333
  H     -0.921712    0.972495    0.012832
  H     -0.980523   -0.225002   -1.287749
  H     -0.770247   -2.075733    0.414803
  H     -0.669415   -0.852715    1.707024
  H      3.169002    0.539442   -1.567524
  H      4.259919    1.562310   -0.581369
