45
  Isotropic shielding for P: 287.033 ppm
  C      3.615333    2.659136    0.402464
  C      2.587525    2.192687    1.232183
  C      2.129953    0.875824    1.117485
  C      2.709989    0.042568    0.162011
  C      3.739530    0.483868   -0.668827
  C      4.190898    1.802571   -0.544425
  O      2.291388   -1.298322    0.073206
  P      1.161451   -1.839688   -0.977150
  O      1.691845   -1.878035   -2.531598
  C      2.381069   -3.108480   -2.902442
  C      2.662588   -3.827622   -1.578569
  O      1.565417   -3.443482   -0.727593
  O     -0.278373   -2.209230   -0.208152
  C     -1.089457   -1.095045   -0.034674
  C     -0.608283   -0.003568   -0.689290
  O      0.538995   -0.265638   -1.382168
  C     -1.252970    1.260536   -0.634110
  C     -0.725281    2.401743   -1.282770
  C     -1.383455    3.617382   -1.197794
  C     -2.583165    3.714505   -0.460973
  C     -3.108694    2.602706    0.183965
  C     -2.469291    1.340218    0.126826
  C     -2.993058    0.155656    0.804852
  C     -2.282044   -1.092275    0.727340
  C     -2.769852   -2.246703    1.386720
  C     -3.947611   -2.188388    2.113017
  C     -4.661524   -0.974022    2.197014
  C     -4.191387    0.166334    1.558569
  H      3.968137    3.684578    0.495325
  H      2.137190    2.854502    1.969773
  H      1.326729    0.497363    1.745577
  H      4.169523   -0.195628   -1.401503
  H      4.992595    2.158952   -1.189121
  H      3.291723   -2.831896   -3.442576
  H      1.712826   -3.683792   -3.553942
  H      3.614930   -3.502079   -1.134972
  H      2.654669   -4.917025   -1.679764
  H      0.203239    2.305827   -1.840880
  H     -0.976404    4.495757   -1.695765
  H     -3.101742    4.669351   -0.394566
  H     -4.031516    2.715099    0.746224
  H     -2.206524   -3.174190    1.310738
  H     -4.321919   -3.077432    2.617833
  H     -5.588070   -0.928575    2.766504
  H     -4.766622    1.084056    1.645303
