48
  Isotropic shielding for P: 204.700 ppm
  C     -0.897427   -0.791334    3.124147
  C      0.113151   -0.210791    2.460070
  P      0.006642    0.713649    0.887495
  N     -1.403130    0.083189    0.140556
  C     -2.516761    1.017210   -0.188866
  C     -3.179609    1.573572    1.085230
  C     -2.116842    2.153255   -1.149203
  C     -1.501542   -1.296965   -0.391253
  C     -1.424029   -1.324097   -1.932188
  C     -2.749413   -2.058087    0.102839
  N      1.422855    0.127781    0.114772
  C      2.275872    1.091533   -0.636346
  C      1.559894    1.671974   -1.867020
  C      2.843988    2.209002    0.260541
  C      1.989378   -1.232430    0.310657
  C      2.176676   -1.994841   -1.015880
  C      3.301702   -1.217879    1.123209
  H     -1.893572   -0.864079    2.692588
  H     -0.762124   -1.202066    4.125320
  H      1.089456   -0.138526    2.948402
  H     -3.269214    0.410985   -0.707228
  H     -3.524735    0.756742    1.730207
  H     -4.041502    2.206638    0.831374
  H     -2.465852    2.181942    1.657029
  H     -3.001760    2.745134   -1.421900
  H     -1.390515    2.827178   -0.678602
  H     -1.672613    1.752660   -2.067295
  H     -0.628992   -1.831725   -0.001381
  H     -0.532330   -0.793873   -2.282942
  H     -1.383235   -2.359218   -2.298069
  H     -2.305939   -0.846823   -2.379983
  H     -2.731288   -3.087316   -0.281203
  H     -2.781038   -2.100775    1.196557
  H     -3.677915   -1.591558   -0.251059
  H      3.127966    0.508640   -1.005966
  H      2.251431    2.292149   -2.454174
  H      0.714244    2.300682   -1.566629
  H      1.179183    0.869660   -2.510318
  H      2.037350    2.848117    0.641722
  H      3.542189    2.840655   -0.306533
  H      3.379354    1.784702    1.118252
  H      1.248770   -1.780815    0.904647
  H      1.235608   -2.058092   -1.570854
  H      2.530871   -3.015381   -0.816198
  H      2.921023   -1.506190   -1.658268
  H      3.164825   -0.703093    2.081237
  H      4.109006   -0.714602    0.575319
  H      3.629839   -2.246291    1.326891
