28
  Isotropic shielding for P: 240.345 ppm
  O     -1.601437   -2.735221   -0.184096
  C     -2.044849   -1.448057   -0.340257
  C     -3.092885   -1.162838   -1.234145
  C     -3.555778    0.141126   -1.398480
  C     -2.979761    1.189146   -0.668568
  C     -1.942458    0.907046    0.217805
  C     -1.452663   -0.403148    0.402433
  P     -0.087854   -0.485909    1.592595
  O     -0.393603    0.221783    2.879058
  C      1.364889    0.253051    0.792369
  C      2.029952    1.301250    1.452520
  C      3.149860    1.916438    0.889500
  C      3.615326    1.485127   -0.359600
  C      2.967765    0.449840   -1.037509
  C      1.845623   -0.167725   -0.465999
  O      1.178824   -1.187093   -1.099591
  O      0.224158   -2.071154    1.752434
  H     -2.130997   -3.321040   -0.758402
  H     -3.539372   -1.982126   -1.798922
  H     -4.368786    0.337252   -2.095683
  H     -3.336055    2.210000   -0.786920
  H     -1.494531    1.717372    0.790389
  H      1.647281    1.625691    2.417506
  H      3.653010    2.724273    1.416653
  H      4.485786    1.956953   -0.812781
  H      3.326561    0.113137   -2.010570
  H      1.599457   -1.366169   -1.962297
  H      0.932739   -2.219002    2.410660
