53
  Isotropic shielding for P: 282.399 ppm
  C     -2.015096    3.886043    1.161913
  C     -1.154218    2.622084    0.990157
  C     -0.554361    2.441999   -0.418163
  O      0.358751    1.248171   -0.437799
  P      0.204335   -0.146971    0.325915
  O      0.254598   -0.100891    1.814392
  O      1.331425   -1.038111   -0.374050
  C      2.814629   -0.804148   -0.436069
  C      3.287402   -0.040946    0.817659
  C      4.810679    0.161674    0.904836
  C      3.387516   -2.223039   -0.503938
  C      3.076950   -0.030231   -1.732890
  O     -1.132108   -0.762844   -0.302082
  C     -1.968553   -1.859860    0.294985
  C     -2.863748   -2.260670   -0.895646
  C     -3.901975   -3.354819   -0.598184
  C     -1.067426   -3.011196    0.751457
  C     -2.771598   -1.261455    1.453799
  C     -1.624029    2.204503   -1.490147
  C      0.379106    3.592446   -0.805583
  H     -2.865601    3.901392    0.468693
  H     -1.432832    4.802479    1.005536
  H     -2.418827    3.920612    2.181848
  H     -0.329676    2.638196    1.713863
  H     -1.763444    1.740960    1.226459
  H      2.795106    0.939949    0.835261
  H      2.938787   -0.587047    1.702740
  H      5.055689    0.728466    1.812094
  H      5.347006   -0.793805    0.955828
  H      5.199708    0.724835    0.047298
  H      3.194925   -2.762826    0.431317
  H      2.924572   -2.774051   -1.331034
  H      4.469467   -2.192284   -0.675089
  H      2.642960   -0.568131   -2.584235
  H      4.155244    0.069210   -1.904626
  H      2.634480    0.969995   -1.684774
  H     -2.204957   -2.588469   -1.712007
  H     -3.376290   -1.353110   -1.244251
  H     -3.428887   -4.291721   -0.278284
  H     -4.606919   -3.046507    0.183948
  H     -4.484315   -3.570402   -1.503048
  H     -0.473416   -3.394154   -0.086456
  H     -0.390439   -2.687290    1.548914
  H     -1.683964   -3.828604    1.143441
  H     -2.098634   -0.874211    2.224634
  H     -3.409742   -0.443876    1.095867
  H     -3.412349   -2.028822    1.904428
  H     -1.148666    1.976478   -2.451535
  H     -2.276527    1.370218   -1.213699
  H     -2.236788    3.104971   -1.615776
  H      1.144113    3.745764   -0.034624
  H      0.876738    3.368223   -1.756413
  H     -0.188704    4.521719   -0.926579
