22
  Isotropic shielding for P: 156.198 ppm
  C      3.515266    0.602217    1.213412
  C      2.989665   -0.203651    0.040423
  O      1.512518   -0.120010    0.069675
  P      0.612324   -0.721743   -1.112396
  S      1.158432   -0.388068   -2.941660
  C     -1.046025   -0.249682   -0.597661
  C     -1.469986   -0.513998    0.718383
  C     -2.760350   -0.155862    1.112868
  C     -3.627967    0.462749    0.202681
  C     -3.205573    0.723834   -1.105598
  C     -1.915169    0.367841   -1.509092
  F      0.643026   -2.301521   -0.763495
  H      4.612327    0.554654    1.218359
  H      3.214385    1.653731    1.130975
  H      3.147345    0.199787    2.165117
  H      3.330996    0.195884   -0.921497
  H      3.267519   -1.262348    0.110986
  H     -0.797894   -0.994040    1.426026
  H     -3.089871   -0.359701    2.130052
  H     -4.633422    0.740148    0.514854
  H     -3.878895    1.204085   -1.813069
  H     -1.578653    0.565892   -2.524143
