16
  Isotropic shielding for P: 98.266 ppm
  C     -4.209686   -0.366465    0.049109
  C     -3.073111   -0.679409   -0.220925
  C     -1.710728   -1.065818   -0.554511
  O     -0.769532   -0.056431   -0.027155
  P      0.514394   -0.544540    0.837708
  O      1.623888   -0.544712   -0.501480
  C      2.862525   -0.918229   -0.285560
  C      4.011661   -1.258275   -0.116848
  O      0.922359    0.957519    1.510008
  C      0.961465    2.078716    0.823474
  C      1.017476    3.133388    0.235926
  H     -5.215594   -0.088887    0.287133
  H     -1.559931   -1.101948   -1.640105
  H     -1.472694   -2.055408   -0.137707
  H      5.027989   -1.554378    0.025810
  H      1.069515    4.064775   -0.284677
