48
  Isotropic shielding for P: 273.022 ppm
  C     -1.468666   -3.003688    1.998028
  C     -1.017178   -1.552996    2.151898
  O     -0.211051   -1.063415    1.041740
  C     -0.917680   -0.774185   -0.135870
  P      0.006685    0.545795   -1.063287
  O     -0.693728    0.910226   -2.328892
  O      0.192604    1.740578   -0.023225
  Si    -0.788454    3.081732    0.373762
  C      0.025897    3.802913    1.898279
  C     -0.772929    4.269946   -1.073523
  C     -2.518564    2.452761    0.737870
  O      1.465732   -0.019458   -1.286158
  Si     2.861109   -0.485174   -0.417618
  C      4.279000   -0.008630   -1.547897
  C      2.766956   -2.339905   -0.174950
  C      2.931885    0.443178    1.207734
  O     -1.012649   -1.939144   -0.964672
  C     -2.261391   -2.044449   -1.699642
  C     -2.237000   -3.347860   -2.482627
  H     -0.608688   -3.660686    1.818694
  H     -2.176633   -3.123933    1.170911
  H     -1.963828   -3.326239    2.924908
  H     -0.365301   -1.440984    3.026139
  H     -1.880537   -0.880581    2.276714
  H     -1.930537   -0.397719    0.092632
  H      0.040040    3.073340    2.718959
  H      1.061276    4.100882    1.685450
  H     -0.520528    4.692374    2.241474
  H     -1.364680    5.167159   -0.843416
  H     -1.197944    3.794073   -1.966186
  H      0.251287    4.588714   -1.309557
  H     -2.505472    1.706189    1.543270
  H     -2.969198    1.993746   -0.151981
  H     -3.166628    3.281705    1.055329
  H      5.241957   -0.290283   -1.099297
  H      4.290740    1.074874   -1.727697
  H      4.195003   -0.516254   -2.518356
  H      3.689223   -2.711250    0.293933
  H      2.644350   -2.853740   -1.137886
  H      1.918493   -2.602999    0.467071
  H      2.950824    1.528028    1.044520
  H      3.843115    0.163050    1.755343
  H      2.063707    0.204216    1.832436
  H     -3.098543   -2.025917   -0.981100
  H     -2.364494   -1.181134   -2.372237
  H     -2.130900   -4.208483   -1.809853
  H     -1.403559   -3.355845   -3.196412
  H     -3.173421   -3.460424   -3.044757
