29
  Isotropic shielding for P: 254.382 ppm
  C     -3.280271    0.032954    2.700210
  C     -2.785137    0.142651    1.306119
  C     -3.383419    0.009437    0.111350
  C     -4.778521   -0.302884   -0.286987
  O     -2.488059    0.237375   -0.973203
  P     -1.019151    0.657443   -0.386703
  O     -1.399199    0.473871    1.185517
  O     -0.520910    1.981573   -0.822761
  O     -0.043217   -0.565434   -0.681597
  C      1.045861   -0.460582   -1.707087
  C      2.391476   -0.348426   -1.048480
  C      3.145105   -1.501579   -0.775655
  C      4.404024   -1.401873   -0.173587
  C      4.921001   -0.144354    0.161449
  C      4.175297    1.011093   -0.106913
  C      2.917348    0.909908   -0.709449
  H     -2.730862   -0.744033    3.250689
  H     -3.142713    0.983120    3.236333
  H     -4.344952   -0.220147    2.706614
  H     -4.812327   -1.209022   -0.908703
  H     -5.205861    0.521631   -0.875792
  H     -5.403373   -0.461778    0.597194
  H      0.953966   -1.383531   -2.286037
  H      0.834068    0.402940   -2.343104
  H      2.746311   -2.479213   -1.045141
  H      4.983357   -2.301646    0.027894
  H      5.903727   -0.064337    0.623995
  H      4.578728    1.990428    0.145930
  H      2.337901    1.806714   -0.922199
