28
  Isotropic shielding for P: 114.385 ppm
  C     -3.280677    2.319357    0.746120
  C     -2.962606    1.540502   -0.123671
  C     -2.560706    0.610106   -1.181682
  N     -1.250003   -0.028027   -0.908558
  P      0.111758    0.447059   -1.739889
  Se     0.034373    2.385191   -2.574337
  C      1.493509    0.148514   -0.601449
  C      2.710796   -0.407677   -1.020880
  C      3.774241   -0.507968   -0.119178
  C      3.628240   -0.053847    1.196649
  C      2.414502    0.507679    1.612500
  C      1.347967    0.615458    0.717668
  Cl     0.416337   -1.057698   -3.246607
  C     -1.294340   -1.374093   -0.279345
  C     -1.831302   -1.345075    1.154062
  H     -3.559161    3.009718    1.514402
  H     -3.312362   -0.182620   -1.302702
  H     -2.507817    1.151632   -2.134832
  H      2.827929   -0.762943   -2.040701
  H      4.716396   -0.943645   -0.446682
  H      4.458075   -0.136196    1.896423
  H      2.296763    0.863782    2.634352
  H      0.409774    1.060627    1.038836
  H     -0.278101   -1.781260   -0.286968
  H     -1.910767   -2.032052   -0.911066
  H     -1.816783   -2.363755    1.562923
  H     -2.863547   -0.979059    1.193184
  H     -1.212588   -0.703804    1.792329
