55
  Isotropic shielding for P: 276.189 ppm
  C      1.690593    1.355417    1.610037
  C      1.323513   -0.113180    1.828361
  N      1.123868   -0.855265    0.572000
  N      0.102191   -0.342363   -0.271501
  P     -1.534125   -0.276756    0.144452
  O     -2.564205   -1.314925   -0.703763
  C     -2.667062   -2.563813   -0.111672
  C     -2.044437   -2.596188    1.136147
  O     -1.481325   -1.390330    1.462388
  C     -2.045305   -3.748532    1.911177
  C     -2.690610   -4.881581    1.383103
  C     -3.309543   -4.845156    0.126467
  C     -3.309043   -3.669075   -0.646730
  O     -1.979763    0.870500   -1.075780
  C     -2.050931    2.140002   -0.566703
  C     -1.959946    2.151719    0.825216
  O     -1.825260    0.871213    1.339759
  C     -2.013289    3.323582    1.560742
  C     -2.166341    4.523527    0.841007
  C     -2.266954    4.517858   -0.556347
  C     -2.213934    3.316485   -1.286637
  C      0.569077   -0.224623   -1.682863
  C      1.652717    0.818699   -1.839406
  C      2.998994    0.437167   -1.920417
  C      4.012289    1.398853   -2.014197
  C      3.685757    2.759608   -2.028971
  C      2.341804    3.149963   -1.958084
  C      1.334807    2.185022   -1.865395
  C      1.192102   -2.328315    0.690685
  C      2.643088   -2.826358    0.689351
  H      0.893822    1.898516    1.092747
  H      2.606240    1.448182    1.014589
  H      1.852581    1.839008    2.582500
  H      0.444527   -0.196273    2.491553
  H      2.149547   -0.621512    2.341048
  H     -1.560130   -3.766968    2.884100
  H     -2.703756   -5.802324    1.963082
  H     -3.799411   -5.736063   -0.261053
  H     -3.787708   -3.621934   -1.622168
  H     -1.935672    3.309050    2.645315
  H     -2.206556    5.466537    1.382149
  H     -2.386176    5.457983   -1.091324
  H     -2.290381    3.301621   -2.371372
  H      0.949676   -1.207923   -1.992097
  H     -0.291993    0.010038   -2.311650
  H      3.255412   -0.621058   -1.901754
  H      5.054110    1.086145   -2.071223
  H      4.471357    3.510608   -2.099019
  H      2.079084    4.206854   -1.975290
  H      0.296233    2.498766   -1.798498
  H      0.675717   -2.677858    1.599027
  H      0.655488   -2.750888   -0.166157
  H      2.664776   -3.919817    0.792693
  H      3.214768   -2.401340    1.524398
  H      3.150014   -2.552802   -0.244123
