52
  Isotropic shielding for P: 63.922 ppm
  Cl    -0.115162   -2.424645    2.249450
  P     -0.078711   -0.315533    1.830314
  C      1.540823   -0.173335    0.851752
  C      1.625709   -0.865659   -0.526508
  C      3.023904   -0.633594   -1.152107
  C      4.117716   -1.209750   -0.227071
  C      4.053748   -0.500312    1.143661
  C      2.662921   -0.739295    1.774033
  C      4.288525    1.013903    0.958334
  C      3.191876    1.586746    0.036444
  C      1.800952    1.355706    0.676686
  C      3.250951    0.883628   -1.338690
  C     -1.601669   -0.214642    0.691679
  C     -2.811540   -0.268240    1.676136
  C     -4.139847   -0.055601    0.916166
  C     -4.118952    1.327137    0.228652
  C     -2.937699    1.386526   -0.763272
  C     -1.601577    1.173239   -0.009015
  C     -3.100440    0.279857   -1.829090
  C     -3.122183   -1.101308   -1.135783
  C     -1.788238   -1.318829   -0.377433
  C     -4.306016   -1.163212   -0.146804
  H      1.431982   -1.941557   -0.419286
  H      0.864302   -0.458899   -1.202133
  H      3.061092   -1.137062   -2.129433
  H      3.971129   -2.292731   -0.097958
  H      5.109653   -1.066199   -0.681325
  H      4.819985   -0.916810    1.813874
  H      2.610551   -0.259359    2.763067
  H      2.511740   -1.814330    1.926272
  H      5.282403    1.194500    0.521799
  H      4.263337    1.521354    1.934510
  H      3.341233    2.668798   -0.092684
  H      1.033070    1.809155    0.040457
  H      1.753759    1.857546    1.654273
  H      4.228291    1.064009   -1.810957
  H      2.482900    1.299319   -2.008463
  H     -2.696492    0.505986    2.448861
  H     -2.827673   -1.239561    2.189095
  H     -4.971023   -0.100158    1.635231
  H     -5.066143    1.498820   -0.304393
  H     -4.020777    2.122328    0.983253
  H     -2.910009    2.371984   -1.250966
  H     -0.776845    1.232552   -0.729062
  H     -1.453823    1.977289    0.727931
  H     -4.032095    0.435364   -2.393527
  H     -2.269483    0.325659   -2.549194
  H     -3.228577   -1.892872   -1.892255
  H     -1.787565   -2.306474    0.099052
  H     -0.962464   -1.302614   -1.095666
  H     -4.342037   -2.149977    0.338786
  H     -5.255807   -1.028742   -0.686191
