47
  Isotropic shielding for P: 251.281 ppm
  C      6.570050   -1.209256   -0.815944
  O      5.317788   -1.259191   -1.535448
  C      4.176435   -0.917395   -0.858791
  C      2.987530   -0.986955   -1.601083
  C      1.756157   -0.658025   -1.027417
  C      1.679501   -0.258925    0.332695
  C      2.891793   -0.216161    1.049411
  C      4.131359   -0.525100    0.487083
  P      0.218058    0.205239    1.357458
  Se     0.283516   -0.759032   -2.292620
  C     -1.046359   -1.067777    0.911815
  C     -2.378528   -0.775573    0.560504
  C     -3.298121   -1.792773    0.312857
  C     -2.909648   -3.139474    0.412807
  C     -1.587805   -3.451289    0.774058
  C     -0.680310   -2.419416    1.027750
  O     -3.884662   -4.069316    0.144235
  C     -3.530234   -5.465787    0.234176
  C     -0.412208    1.759347    0.601474
  C     -1.499094    2.399840    1.221425
  C     -1.998136    3.621778    0.757536
  C     -1.381461    4.246728   -0.338500
  C     -0.271008    3.637212   -0.948208
  C      0.201863    2.412284   -0.483966
  O     -1.777829    5.448565   -0.873988
  C     -2.910818    6.113504   -0.276352
  H      7.333229   -1.509941   -1.538094
  H      6.563476   -1.907429    0.032196
  H      6.776442   -0.191850   -0.456976
  H      3.051252   -1.304293   -2.641105
  H     -0.806477   -0.650516   -1.299428
  H      2.856293    0.074369    2.098681
  H      5.028395   -0.467498    1.095119
  H     -2.702113    0.256902    0.455042
  H     -4.324192   -1.559367    0.033427
  H     -1.258146   -4.482376    0.859821
  H      0.340242   -2.681379    1.304745
  H     -3.202129   -5.724511    1.250541
  H     -2.738396   -5.718746   -0.484675
  H     -4.442360   -6.015727   -0.011579
  H     -1.970612    1.945719    2.092805
  H     -2.845273    4.077061    1.261628
  H      0.207851    4.136227   -1.789112
  H      1.061704    1.964821   -0.974039
  H     -3.049809    7.031360   -0.853509
  H     -3.814276    5.491435   -0.344071
  H     -2.713032    6.362489    0.775617
