24
  Isotropic shielding for P: 8.641 ppm
  C      3.418097    0.613316    0.954754
  C      2.159119   -0.156415    0.588982
  O      1.127011    0.842455    0.304954
  C     -0.147506    0.508868   -0.045500
  C     -0.963903    1.584617   -0.257005
  P     -2.678327    1.476277   -0.708645
  Cl    -3.496335    2.881275    0.694561
  Cl    -2.680802    2.753909   -2.442698
  C     -0.537090   -0.959501   -0.164359
  C     -1.588664   -1.361740    0.896636
  C     -0.979557   -1.328466   -1.599893
  H      3.738907    1.255295    0.125238
  H      3.251628    1.237307    1.841390
  H      4.225082   -0.096843    1.176563
  H      1.829143   -0.794517    1.419021
  H      2.318638   -0.777073   -0.302157
  H     -0.527561    2.576702   -0.132742
  H      0.356216   -1.553771    0.044083
  H     -1.751220   -2.446640    0.859349
  H     -1.250687   -1.096573    1.905954
  H     -2.551491   -0.868353    0.717482
  H     -1.926900   -0.846518   -1.870470
  H     -0.221916   -1.029030   -2.334278
  H     -1.121784   -2.414579   -1.671122
