28
  Isotropic shielding for P: 238.172 ppm
  O      2.197850    3.364890   -0.411386
  C      1.846215    2.617452    0.487956
  C      0.479426    1.975781    0.545066
  P      0.348618    0.394233   -0.423183
  O      0.762497    0.539049   -1.860634
  C     -1.379961   -0.119874   -0.201490
  C     -1.948900   -0.311503    1.069517
  C     -3.283344   -0.709574    1.183141
  C     -4.054305   -0.917430    0.031568
  C     -3.489819   -0.726740   -1.234674
  C     -2.154207   -0.328221   -1.354074
  C      1.336145   -0.870719    0.500500
  C      2.835660   -0.629059    0.384369
  O      3.434784   -0.005215    1.256628
  C      3.511650   -1.159458   -0.855676
  H      2.532279    2.363472    1.321898
  H      0.193738    1.759548    1.582158
  H     -0.260418    2.639038    0.078250
  H     -1.359163   -0.152011    1.970785
  H     -3.721633   -0.857493    2.168569
  H     -5.093950   -1.227490    0.123083
  H     -4.087847   -0.887354   -2.130047
  H     -1.706843   -0.176464   -2.333958
  H      1.033053   -0.845959    1.553089
  H      1.053051   -1.831197    0.051694
  H      4.565915   -0.869359   -0.874877
  H      2.987583   -0.773390   -1.742195
  H      3.422024   -2.255152   -0.886075
