13
  Isotropic shielding for P: 243.624 ppm
  C      2.161718   -0.358815   -0.663378
  O      1.524651   -0.540873    0.647555
  P      0.104508    0.057751    1.020987
  O     -0.368019   -0.324073    2.369287
  O     -0.799136   -0.333845   -0.234579
  C     -2.231222   -0.009550   -0.258065
  Br     0.332303    2.305445    0.841358
  H      1.548274   -0.826242   -1.438718
  H      2.295529    0.709124   -0.864020
  H      3.130341   -0.855941   -0.582457
  H     -2.714603   -0.393056    0.645535
  H     -2.625773   -0.505416   -1.147111
  H     -2.358474    1.075393   -0.336392
