29
  Isotropic shielding for P: 269.303 ppm
  C     -0.083453   -1.803340    1.429655
  P     -0.034399   -1.236047   -0.357067
  C     -1.567541   -0.239286   -0.326747
  C     -1.562089    1.065030   -0.852207
  C     -2.718157    1.847578   -0.800908
  C     -3.899112    1.323898   -0.259568
  C     -3.915770    0.018334    0.242866
  C     -2.750558   -0.755874    0.225505
  C      1.539633   -0.316465   -0.214179
  C      2.650653   -0.690057   -0.987746
  C      3.869582   -0.023239   -0.832394
  C      3.981261    1.039320    0.072425
  C      2.871685    1.423848    0.833586
  C      1.658775    0.739111    0.704373
  F     -0.022318   -2.813246   -0.805232
  F      0.027763   -0.966811   -2.085801
  H      0.837978   -2.352280    1.656176
  H     -0.938259   -2.461658    1.617687
  H     -0.153925   -0.935445    2.094888
  H     -0.655899    1.467710   -1.297229
  H     -2.700174    2.862482   -1.194729
  H     -4.802862    1.930477   -0.232394
  H     -4.832943   -0.398193    0.655787
  H     -2.776680   -1.764907    0.629158
  H      2.563762   -1.497146   -1.711320
  H      4.729111   -0.327760   -1.427339
  H      4.927724    1.566111    0.182202
  H      2.948617    2.254393    1.533349
  H      0.807494    1.043459    1.309201
