48
  Isotropic shielding for P: 180.088 ppm
  C     -3.912025    0.006863    2.469679
  C     -2.858619   -0.356804    1.410824
  C     -1.826415    0.764427    1.228371
  N     -0.771518    0.471165    0.231572
  P      0.807113    0.408750    0.831077
  N      1.793117    1.323997   -0.328257
  N      2.465962    0.598124   -1.347601
  C      2.315412   -0.656881   -1.061183
  N      1.575758   -0.990636    0.067686
  C      1.416722   -2.361553    0.265336
  C      0.708282   -2.991890    1.290543
  C      0.666416   -4.391718    1.311913
  C      1.316970   -5.148383    0.327489
  C      2.025929   -4.517308   -0.705916
  C      2.066427   -3.125479   -0.729530
  S      2.875283   -2.087203   -1.931866
  C      1.834829    2.723520   -0.369003
  C      1.035664    3.480827    0.517667
  C      1.087253    4.875708    0.499413
  C      1.915615    5.552113   -0.405195
  C      2.699589    4.802354   -1.291613
  C      2.668006    3.405815   -1.280798
  C     -1.141731    0.609131   -1.198755
  C     -0.965619   -0.649097   -2.068944
  C     -1.722760   -1.889577   -1.579181
  H     -4.642729   -0.802661    2.593473
  H     -3.445137    0.191370    3.447563
  H     -4.462981    0.914839    2.186164
  H     -3.353093   -0.563145    0.452369
  H     -2.332175   -1.277979    1.699274
  H     -1.331413    0.954455    2.191908
  H     -2.334614    1.699704    0.941889
  H      0.199069   -2.402450    2.049320
  H      0.117198   -4.895013    2.105261
  H      1.272926   -6.235034    0.358962
  H      2.529663   -5.101531   -1.472974
  H      0.373472    2.984396    1.223193
  H      0.464725    5.435901    1.195985
  H      1.946812    6.639794   -0.420136
  H      3.350943    5.308959   -2.002967
  H      3.283449    2.834282   -1.967822
  H     -2.193920    0.920415   -1.223764
  H     -0.554006    1.428287   -1.639054
  H      0.099096   -0.881018   -2.176961
  H     -1.311546   -0.378367   -3.078326
  H     -2.806708   -1.711839   -1.558369
  H     -1.534124   -2.743434   -2.242708
  H     -1.410567   -2.176098   -0.568909
