52
  Isotropic shielding for P: 273.928 ppm
  C      0.485974    0.267940   -3.418029
  C     -0.569615    0.262504   -2.326348
  O      0.078723   -0.212781   -1.097229
  P     -0.772540   -0.347514    0.269539
  N     -1.817003    0.752053    0.642693
  C     -1.582500    2.090501    0.947232
  C     -2.563306    2.792266    1.686705
  C     -2.387750    4.134341    2.027799
  C     -1.228959    4.824528    1.643405
  C     -0.253305    4.146908    0.900967
  C     -0.425185    2.804860    0.551570
  C      0.700409   -0.545380    1.370609
  C      0.763310   -0.255211    2.686581
  Cl     2.198681   -0.607657    3.615869
  Cl    -0.525301    0.450663    3.597624
  O      1.769220   -1.244713    0.810258
  C      2.704128   -0.540718    0.042871
  C      3.444710   -1.301192   -0.865675
  C      4.408138   -0.668998   -1.656334
  C      4.626018    0.710752   -1.542469
  C      3.879225    1.453003   -0.620125
  C      2.916425    0.832264    0.183588
  N     -1.556929   -1.804753    0.150157
  C     -2.794276   -2.088380    0.913554
  C     -2.549889   -2.627256    2.330135
  C     -0.839117   -2.982078   -0.399587
  C     -1.480806   -3.514850   -1.687193
  H      0.044453    0.640062   -4.351971
  H      0.871297   -0.743786   -3.594106
  H      1.324068    0.920156   -3.144070
  H     -1.403324   -0.408182   -2.568719
  H     -0.968274    1.267167   -2.139233
  H     -3.459370    2.255487    1.994883
  H     -3.159925    4.645773    2.602176
  H     -1.092639    5.870400    1.912512
  H      0.650430    4.667834    0.584932
  H      0.338418    2.304110   -0.039309
  H      3.252599   -2.368698   -0.950463
  H      4.984091   -1.256936   -2.369116
  H      5.372901    1.200638   -2.164116
  H      4.044676    2.524378   -0.518650
  H      2.339459    1.409208    0.900188
  H     -3.373365   -2.814132    0.327346
  H     -3.376401   -1.164144    0.955408
  H     -1.925158   -3.529578    2.320954
  H     -2.059427   -1.872718    2.956083
  H     -3.508714   -2.888416    2.798244
  H      0.199643   -2.703287   -0.595510
  H     -0.813512   -3.769811    0.366522
  H     -2.527781   -3.801510   -1.528543
  H     -0.936822   -4.404733   -2.031829
  H     -1.445998   -2.760088   -2.481981
