29
  Isotropic shielding for P: 255.881 ppm
  Cl     0.304802   -1.545252    3.054087
  P      0.951351   -1.183322    0.957933
  Cl     1.098425   -3.252589    0.609450
  N     -0.482878   -0.397413    0.649698
  C     -1.565532   -0.958344    0.230432
  C     -2.803124   -0.218975    0.002135
  C     -3.937035   -0.929635   -0.441196
  C     -5.145705   -0.264857   -0.656539
  C     -5.230294    1.114445   -0.431596
  C     -4.104507    1.829607    0.009582
  C     -2.897085    1.170957    0.225961
  O      1.544615   -0.849716   -0.635781
  C      2.789611   -0.277576   -0.601631
  C      3.195210    0.003925    0.700831
  O      2.227957   -0.388569    1.637105
  C      4.419002    0.570800    1.004086
  C      5.257831    0.871931   -0.084848
  C      4.860391    0.594416   -1.400248
  C      3.613944    0.008105   -1.682884
  H     -1.615248   -2.038540    0.034447
  H     -3.862501   -2.003216   -0.610486
  H     -6.018887   -0.818254   -0.996868
  H     -6.171874    1.635137   -0.598252
  H     -4.177499    2.901563    0.183758
  H     -2.020476    1.715177    0.570185
  H      4.709488    0.770296    2.032518
  H      6.229657    1.322869    0.103011
  H      5.529871    0.833029   -2.224111
  H      3.300488   -0.216000   -2.699586
