41
  Isotropic shielding for P: 111.968 ppm
  Cl     1.868331   -2.565966   -1.027774
  P      1.067097   -0.574735   -1.069761
  C     -0.304598   -0.627633    0.169830
  Si    -1.029500    1.184018    0.348849
  C      0.304355    2.418842    0.851075
  C     -2.340855    1.256167    1.703488
  C     -1.775299    1.693670   -1.307592
  Si    -1.627275   -1.961058   -0.394174
  C     -3.360634   -1.562585    0.231768
  C     -1.210699   -3.667833    0.286521
  C     -1.681966   -1.996610   -2.281106
  Cl     0.181024   -1.096355    1.928388
  C      2.501089    0.292983   -0.320191
  C      2.956184    1.410984   -1.041336
  C      4.039980    2.163589   -0.577842
  C      4.685594    1.795957    0.606945
  C      4.254542    0.666321    1.316503
  C      3.173426   -0.087192    0.854300
  H      0.958516    2.705065    0.023123
  H     -0.204144    3.325055    1.210422
  H      0.932183    2.039528    1.666206
  H     -2.000198    0.773703    2.626968
  H     -3.294360    0.810349    1.409967
  H     -2.518448    2.318364    1.925421
  H     -1.028765    1.669372   -2.111211
  H     -2.153016    2.723218   -1.227115
  H     -2.614893    1.052633   -1.602667
  H     -3.401844   -1.487214    1.324432
  H     -4.005333   -2.401959   -0.068503
  H     -3.783911   -0.649051   -0.199913
  H     -0.201424   -3.999420    0.027792
  H     -1.315863   -3.693042    1.377826
  H     -1.930339   -4.383011   -0.138541
  H     -2.502434   -2.660958   -2.589481
  H     -1.875046   -1.004189   -2.705510
  H     -0.753721   -2.381849   -2.718978
  H      2.454449    1.696746   -1.965075
  H      4.380701    3.029412   -1.143109
  H      5.531009    2.377501    0.971344
  H      4.766502    0.368957    2.230500
  H      2.859782   -0.971872    1.398207
