43
  Isotropic shielding for P: 213.045 ppm
  C      3.310703   -0.274778   -1.235949
  C      2.462615    0.029200    0.014801
  N      1.032266   -0.096018   -0.418089
  P     -0.363967    0.077156    0.514125
  O     -0.066656    0.346789    1.969547
  C     -1.274377   -1.565887    0.316509
  C     -0.516296   -2.573326    1.216049
  C     -1.246961   -2.094307   -1.135002
  C     -2.732578   -1.465200    0.816296
  C     -1.330007    1.523211   -0.235447
  C     -2.474163    1.919159    0.729147
  C     -0.351536    2.718937   -0.324814
  C     -1.897535    1.236038   -1.640894
  C      2.779608   -1.007241    1.110844
  C      2.793872    1.447708    0.529737
  H      4.378334   -0.204201   -0.994473
  H      3.104365   -1.286428   -1.608178
  H      3.095024    0.444754   -2.038505
  H      0.908937    0.099571   -1.408308
  H     -1.021389   -3.547612    1.152399
  H     -0.510133   -2.252958    2.263284
  H      0.519336   -2.708378    0.888060
  H     -1.809239   -1.460398   -1.826692
  H     -1.705099   -3.093749   -1.155458
  H     -0.219707   -2.186588   -1.504997
  H     -3.360902   -0.869974    0.145528
  H     -2.788074   -1.033543    1.822826
  H     -3.163718   -2.475735    0.860038
  H     -3.261488    1.162637    0.783002
  H     -2.930956    2.851401    0.367314
  H     -2.092837    2.095053    1.741148
  H      0.102964    2.943326    0.646704
  H     -0.912510    3.605888   -0.651629
  H      0.450917    2.540226   -1.047663
  H     -1.121100    0.913271   -2.346587
  H     -2.340116    2.159905   -2.041117
  H     -2.684533    0.475640   -1.621144
  H      3.832630   -0.919404    1.408249
  H      2.610149   -2.025311    0.740191
  H      2.152183   -0.845123    1.992705
  H      2.607418    2.197070   -0.248259
  H      3.852442    1.506318    0.817017
  H      2.182216    1.692810    1.404086
