32
  Isotropic shielding for P: 260.632 ppm
  C      4.196344    0.458551   -0.686093
  C      3.260751   -0.370307   -1.323023
  C      2.153443   -0.849533   -0.619085
  C      1.970219   -0.505749    0.731554
  C      2.910547    0.322706    1.364272
  C      4.020357    0.804491    0.657383
  P      0.500333   -1.078002    1.696282
  C      0.321651   -2.846649    1.317661
  C     -0.824150   -3.090015    0.629301
  C     -1.543138   -1.889555    0.206862
  C     -0.914117   -0.699162    0.608213
  C     -1.436951    0.569432    0.246133
  C     -0.827734    1.800852    0.618221
  C     -1.363638    3.008147    0.212510
  C     -2.539733    3.042332   -0.580476
  C     -3.161706    1.864441   -0.950372
  C     -2.637413    0.603646   -0.553464
  C     -3.268527   -0.621370   -0.922195
  C     -2.743822   -1.841881   -0.549766
  H      5.057499    0.832422   -1.237937
  H      3.396066   -0.640875   -2.369300
  H      1.426805   -1.488946   -1.117141
  H      2.771601    0.596240    2.409342
  H      4.742704    1.449075    1.156157
  H      0.983344   -3.609920    1.718158
  H     -1.199260   -4.088035    0.403067
  H      0.072085    1.783843    1.230432
  H     -0.883527    3.941267    0.503681
  H     -2.952353    4.000433   -0.892338
  H     -4.068689    1.885710   -1.554223
  H     -4.182658   -0.574647   -1.513224
  H     -3.236331   -2.769039   -0.840594
