55
  Isotropic shielding for P: 259.428 ppm
  C     -1.718590    4.472565    1.017819
  C     -1.557366    3.110831    0.319732
  P      0.081982    2.270909    0.662888
  C     -0.107182    0.783084   -0.507795
  C     -1.303911   -0.057478   -0.099017
  C     -2.439047   -0.122924   -0.920050
  C     -3.571332   -0.859367   -0.568053
  C     -3.616701   -1.589927    0.645958
  C     -2.475967   -1.506832    1.485870
  C     -1.356030   -0.764100    1.113119
  N     -4.722205   -2.365462    0.992167
  C     -5.966150   -2.197169    0.240452
  C     -4.847133   -2.845909    2.369170
  C      1.194335    0.007194   -0.615828
  C      1.966428   -0.359635    0.498251
  C      3.149207   -1.088420    0.370239
  C      3.622562   -1.502862   -0.901027
  C      2.859219   -1.104955   -2.028450
  C      1.679158   -0.376600   -1.875313
  N      4.776927   -2.271255   -1.035390
  C      5.677799   -2.406057    0.109974
  C      5.370481   -2.435115   -2.362722
  C      1.257234    3.299137   -0.380417
  C      1.944617    4.439964    0.391120
  H     -1.027539    5.221516    0.612378
  H     -2.738865    4.857308    0.882333
  H     -1.529967    4.392491    2.097076
  H     -1.690579    3.217082   -0.767945
  H     -2.332442    2.417582    0.671808
  H     -0.326859    1.200806   -1.500923
  H     -2.445197    0.426154   -1.862004
  H     -4.418962   -0.863594   -1.246426
  H     -2.458208   -2.026327    2.438921
  H     -0.508223   -0.735133    1.794515
  H     -6.383111   -1.177171    0.329750
  H     -5.809716   -2.407661   -0.824897
  H     -6.705761   -2.908935    0.617707
  H     -5.752712   -3.453782    2.449596
  H     -3.993137   -3.478206    2.642652
  H     -4.910761   -2.021304    3.102333
  H      1.654838   -0.053013    1.494921
  H      3.706193   -1.332225    1.269647
  H      3.184783   -1.361583   -3.031685
  H      1.120427   -0.092903   -2.767860
  H      5.155889   -2.847842    0.967918
  H      6.105374   -1.438563    0.430756
  H      6.498631   -3.074698   -0.164063
  H      5.699250   -1.476212   -2.803355
  H      4.657592   -2.900619   -3.054965
  H      6.238326   -3.095421   -2.280942
  H      0.715624    3.685092   -1.257376
  H      2.017579    2.600658   -0.755088
  H      1.222803    5.176652    0.764065
  H      2.659192    4.970362   -0.253961
  H      2.497199    4.049870    1.256220
