41
  Isotropic shielding for P: 251.672 ppm
  C     -2.258952    0.817545    2.956161
  O     -1.193711    0.369720    2.096294
  P     -1.364753    0.234659    0.430888
  C     -1.618520    1.999413    0.030435
  O     -2.703030   -0.678365    0.582435
  C     -3.656481   -1.045533   -0.451845
  O     -1.415604   -0.024257   -1.486905
  C     -0.554980   -0.950764   -1.883823
  C      0.390842   -1.359703   -0.963763
  C      0.324177   -0.576941    0.327400
  C      1.393199    0.503612    0.471119
  C      1.920350    0.815388    1.733927
  C      2.889024    1.813255    1.876428
  C      3.340977    2.520894    0.755333
  C      2.820812    2.215235   -0.507747
  C      1.856427    1.211781   -0.648301
  C      1.391124   -2.383649   -1.199267
  O      1.467085   -3.041754   -2.259842
  C      2.386737   -2.661492   -0.074297
  C     -0.718679   -1.429079   -3.297088
  H     -3.021992    0.036922    3.065686
  H     -1.808335    1.032156    3.931504
  H     -2.737805    1.732357    2.578064
  H     -2.483618    2.100470   -0.632470
  H     -1.758125    2.600285    0.931275
  H     -0.733180    2.351563   -0.508395
  H     -3.232373   -1.796734   -1.123940
  H     -3.974374   -0.169707   -1.025347
  H     -4.508723   -1.467354    0.090434
  H      0.359438   -1.224062    1.209265
  H      1.564260    0.272907    2.607423
  H      3.293447    2.036839    2.862731
  H      4.095486    3.298322    0.864650
  H      3.168527    2.755932   -1.386942
  H      1.468530    0.970410   -1.635664
  H      3.092401   -3.432387   -0.397900
  H      1.864170   -3.006308    0.829689
  H      2.936463   -1.752263    0.203131
  H      0.243476   -1.445718   -3.818989
  H     -1.429026   -0.782399   -3.823280
  H     -1.094691   -2.460898   -3.308261
