11
  Isotropic shielding for P: 196.771 ppm
  Cl    -1.920561    0.485068    1.616825
  C     -1.447210   -0.060549   -0.061772
  C     -0.051464   -0.675505   -0.114571
  P      1.334002    0.474567    0.211568
  O      1.477545    1.049290    1.568759
  Cl     1.165606    1.912016   -1.265361
  Cl     2.989570   -0.610224   -0.387178
  H     -1.542184    0.813637   -0.709265
  H     -2.184090   -0.813045   -0.352843
  H      0.062061   -1.489468    0.613740
  H      0.116628   -1.085790   -1.119800
