24
  Isotropic shielding for P: 250.371 ppm
  C      4.276208   -0.357519    0.690231
  O      3.258610    0.674950    0.902606
  P      1.882523    0.734311    0.102437
  O      1.064342    1.897815    0.524564
  N      1.278610   -0.840368    0.203674
  C      0.024280   -1.137078    0.137688
  Si    -1.582868   -0.097288   -0.161723
  C     -2.883886   -1.407632   -0.542819
  C     -1.998118    0.804037    1.438809
  C     -1.376520    1.061672   -1.629327
  Cl     2.451581    0.827202   -1.901412
  H      3.837863   -1.348257    0.840474
  H      4.685682   -0.266943   -0.321413
  H      5.051387   -0.157697    1.433389
  H     -0.165631   -2.217524    0.277344
  H     -2.626206   -1.977588   -1.446160
  H     -2.987835   -2.117302    0.289476
  H     -3.862612   -0.937222   -0.709597
  H     -2.099367    0.099394    2.274866
  H     -2.954578    1.333885    1.324145
  H     -1.219000    1.533735    1.684324
  H     -0.678278    1.876431   -1.414244
  H     -1.020738    0.519437   -2.514920
  H     -2.355247    1.499749   -1.872913
