36
  Isotropic shielding for P: 31.882 ppm
  Cl     0.056723    2.168649    2.101862
  P     -0.270296    1.419167   -0.014259
  N     -1.311466    0.071484    0.168472
  C     -2.768476    0.047388    0.450229
  C     -3.371234   -1.177056   -0.265795
  C     -3.414061    1.339441   -0.085582
  C     -2.993698   -0.066967    1.974433
  Si    -0.027835   -1.097931    0.010148
  N      1.011105    0.288678   -0.199802
  Si     2.749618    0.590601   -0.309676
  C      2.970936    2.335536   -0.970685
  C      3.452737   -0.700264   -1.482791
  C      3.518414    0.415122    1.396018
  C     -0.096365   -2.322393   -1.381906
  Cl     0.373457   -2.168647    1.769936
  H     -4.451926   -1.224396   -0.083941
  H     -2.928541   -2.109168    0.109861
  H     -3.200681   -1.118854   -1.347844
  H     -4.494394    1.319270    0.101544
  H     -3.249087    1.440554   -1.165783
  H     -3.003255    2.225834    0.415711
  H     -4.068037   -0.096949    2.198104
  H     -2.550208    0.789530    2.493908
  H     -2.532675   -0.982498    2.364409
  H      2.507924    2.452133   -1.959722
  H      4.039367    2.574326   -1.065057
  H      2.522647    3.075214   -0.293337
  H      4.536587   -0.562080   -1.601031
  H      3.287975   -1.716274   -1.098187
  H      2.988952   -0.631127   -2.475734
  H      4.601391    0.599368    1.357488
  H      3.358566   -0.595278    1.795460
  H      3.070148    1.131117    2.096779
  H      0.878570   -2.813807   -1.494611
  H     -0.850223   -3.095739   -1.191478
  H     -0.342556   -1.804383   -2.317043
