32
  Isotropic shielding for P: 316.832 ppm
  C     -4.611100    1.128223   -0.079565
  P     -3.017307    0.540582    0.686918
  C     -2.014077    0.334545   -0.883239
  C     -0.669212   -0.404283   -0.707099
  Si     0.589101    0.335392    0.490101
  C      2.305045   -0.278363    0.029408
  C      3.098206   -1.101149    0.849689
  C      4.365890   -1.527385    0.434374
  C      4.865106   -1.135603   -0.812923
  C      4.091261   -0.315642   -1.643876
  C      2.825274    0.105991   -1.224962
  Cl     0.184660   -0.367421    2.447829
  C      0.537672    2.207562    0.528298
  C     -3.464688   -1.237374    1.017479
  H     -4.947050    0.465514   -0.889858
  H     -5.390131    1.172841    0.691751
  H     -4.470062    2.139904   -0.480650
  H     -1.836428    1.348285   -1.269562
  H     -2.633141   -0.188946   -1.628867
  H     -0.155401   -0.445772   -1.681081
  H     -0.835183   -1.451886   -0.417350
  H      2.724239   -1.413257    1.823335
  H      4.963124   -2.165337    1.084616
  H      5.850861   -1.466665   -1.136716
  H      4.473486   -0.006515   -2.615938
  H      2.239448    0.742730   -1.889122
  H      1.279614    2.600721    1.234472
  H      0.771239    2.602918   -0.470493
  H     -0.455418    2.568836    0.820846
  H     -3.846293   -1.736860    0.115595
  H     -4.234314   -1.273709    1.798696
  H     -2.584418   -1.777974    1.383891
