35
  Isotropic shielding for P: 276.789 ppm
  Cl     1.585908   -3.180954   -1.088052
  C      2.132941   -1.773039   -0.262033
  C      1.557517   -0.549300   -0.297202
  P      0.133704   -0.077984   -1.354944
  C     -1.189280   -1.188832   -0.716537
  C     -2.254492   -1.448645   -1.596602
  C     -3.329250   -2.246696   -1.192114
  C     -3.340762   -2.807316    0.090374
  C     -2.277126   -2.561922    0.967455
  C     -1.207979   -1.753714    0.569246
  C     -0.354225    1.572446   -0.692090
  C     -1.112421    1.753778    0.475641
  C     -1.461849    3.040969    0.893571
  C     -1.060069    4.157448    0.148925
  C     -0.313128    3.983183   -1.021558
  C      0.030951    2.695405   -1.444226
  C      2.351443    0.392892    0.576760
  C      3.679992   -0.373660    0.932433
  C      3.342015   -1.874016    0.622426
  F      3.069239   -2.558462    1.794635
  F      4.397312   -2.524024    0.031190
  F      4.690779    0.045696    0.109053
  F      4.074242   -0.178521    2.220723
  F      2.636917    1.592961   -0.031618
  F      1.668107    0.694900    1.743070
  H     -2.242809   -1.025812   -2.600647
  H     -4.150517   -2.437580   -1.881055
  H     -4.172234   -3.436560    0.403666
  H     -2.280221   -2.997622    1.965361
  H     -0.391326   -1.567928    1.262696
  H     -1.432563    0.895216    1.060387
  H     -2.047241    3.172587    1.802312
  H     -1.334199    5.158740    0.477269
  H     -0.004987    4.846500   -1.609034
  H      0.605612    2.560170   -2.359476
