23
  Isotropic shielding for P: 96.128 ppm
  C      3.875491   -0.213484    1.161846
  O      2.483258   -0.625227    1.072882
  P      1.812041   -0.721263   -0.441860
  O      1.060277    0.740180   -0.675618
  C     -0.053208    1.048407    0.228979
  C     -1.275051    0.126560   -0.039965
  C     -0.757037   -1.243432   -0.547528
  O      0.506026   -1.611633    0.089784
  C     -2.188877    0.731555   -1.124568
  C     -2.048170   -0.045300    1.283629
  H      4.293388   -0.687966    2.055182
  H      3.937779    0.877755    1.258277
  H      4.443304   -0.534345    0.277315
  H      0.296232    0.936071    1.262331
  H     -0.304864    2.099795    0.055108
  H     -1.463035   -2.044256   -0.303483
  H     -0.620601   -1.223774   -1.638423
  H     -2.645981    1.663286   -0.766030
  H     -2.998226    0.036589   -1.387737
  H     -1.619930    0.954085   -2.037012
  H     -2.968019   -0.622116    1.120022
  H     -2.329451    0.930737    1.702468
  H     -1.435246   -0.572024    2.026700
