30
  Isotropic shielding for P: 237.190 ppm
  C      3.391302   -1.945841    0.727885
  O      2.021107   -1.525881    0.434105
  P      1.757664   -0.104397   -0.269421
  O      2.536271    0.187430   -1.509022
  C     -0.058408   -0.158263   -0.475749
  C     -0.482769   -1.255271   -1.425284
  C     -1.712195   -1.803134   -1.449537
  C     -2.914325   -1.586830   -0.636197
  C     -3.321261   -0.783645    0.388145
  C     -2.821060    0.329037    1.213417
  C     -2.155344    1.471944    0.933729
  C     -1.510930    1.890217   -0.320370
  C     -0.553328    1.194431   -0.948817
  O      2.033979    0.926257    0.945656
  C      2.413286    2.313399    0.687789
  H      3.315238   -2.962642    1.120345
  H      3.993898   -1.936978   -0.186894
  H      3.833466   -1.283025    1.480443
  H     -0.466306   -0.361857    0.520025
  H      0.240009   -1.576558   -2.174883
  H     -1.867610   -2.564827   -2.216368
  H     -3.693362   -2.296003   -0.925654
  H     -4.320518   -1.058837    0.741809
  H     -3.219221    0.272849    2.230675
  H     -2.092457    2.202177    1.745889
  H     -1.778923    2.878169   -0.703903
  H     -0.090172    1.592397   -1.851342
  H      2.898935    2.670071    1.600173
  H      3.106659    2.368409   -0.157206
  H      1.516277    2.907401    0.480561
