51
  Isotropic shielding for P: 292.386 ppm
  C      1.292120   -2.672442   -1.022491
  C      1.688336   -1.185406   -1.056748
  C      0.532482   -0.303005   -1.629712
  P     -0.370914    0.316207   -0.123678
  C      0.764815   -0.387668    1.156755
  C      2.092120   -0.595353    0.357834
  C      2.999088   -1.560919    1.147429
  C      2.782501    0.756473    0.099668
  C      4.185125    0.824603    0.003635
  C      4.849695    2.016825   -0.292377
  C      4.109640    3.183279   -0.509184
  C      2.718026    3.128907   -0.425388
  C      2.034770    1.935701   -0.123563
  C      0.518021    1.993083   -0.059678
  O     -1.783622    1.212175    0.049497
  C     -3.065908    0.508058   -0.031153
  C     -2.700621   -0.942539    0.436513
  O     -1.416922   -1.141658   -0.167933
  C     -3.660519   -2.018838   -0.083511
  C     -2.580385   -1.053275    1.972709
  C     -4.048806    1.252990    0.873882
  C     -3.523119    0.572521   -1.495928
  H      0.988176   -2.993604   -2.027636
  H      0.447983   -2.849960   -0.347344
  H      2.131614   -3.304593   -0.711163
  H      2.563912   -1.083607   -1.714449
  H     -0.126056   -0.880200   -2.282281
  H      0.929878    0.547267   -2.192181
  H      0.911491    0.302211    1.995298
  H      0.397246   -1.341293    1.539365
  H      2.433173   -2.448274    1.449333
  H      3.377551   -1.074991    2.055558
  H      3.858673   -1.901063    0.557236
  H      4.779672   -0.071470    0.158299
  H      5.936920    2.030708   -0.355801
  H      4.609118    4.122447   -0.743495
  H      2.133168    4.032489   -0.599512
  H      0.208633    2.489391    0.872396
  H      0.147469    2.625135   -0.878330
  H     -4.686839   -1.823148    0.253729
  H     -3.651356   -2.063906   -1.177107
  H     -3.356973   -2.999769    0.303440
  H     -3.562783   -1.013211    2.458832
  H     -1.957510   -0.253493    2.389887
  H     -2.113890   -2.014783    2.218233
  H     -4.251582    2.251423    0.466889
  H     -3.653390    1.367496    1.887779
  H     -4.999792    0.708132    0.928036
  H     -4.537238    0.172717   -1.614751
  H     -3.528339    1.619904   -1.821417
  H     -2.844852    0.008328   -2.145522
