31
  Isotropic shielding for P: 169.263 ppm
  C      4.386953   -0.969176    1.826995
  C      4.419782   -1.589090    0.424024
  C      3.897984   -0.698340   -0.673541
  S      1.018027   -2.432938   -0.118106
  P     -1.496356    0.859703   -0.348734
  N     -2.123455    2.365260    0.211612
  C     -3.534482    2.761784    0.053940
  N     -2.414130   -0.316449    0.516524
  C     -2.100157   -0.521046    1.942017
  N     -2.173768    0.713487   -1.932655
  C     -1.733336   -0.441671   -2.743017
  Br     1.837099   -0.397619   -0.464806
  H      3.355400   -0.781187    2.150678
  H      4.848360   -1.645751    2.556570
  H      4.932109   -0.015813    1.852723
  H      3.865230   -2.539591    0.405788
  H      5.456699   -1.836441    0.138609
  H      4.248867    0.338120   -0.642868
  H      3.962955   -1.124321   -1.676134
  H     -1.480876    3.132736    0.016981
  H     -4.182353    1.957482    0.424900
  H     -3.736127    3.655980    0.657226
  H     -3.817415    2.978970   -0.989942
  H     -3.420810   -0.301788    0.338834
  H     -2.564373   -1.451439    2.293789
  H     -1.013313   -0.623305    2.054948
  H     -2.435767    0.305695    2.590602
  H     -3.189984    0.822803   -1.974587
  H     -0.638445   -0.500909   -2.719827
  H     -2.128216   -1.406951   -2.386788
  H     -2.046302   -0.298498   -3.785555
