59
  Isotropic shielding for P: 304.955 ppm
  C     -0.541643   -2.951403   -1.713050
  C     -1.479851   -2.665549   -0.509368
  C     -1.547451   -1.149384   -0.264627
  C     -2.750478   -0.409711   -0.333302
  C     -2.830308    0.973421   -0.107739
  C     -1.647232    1.675634    0.205365
  C     -0.457301    0.968701    0.266066
  C     -0.399564   -0.411057    0.039056
  O      0.873229   -0.893438    0.183061
  P      2.125960    0.372672    0.369320
  O      0.766783    1.501037    0.569187
  C      2.702802    0.620844   -1.354650
  C      4.253090    0.681470   -1.408963
  C      4.884011   -0.628504   -0.875303
  N      4.683146   -0.797593    0.583397
  C      3.267034   -1.051083    0.916274
  C      5.210271    0.377928    1.299272
  N      4.595464    1.651780    0.888057
  C      3.163951    1.705919    1.251619
  C      4.797853    1.859947   -0.565156
  C     -4.159711    1.749379   -0.187634
  C     -4.041167    2.864937   -1.260077
  C     -5.352325    0.844803   -0.564028
  C     -4.458659    2.397415    1.190674
  C     -2.864606   -3.269684   -0.825870
  C     -0.926982   -3.369069    0.759433
  H     -0.924944   -2.468912   -2.622054
  H      0.471044   -2.579594   -1.526344
  H     -0.484399   -4.033168   -1.897544
  H     -3.658991   -0.946154   -0.575211
  H     -1.647035    2.746522    0.393800
  H      2.265077    1.553632   -1.735132
  H      2.324987   -0.207455   -1.968120
  H      4.556814    0.822211   -2.457785
  H      4.463477   -1.503130   -1.390058
  H      5.966726   -0.615722   -1.063473
  H      2.941852   -1.976154    0.429143
  H      3.168515   -1.180909    2.002213
  H      5.046249    0.237881    2.374751
  H      6.289136    0.440171    1.105051
  H      3.062190    1.567301    2.336404
  H      2.766605    2.694180    0.996189
  H      4.314522    2.803246   -0.853807
  H      5.877520    1.967899   -0.740243
  H     -3.828086    2.431775   -2.246453
  H     -4.980544    3.431025   -1.328401
  H     -3.237691    3.570505   -1.017487
  H     -5.209668    0.372875   -1.544744
  H     -5.511740    0.052153    0.178314
  H     -6.267440    1.449269   -0.611855
  H     -4.545003    1.627964    1.969376
  H     -5.403734    2.956843    1.152998
  H     -3.664490    3.093147    1.487267
  H     -3.571344   -3.121825    0.000819
  H     -2.758591   -4.350336   -0.987286
  H     -3.302486   -2.836153   -1.734338
  H      0.073813   -3.005708    1.012637
  H     -0.870158   -4.453901    0.593477
  H     -1.588304   -3.189091    1.617581
