31
  Isotropic shielding for P: 259.748 ppm
  C      2.513117    1.060347    3.085483
  O      2.100473    0.886004    1.688582
  C      0.863269    0.404007    1.495316
  O      0.063993    0.142180    2.373644
  C      0.567405    0.228888   -0.016991
  S      1.805536   -1.128260   -0.521805
  O      3.069551   -0.491606   -0.872006
  O      1.742222   -2.197054    0.466200
  C      1.243590   -1.930446   -2.195668
  F      2.264244   -2.741731   -2.549357
  F      0.128091   -2.663389   -2.061590
  F      1.073643   -0.994450   -3.149187
  P     -1.212147   -0.343309   -0.180809
  O     -1.523895   -1.679886    0.381280
  O     -1.342564   -0.172793   -1.765819
  C     -2.539279   -0.654639   -2.459011
  O     -2.077075    0.887341    0.369539
  C     -2.810833    0.839300    1.638357
  C      0.859956    1.513670   -0.815758
  H      1.863214    1.794296    3.571412
  H      2.457018    0.099851    3.606285
  H      3.541354    1.420373    3.029053
  H     -3.408596   -0.064092   -2.150071
  H     -2.697518   -1.714965   -2.238800
  H     -2.341179   -0.510946   -3.523148
  H     -2.251694    1.409645    2.384128
  H     -3.782724    1.301098    1.444054
  H     -2.935316   -0.195820    1.966576
  H      0.674632    1.364826   -1.881430
  H      1.895812    1.824020   -0.662659
  H      0.195599    2.307737   -0.455897
