52
  Isotropic shielding for P: 321.595 ppm
  C      7.235895    1.875654   -0.470251
  C      6.155820    0.808985   -0.713253
  C      5.271037    0.564878    0.521419
  C      4.223669   -0.553011    0.348230
  C      3.195653   -0.325944   -0.780667
  C      2.393211    0.988865   -0.685700
  C      1.591046    1.225165    0.610628
  C      0.355596    0.319186    0.811154
  P      0.691690   -1.387642    1.526985
  C     -1.054115   -1.977505    1.874485
  C     -2.060867   -1.924983    0.713954
  C     -3.450063   -2.467762    1.103742
  C     -4.509433   -2.394212   -0.023132
  C     -5.360945   -1.107910   -0.048714
  C     -4.593246    0.203493   -0.286753
  C     -5.518494    1.424216   -0.427984
  C     -4.753512    2.739727   -0.646149
  H      6.781822    2.839995   -0.200438
  H      7.853721    2.034599   -1.364394
  H      7.903677    1.581492    0.352133
  H      5.530800    1.115305   -1.564882
  H      6.633040   -0.139666   -1.007493
  H      5.918558    0.307135    1.374538
  H      4.771710    1.506971    0.796680
  H      3.692677   -0.691364    1.300761
  H      4.746463   -1.503002    0.153840
  H      3.712893   -0.337066   -1.751595
  H      2.506640   -1.181058   -0.803293
  H      1.696824    1.034662   -1.538141
  H      3.083689    1.835520   -0.815430
  H      1.235790    2.266837    0.590387
  H      2.251642    1.150291    1.486739
  H     -0.306257    0.786470    1.555991
  H     -0.218697    0.249189   -0.121902
  H      0.871042   -2.114013    0.310336
  H     -1.417831   -1.377347    2.723067
  H     -0.958027   -3.008543    2.247765
  H     -2.152200   -0.894447    0.352668
  H     -1.670126   -2.514478   -0.130150
  H     -3.329186   -3.514910    1.420879
  H     -3.820358   -1.923249    1.987628
  H     -4.011289   -2.522456   -0.998043
  H     -5.197797   -3.246060    0.079541
  H     -6.124789   -1.213756   -0.836095
  H     -5.913060   -1.029225    0.902430
  H     -3.893767    0.385400    0.542845
  H     -3.976340    0.107854   -1.195431
  H     -6.211131    1.256856   -1.267974
  H     -6.144422    1.508184    0.474728
  H     -4.079985    2.948566    0.197344
  H     -5.438731    3.592124   -0.747009
  H     -4.139939    2.691990   -1.557121
