17
  Isotropic shielding for P: 127.565 ppm
  C     -2.788238    0.139748   -0.470831
  P     -1.863394    0.341776    1.122764
  C     -0.126365    0.140929    0.545824
  C      0.795110    1.107883    0.983111
  C      2.131619    1.054093    0.567985
  C      2.557644    0.024098   -0.276134
  C      1.646393   -0.951851   -0.706909
  C      0.311961   -0.892841   -0.301132
  Cl    -2.224644   -1.616310    1.940101
  H     -2.477759   -0.744749   -1.037694
  H     -3.860878    0.083229   -0.252907
  H     -2.594926    1.041719   -1.068371
  H      0.464944    1.905065    1.648498
  H      2.836751    1.810217    0.909244
  H      3.597514   -0.024613   -0.595495
  H      1.979225   -1.757846   -1.359248
  H     -0.384856   -1.660648   -0.632006
