32
  Isotropic shielding for P: 129.423 ppm
  C      4.301029   -1.878088    1.426202
  C      3.803889   -1.089490    0.468054
  C      2.531750   -1.373934   -0.271616
  O      1.626527   -0.246283   -0.070393
  P      0.416138   -0.046677   -1.219006
  C     -0.963615   -1.056462   -0.516807
  C     -1.232711   -1.094258    0.862763
  C     -2.280187   -1.876032    1.354562
  C     -3.078160   -2.619165    0.471265
  C     -2.817055   -2.586634   -0.902334
  C     -1.755581   -1.814188   -1.392619
  C     -0.127710    1.629130   -0.683610
  C      0.761108    2.531999   -0.076362
  C      0.345048    3.831969    0.236392
  C     -0.956365    4.248660   -0.064955
  C     -1.844623    3.356043   -0.679936
  C     -1.433907    2.056170   -0.986805
  H      5.242987   -1.649914    1.922910
  H      3.783145   -2.785592    1.739522
  H      4.330597   -0.179934    0.170043
  H      2.724703   -1.489260   -1.351469
  H      2.057069   -2.294954    0.097101
  H     -0.618793   -0.512371    1.548396
  H     -2.482237   -1.903343    2.424591
  H     -3.897808   -3.223925    0.856483
  H     -3.431120   -3.166402   -1.589930
  H     -1.542205   -1.799918   -2.461426
  H      1.772981    2.214504    0.163445
  H      1.040609    4.518638    0.717288
  H     -1.277961    5.260236    0.177769
  H     -2.860476    3.671148   -0.914520
  H     -2.137164    1.368319   -1.454898
