44
  Isotropic shielding for P: 265.813 ppm
  C      4.180475    0.305816   -0.880619
  Si     3.098732    1.276236    0.320133
  N      1.492440    0.624547    0.278022
  P      0.623294   -0.469424    0.905853
  N     -0.828906   -0.697133    0.159378
  Si    -2.153596   -1.799091    0.743735
  C     -1.621604   -3.025033    2.067861
  C     -3.501493   -0.700872    1.460130
  C     -2.747101   -2.859355   -0.694974
  Si    -1.116444    0.516572   -1.193879
  C     -2.747255    0.132272   -2.058870
  C     -1.269424    2.230697   -0.441297
  C      0.210169    0.363833   -2.520318
  I      0.157077    0.055551    3.382434
  I      1.834498   -2.718917    1.003343
  C      3.829458    1.189627    2.055862
  C      2.959629    3.071369   -0.236230
  H      3.770844    0.347745   -1.898844
  H      4.243372   -0.749401   -0.583785
  H      5.200552    0.715068   -0.905945
  H     -1.100874   -2.593797    2.926263
  H     -2.558982   -3.471122    2.435437
  H     -1.009133   -3.832590    1.654031
  H     -3.861557    0.057721    0.756291
  H     -3.125147   -0.184055    2.352567
  H     -4.360243   -1.317257    1.761747
  H     -3.446596   -2.353720   -1.365280
  H     -1.895517   -3.219237   -1.287800
  H     -3.256829   -3.739085   -0.276978
  H     -3.623143    0.073392   -1.405916
  H     -2.907895    0.974432   -2.749284
  H     -2.692400   -0.779702   -2.662737
  H     -2.076240    2.245739    0.303916
  H     -0.342020    2.550995    0.042226
  H     -1.523196    2.956619   -1.227034
  H      1.078972    0.995466   -2.318502
  H      0.556983   -0.674880   -2.600806
  H     -0.218921    0.651227   -3.490922
  H      3.218442    1.751523    2.774039
  H      4.843654    1.614169    2.063132
  H      3.893730    0.151256    2.407230
  H      2.319249    3.643475    0.448825
  H      3.948278    3.551074   -0.259646
  H      2.524766    3.138153   -1.242684
