23
  Isotropic shielding for P: 222.755 ppm
  O      4.209407   -1.427931    0.016778
  C      3.459889   -0.577017    0.467496
  C      1.967996   -0.747366    0.579018
  P      1.052854    0.260559   -0.701331
  S      1.611472   -0.151405   -2.547829
  C     -0.702189   -0.094348   -0.327034
  C     -1.246580    0.226226    0.929728
  C     -2.588348   -0.052903    1.202256
  C     -3.393163   -0.653990    0.225654
  C     -2.852828   -0.975646   -1.024176
  C     -1.510117   -0.697285   -1.301106
  C      1.323715    2.001263   -0.208975
  H      3.858754    0.401227    0.819393
  H      1.684902   -1.793244    0.418004
  H      1.622741   -0.400405    1.563211
  H     -0.633432    0.690496    1.699980
  H     -3.004831    0.198340    2.176212
  H     -4.438292   -0.870613    0.440460
  H     -3.474987   -1.442849   -1.785619
  H     -1.081792   -0.941472   -2.271072
  H      0.716709    2.637679   -0.861802
  H      1.036692    2.160978    0.836359
  H      2.381630    2.249703   -0.345505
