47
  Isotropic shielding for P: 235.624 ppm
  C      5.384661   -1.637773   -1.659336
  C      4.199324   -2.060399   -0.806932
  O      3.490359   -0.839526   -0.415952
  C      2.383819   -0.997195    0.397479
  O      2.003167   -2.115017    0.743537
  C      1.775153    0.278627    0.765492
  C      2.287819    1.537169    0.389581
  N      3.327920    1.837429   -0.429955
  S      1.358493    2.838524    1.084271
  C      0.250318    1.709199    1.880769
  C      0.599620    0.402249    1.610678
  C     -0.213752   -0.770822    2.101471
  C     -1.058361   -1.449848    0.993694
  P     -2.368164   -0.398461    0.306870
  O     -3.287859    0.225541    1.301595
  O     -1.702945    0.768019   -0.593074
  C     -0.840905    0.476990   -1.744837
  C     -0.474975    1.799031   -2.398020
  O     -3.047375   -1.432145   -0.735486
  C     -4.293738   -1.053694   -1.425602
  C     -5.499388   -1.647306   -0.712342
  C     -0.865889    2.222261    2.641369
  C     -1.156443    3.519337    2.876068
  H      5.053355   -1.102272   -2.558121
  H      5.942266   -2.528606   -1.975923
  H      6.066124   -0.989742   -1.093459
  H      4.512504   -2.587917    0.102034
  H      3.504393   -2.705063   -1.358366
  H      3.944622    1.079778   -0.703799
  H      3.688232    2.783749   -0.459773
  H     -0.877547   -0.450552    2.910138
  H      0.455456   -1.533785    2.512167
  H     -1.571500   -2.327587    1.409327
  H     -0.420077   -1.809393    0.179408
  H      0.055137   -0.047252   -1.391897
  H     -1.386837   -0.177828   -2.435751
  H      0.053258    2.448575   -1.690496
  H      0.183394    1.612673   -3.256962
  H     -1.372179    2.320067   -2.754992
  H     -4.187112   -1.451256   -2.441031
  H     -4.359424    0.040012   -1.485234
  H     -5.410789   -2.738960   -0.644728
  H     -6.412585   -1.408640   -1.274851
  H     -5.594851   -1.235626    0.298810
  H     -1.540374    1.463993    3.035476
  H     -0.542035    4.337467    2.499346
  H     -2.034491    3.796072    3.454734
