31
  Isotropic shielding for P: 289.129 ppm
  C     -1.038771   -3.695082    1.495455
  O     -0.069272   -2.997860    2.345906
  P      0.390134   -1.505025    2.086000
  O      1.313181   -1.014259    3.127439
  O     -1.005908   -0.665849    1.981987
  C     -1.326340    0.196272    0.930972
  C     -2.068170   -0.285143   -0.146552
  C     -2.359433    0.544600   -1.229335
  C     -1.896489    1.861651   -1.213350
  C     -1.193331    2.377076   -0.124819
  C     -0.921235    1.539044    0.957787
  Cl    -0.051140    2.169362    2.333068
  Cl    -2.192301    2.901746   -2.601204
  O      0.956628   -1.570949    0.571734
  C      1.445038   -0.449680   -0.136200
  C      1.017954   -0.313551   -1.457256
  C      1.427560    0.794523   -2.198334
  C      2.265025    1.739989   -1.600403
  C      2.725516    1.580474   -0.293007
  C      2.318156    0.467410    0.448636
  Cl     2.745802    3.167656   -2.520366
  H     -0.677797   -3.722755    0.462603
  H     -2.009650   -3.192875    1.554773
  H     -1.108788   -4.705983    1.902261
  H     -2.388621   -1.323553   -0.145194
  H     -2.918809    0.165879   -2.079964
  H     -0.852095    3.407408   -0.115331
  H      0.348198   -1.052115   -1.888141
  H      1.084127    0.929833   -3.220141
  H      3.388651    2.317867    0.151241
  H      2.652078    0.333889    1.472736
