26
  Isotropic shielding for P: 272.274 ppm
  C      4.117441    0.037229   -0.034197
  O      2.713206   -0.191204    0.316313
  P      1.761861    1.038843    0.680346
  O      2.124429    1.904703    1.825496
  O      0.363122    0.293557    0.923843
  C     -0.178283   -0.639465   -0.058389
  C      0.332444   -2.064938    0.170108
  O      0.428561   -2.875970   -0.733972
  O      0.594092   -2.335411    1.469604
  C     -1.708280   -0.599367    0.049654
  C     -2.261331    0.791615   -0.323409
  C     -3.774108    0.859694   -0.274412
  O     -4.496429    1.207964   -1.194039
  O     -4.264404    0.489756    0.945900
  O      1.648308    1.795181   -0.743891
  H      4.628927    0.546128    0.789648
  H      4.180267    0.631568   -0.951977
  H      4.547131   -0.954010   -0.193465
  H      0.138107   -0.342091   -1.065039
  H      0.882231   -3.273385    1.529300
  H     -2.111957   -1.360769   -0.630553
  H     -2.001233   -0.869017    1.070921
  H     -1.951247    1.073227   -1.335142
  H     -1.867756    1.540606    0.377512
  H     -5.243561    0.560601    0.907202
  H      1.398558    2.734958   -0.645461
