40
  Isotropic shielding for P: 242.572 ppm
  C     -1.400835    3.377418    0.621032
  C     -2.121282    2.086780    0.274306
  O     -1.138034    0.989452    0.335504
  P     -1.484499   -0.442956   -0.292869
  O     -2.202377   -0.472752   -1.599435
  C      0.164699   -1.278237   -0.281800
  N      0.945105   -1.280505   -1.527981
  S      1.645266    0.171911   -2.011602
  O      2.514415   -0.158454   -3.140645
  O      0.668842    1.248790   -2.181995
  C      2.644910    0.558203   -0.580354
  C      2.306885    1.653233    0.217553
  C      3.101255    1.967890    1.323906
  C      4.215460    1.174120    1.600971
  C      4.560322    0.076031    0.805358
  C      3.764211   -0.233698   -0.297383
  Br     5.313870    1.601041    3.125554
  C      0.443191   -2.158264   -2.612822
  O     -2.279671   -1.141049    0.933060
  C     -3.081549   -2.354344    0.684240
  C     -4.543322   -1.994396    0.468403
  H     -2.119716    4.207423    0.612458
  H     -0.614574    3.594587   -0.111710
  H     -0.951285    3.320302    1.620234
  H     -2.922014    1.863217    0.990713
  H     -2.542810    2.117061   -0.736988
  H     -0.017973   -2.328476   -0.021752
  H      0.754830   -0.845541    0.533779
  H      1.430039    2.247575   -0.016581
  H      2.850958    2.815555    1.955692
  H      5.433726   -0.526551    1.038579
  H      4.014354   -1.081464   -0.930154
  H      1.181436   -2.186234   -3.416911
  H     -0.526144   -1.823884   -3.002306
  H      0.337880   -3.164238   -2.190976
  H     -2.942022   -2.970949    1.578941
  H     -2.670163   -2.891357   -0.180072
  H     -4.663174   -1.383315   -0.433316
  H     -4.936578   -1.440213    1.329946
  H     -5.133529   -2.913514    0.349625
