47
  Isotropic shielding for P: 227.178 ppm
  C     -0.503576   -2.973734   -2.937712
  C     -0.287894   -2.479066   -1.497564
  C     -0.463238   -0.953323   -1.382387
  P     -0.177976   -0.209795    0.267442
  N     -0.207717    1.339208    0.316753
  Si    -1.333863    2.603183    0.076107
  C     -1.996822    2.615027   -1.699683
  C     -2.814283    2.447908    1.249199
  C     -0.462183    4.246364    0.407388
  O      1.283427   -0.832818    0.737924
  C      2.459233   -0.729314   -0.005127
  C      3.339427   -1.815390    0.072756
  C      4.547824   -1.774793   -0.628512
  C      4.875689   -0.659057   -1.410038
  C      3.988034    0.420872   -1.476163
  C      2.778016    0.398824   -0.771764
  C     -1.241389   -1.088728    1.463186
  C     -1.038246   -0.632234    2.920182
  C     -2.023949   -1.317327    3.880232
  H      0.217295   -2.508668   -3.624239
  H     -1.513506   -2.725565   -3.292792
  H     -0.379713   -4.062815   -3.003528
  H     -0.995818   -2.985484   -0.827284
  H      0.718657   -2.759743   -1.160356
  H     -1.481690   -0.652944   -1.670072
  H      0.217840   -0.431376   -2.069270
  H     -2.553593    1.692651   -1.918400
  H     -2.674412    3.464489   -1.869683
  H     -1.173983    2.688558   -2.424630
  H     -3.532928    3.267045    1.100555
  H     -3.346515    1.500142    1.084517
  H     -2.489194    2.469739    2.298600
  H     -1.145712    5.097014    0.273669
  H      0.386242    4.383138   -0.277992
  H     -0.072860    4.282533    1.434626
  H      3.065873   -2.677561    0.677551
  H      5.231240   -2.620281   -0.567042
  H      5.815814   -0.630754   -1.957683
  H      4.237302    1.296066   -2.074377
  H      2.091829    1.239886   -0.805547
  H     -2.274934   -0.889965    1.140857
  H     -1.070020   -2.169171    1.365547
  H     -1.159010    0.456975    2.979161
  H     -0.006647   -0.851402    3.228391
  H     -3.062993   -1.082159    3.610342
  H     -1.860150   -0.985962    4.914246
  H     -1.909234   -2.409993    3.853116
