49
  Isotropic shielding for P: 218.205 ppm
  C     -1.166193   -3.321104   -0.790451
  Si    -2.470010   -2.521917    0.297286
  O     -1.890368   -1.014542    0.841155
  P     -1.282064    0.236754    0.023333
  O     -1.579252    0.232738   -1.449423
  C      0.523059    0.135384    0.460054
  N      1.410332    0.559071   -0.621113
  C      1.596434   -0.471335   -1.668664
  C      2.509244   -1.637295   -1.235109
  C      3.869101   -1.109422   -0.738366
  C      3.671519   -0.037602    0.351076
  C      2.714543    1.067199   -0.143580
  C     -2.063718    1.641257    0.903810
  C     -1.900280    3.008572    0.202009
  C     -0.497780    3.546315    0.225066
  C      0.326093    3.745722   -0.845760
  O      1.544955    4.252661   -0.440342
  C      1.481265    4.366549    0.933197
  C      0.263603    3.948282    1.384448
  C     -2.751008   -3.500365    1.871889
  C     -4.068717   -2.233742   -0.639283
  H     -1.466293   -4.343383   -1.060657
  H     -1.024299   -2.750255   -1.716498
  H     -0.199484   -3.377794   -0.272677
  H      0.693125   -0.897019    0.816811
  H      0.670024    0.794104    1.324739
  H      0.609320   -0.832181   -1.973971
  H      2.044809    0.030602   -2.540724
  H      2.643691   -2.326805   -2.081184
  H      2.021891   -2.213748   -0.434205
  H      4.490801   -1.934196   -0.361794
  H      4.413970   -0.662751   -1.586834
  H      4.635127    0.411728    0.633439
  H      3.258697   -0.503652    1.259535
  H      2.527634    1.806467    0.643251
  H      3.183415    1.599777   -0.985897
  H     -3.129741    1.379641    0.961645
  H     -1.679053    1.669279    1.932333
  H     -2.573397    3.722302    0.699593
  H     -2.242980    2.920665   -0.836488
  H      0.214414    3.571116   -1.907105
  H      2.367340    4.757478    1.415331
  H     -0.065897    3.930895    2.417049
  H     -1.812566   -3.635081    2.426691
  H     -3.468108   -2.990399    2.529412
  H     -3.153469   -4.496113    1.638909
  H     -3.888930   -1.603025   -1.519113
  H     -4.812280   -1.733978   -0.003457
  H     -4.498414   -3.186749   -0.978864
