26
  Isotropic shielding for P: 242.952 ppm
  C      2.572841   -1.879143    0.135787
  C      2.145050   -0.422200    0.063740
  O      0.786858   -0.314030   -0.512203
  P     -0.490450   -0.202697    0.457734
  O     -0.512103   -1.126431    1.631058
  C     -1.845756   -0.463481   -0.726850
  C     -1.900319   -1.874876   -1.336934
  O     -2.077149   -2.037032   -2.550294
  N     -1.786742   -2.897844   -0.451498
  O     -0.568280    1.319800    0.969354
  C     -0.426375    2.468740    0.054053
  C     -0.071974    3.687724    0.886882
  H      1.926517   -2.441065    0.819335
  H      2.532577   -2.344444   -0.856879
  H      3.606236   -1.937529    0.504110
  H      2.156334    0.054831    1.051314
  H      2.780221    0.158385   -0.613268
  H     -1.776279    0.258793   -1.545680
  H     -2.776252   -0.272111   -0.173681
  H     -1.515667   -2.721828    0.514375
  H     -1.783179   -3.850427   -0.801434
  H     -1.381934    2.600748   -0.469223
  H      0.354741    2.238404   -0.680059
  H      0.883850    3.541925    1.404919
  H     -0.850884    3.892554    1.631646
  H      0.018117    4.563138    0.230094
