38
  Isotropic shielding for P: 253.165 ppm
  C      4.128206   -0.534676    3.388322
  O      3.098433   -0.851150    2.435800
  C      3.602825   -0.795745    1.084133
  C      2.527711   -1.092360    0.148009
  C      1.617104   -1.296569   -0.629067
  C      0.544867   -1.516507   -1.539217
  C      0.672953   -2.488668   -2.552852
  C     -0.357962   -2.723746   -3.460915
  C     -1.537923   -1.985609   -3.351269
  C     -1.701693   -1.019197   -2.357839
  C     -0.664677   -0.773210   -1.452504
  P     -0.832228    0.527427   -0.199758
  O      0.172922    1.626978   -0.283321
  O     -0.823904   -0.345083    1.146183
  C     -0.352023    0.226176    2.421935
  C     -1.349512    1.213272    3.011214
  O     -2.361992    1.021079   -0.328854
  C     -2.692234    2.399885   -0.734177
  C     -2.775148    2.531286   -2.247341
  Cl    -2.852999   -2.278501   -4.486105
  H      4.519704    0.483344    3.226285
  H      3.667734   -0.596315    4.379254
  H      4.962588   -1.252913    3.324622
  H      4.010188    0.211566    0.876659
  H      4.431373   -1.517011    0.960650
  H      1.594956   -3.061017   -2.623617
  H     -0.247369   -3.473261   -4.240251
  H     -2.630922   -0.464681   -2.286592
  H     -0.220445   -0.648844    3.065605
  H      0.627437    0.683612    2.247710
  H     -2.338035    0.751752    3.126183
  H     -1.447469    2.106976    2.383140
  H     -0.997604    1.530254    4.002555
  H     -3.658144    2.597261   -0.257632
  H     -1.940341    3.075073   -0.312440
  H     -3.068296    3.558285   -2.504928
  H     -1.804791    2.324362   -2.715241
  H     -3.523588    1.846179   -2.664330
