33
  Isotropic shielding for P: 167.253 ppm
  C     -1.865146    2.407642    0.380371
  C     -1.486273    0.920678    0.280756
  C     -2.742477    0.030545    0.184680
  C     -2.465861   -1.456301   -0.070080
  C     -1.956743   -1.786856   -1.469868
  O     -1.539068   -2.016983    0.969294
  P     -0.212471   -1.263050    1.466156
  S      0.497977   -2.064414    3.093002
  C     -0.638290    0.503906    1.506322
  O      0.743552   -1.413678    0.131192
  C      1.878721   -0.642131   -0.145359
  C      2.755077   -0.193528    0.848164
  C      3.875515    0.558574    0.474105
  C      4.123815    0.851234   -0.871368
  C      3.240771    0.385052   -1.854050
  C      2.114029   -0.360508   -1.495485
  H     -0.968247    3.035104    0.464501
  H     -2.493022    2.590286    1.263836
  H     -2.425416    2.726427   -0.508500
  H     -0.878927    0.783808   -0.625017
  H     -3.387307    0.385556   -0.631385
  H     -3.318382    0.132602    1.116391
  H     -3.380848   -2.027128    0.123149
  H     -1.070168   -1.205464   -1.739212
  H     -1.710220   -2.852337   -1.543387
  H     -2.752168   -1.566202   -2.193923
  H      0.289337    1.085022    1.574386
  H     -1.198512    0.666108    2.437450
  H      2.571136   -0.434831    1.891428
  H      4.558696    0.910536    1.245392
  H      4.998862    1.433756   -1.153084
  H      3.424826    0.604273   -2.904496
  H      1.417131   -0.727597   -2.245464
