42
  Isotropic shielding for P: 242.205 ppm
  C      4.790831   -0.522399    0.307933
  C      3.953622   -1.588276   -0.386115
  O      2.599191   -1.102869   -0.704513
  P      1.450468   -1.049564    0.435043
  O      1.566592   -2.091794    1.497522
  C     -0.060278   -1.103073   -0.622272
  N     -1.265503   -0.618903    0.028007
  Si    -2.322080    0.612543   -0.632578
  C     -4.058885   -0.086838   -0.890770
  C     -1.639193    1.196373   -2.289506
  C     -2.447669    2.068202    0.564897
  C     -1.698842   -1.347359    1.236515
  C     -2.089809   -2.813370    0.986803
  O      1.522793    0.412292    1.119983
  C      1.590805    1.643239    0.323598
  C      1.715653    2.811811    1.285374
  H      5.810718   -0.903467    0.455298
  H      4.375427   -0.267588    1.290178
  H      4.848244    0.389204   -0.299784
  H      3.860174   -2.490730    0.229200
  H      4.376833   -1.861717   -1.358365
  H      0.160949   -0.503342   -1.511341
  H     -0.130896   -2.150990   -0.964298
  H     -4.048065   -0.910339   -1.617757
  H     -4.736622    0.692142   -1.269036
  H     -4.485037   -0.469318    0.046599
  H     -1.581314    0.376028   -3.017505
  H     -0.644363    1.652835   -2.207669
  H     -2.317433    1.957702   -2.700461
  H     -2.790559    1.738418    1.555389
  H     -3.163524    2.817325    0.196935
  H     -1.475251    2.561003    0.695619
  H     -0.910845   -1.309416    2.004649
  H     -2.560924   -0.813621    1.658186
  H     -1.236511   -3.400749    0.625963
  H     -2.435586   -3.274383    1.922124
  H     -2.897089   -2.883292    0.246097
  H      2.454491    1.578346   -0.349253
  H      0.679386    1.724725   -0.279498
  H      1.763916    3.750312    0.717290
  H      0.849090    2.857031    1.956414
  H      2.626894    2.723766    1.889698
