59
  Isotropic shielding for P: 219.868 ppm
  C      4.578529   -3.196490   -0.890464
  C      4.193067   -2.250133    0.252183
  N      4.231353   -0.825435   -0.157536
  S      2.820978   -0.037504   -0.476777
  O      1.901144   -1.010575   -1.068094
  O      3.146650    1.196801   -1.191521
  C      2.122886    0.441212    1.137816
  C      0.908674    1.379482    1.066832
  P     -0.605439    0.838973    0.150724
  O     -0.550747    1.094603   -1.326945
  O     -1.753088    1.688475    0.905975
  Si    -2.540664    3.134509    0.460582
  C     -3.590767    2.830470   -1.061690
  C     -1.238552    4.448918    0.141745
  C     -3.594310    3.551155    1.954975
  C     -0.969946   -0.909648    0.678547
  N     -2.040532   -1.612476   -0.008676
  C     -1.680684   -2.067732   -1.375676
  C     -2.930676   -2.570498   -2.129236
  C     -3.951548   -3.178662   -1.154766
  C     -4.452701   -2.096830   -0.161624
  C     -3.379592   -1.007456    0.073615
  C      5.520536   -0.103542   -0.068534
  C      5.898829    0.349363    1.348148
  H      3.861449   -3.111519   -1.714979
  H      5.580738   -2.966494   -1.274041
  H      4.581547   -4.235266   -0.533178
  H      4.876005   -2.369464    1.103869
  H      3.188091   -2.489051    0.614940
  H      2.941804    0.939640    1.667500
  H      1.897281   -0.497148    1.656174
  H      0.592392    1.584223    2.098129
  H      1.196138    2.338995    0.617469
  H     -4.107357    3.754413   -1.358645
  H     -4.351350    2.061693   -0.872395
  H     -2.966346    2.496902   -1.899425
  H     -1.714928    5.408772   -0.103166
  H     -0.604686    4.601859    1.025706
  H     -0.593334    4.165756   -0.699992
  H     -4.312474    2.747013    2.165287
  H     -2.973044    3.699025    2.848645
  H     -4.162694    4.475339    1.779550
  H     -1.183093   -0.857703    1.757383
  H     -0.038515   -1.473063    0.542076
  H     -0.949942   -2.883671   -1.264062
  H     -1.193787   -1.267619   -1.955401
  H     -3.400422   -1.735062   -2.668718
  H     -2.622561   -3.300732   -2.889018
  H     -3.474900   -4.000418   -0.601504
  H     -4.798145   -3.614160   -1.702122
  H     -5.362092   -1.616001   -0.550077
  H     -4.720529   -2.567531    0.794074
  H     -3.495071   -0.562576    1.068765
  H     -3.505661   -0.184796   -0.654146
  H      6.283825   -0.785968   -0.464859
  H      5.474154    0.751982   -0.747793
  H      5.209437    1.117548    1.719370
  H      5.894966   -0.490768    2.054349
  H      6.909505    0.778871    1.340630
