34
  Isotropic shielding for P: 76.889 ppm
  O     -3.945169   -1.679243   -0.153930
  P     -2.485006   -2.473662   -0.393150
  C     -1.476425   -1.286317    0.664588
  C     -1.757476    0.171932    0.515490
  C     -2.066251    1.140782    1.435597
  C     -2.206326    2.375851    0.717038
  C     -1.980730    2.081691   -0.597457
  O     -1.712409    0.739749   -0.746782
  N     -0.062459   -1.735313    0.609541
  C      0.789693   -1.200088   -0.494160
  C      1.540261    0.070220   -0.101646
  C      2.393389    0.089136    1.016042
  C      3.076142    1.253729    1.379802
  C      2.923959    2.423895    0.624017
  C      2.087580    2.414114   -0.497345
  C      1.403655    1.245663   -0.854159
  C      1.754644   -2.304641   -0.964988
  O     -2.028388   -1.944290   -1.918266
  H     -4.687465   -2.267056   -0.388506
  H     -1.830557   -1.545477    1.673171
  H     -2.179698    0.986244    2.502045
  H     -2.444681    3.351035    1.124677
  H     -1.966198    2.668748   -1.505884
  H      0.371840   -1.511412    1.505012
  H      0.126804   -0.951047   -1.326651
  H      2.530774   -0.813317    1.612052
  H      3.729706    1.248439    2.251260
  H      3.453996    3.332166    0.906844
  H      1.961835    3.317550   -1.092906
  H      0.749847    1.246877   -1.723672
  H      2.381481   -1.946929   -1.792708
  H      2.415157   -2.621814   -0.146985
  H      1.182860   -3.177959   -1.302270
  H     -2.044390   -2.699155   -2.535912
