40
  Isotropic shielding for P: 245.972 ppm
  C     -3.160619    2.943075   -0.879811
  C     -1.937426    2.770846    0.007107
  O     -1.834218    1.375817    0.476112
  P     -0.902164    0.314915   -0.305117
  O     -0.734864    0.595921   -1.760399
  C      0.685152    0.259766    0.658261
  C      0.483794   -0.057289    2.164706
  C      1.464705    0.921104    2.839188
  C      1.333786    2.157315    1.951668
  O      1.149800    1.641239    0.598145
  C      1.676221   -0.666292   -0.038254
  C      1.507082   -2.060777    0.007999
  C      2.398571   -2.905561   -0.658499
  C      3.474949   -2.379868   -1.384342
  C      3.614749   -0.997136   -1.415218
  C      2.744449   -0.127970   -0.767853
  F      4.666033   -0.457347   -2.122191
  O     -1.569633   -1.087543    0.098095
  C     -2.731615   -1.603255   -0.654788
  C     -2.274940   -2.541852   -1.760557
  H     -4.071927    2.635497   -0.351379
  H     -3.264018    4.000439   -1.160387
  H     -3.061286    2.348956   -1.795592
  H     -2.013677    3.366538    0.923345
  H     -1.014949    3.042939   -0.515971
  H      0.691823   -1.105762    2.389758
  H     -0.543358    0.165926    2.473441
  H      2.488955    0.528433    2.803305
  H      1.202316    1.123235    3.883616
  H      2.223958    2.796049    1.934618
  H      0.457003    2.763087    2.227139
  H      0.671785   -2.488518    0.555140
  H      2.258088   -3.984006   -0.614096
  H      4.182334   -3.017291   -1.909467
  H      2.893072    0.945409   -0.826995
  H     -3.307418   -0.757717   -1.050486
  H     -3.339737   -2.119775    0.095189
  H     -1.670245   -2.005941   -2.500506
  H     -3.154131   -2.964439   -2.266147
  H     -1.682703   -3.368169   -1.348475
