29
  Isotropic shielding for P: 248.074 ppm
  O      3.315585   -0.652563   -1.365787
  C      2.538036   -1.130924   -0.230863
  P      3.490012   -0.526884    1.234506
  O      2.999975   -0.983872    2.557290
  O      3.482355    1.090208    1.146913
  O      5.013339   -1.007822    0.950597
  C      1.102609   -0.674212   -0.220014
  C      0.095929   -1.517016    0.275300
  C     -1.231256   -1.102476    0.351856
  C     -1.619044    0.191739   -0.088601
  C     -0.592158    1.042065   -0.582603
  C      0.730424    0.613046   -0.640287
  N     -2.940526    0.603124   -0.051611
  C     -3.267389    2.008350   -0.300366
  C     -3.931753   -0.209666    0.655455
  H      2.841325   -0.910268   -2.179568
  H      2.578612   -2.230402   -0.172143
  H      3.795444    1.438041    0.287715
  H      5.250465   -0.939485    0.001935
  H      0.356132   -2.518021    0.619278
  H     -1.969378   -1.790820    0.750538
  H     -0.827176    2.046494   -0.919637
  H      1.487110    1.294499   -1.023878
  H     -4.352895    2.129717   -0.261649
  H     -2.811593    2.683416    0.444546
  H     -2.927198    2.320691   -1.296417
  H     -4.917104    0.245941    0.527659
  H     -3.972184   -1.225393    0.241504
  H     -3.717795   -0.287802    1.735634
