26
  Isotropic shielding for P: 301.575 ppm
  C     -1.508935    1.226763    2.216777
  C     -1.888707    0.045064    1.338769
  O     -0.682552   -0.244125    0.481793
  P     -0.837198   -0.527088   -1.070132
  O     -1.837838   -1.516483   -1.525151
  C     -1.256410    1.103172   -1.732130
  N     -1.546410    2.146217   -2.157130
  O      0.630919   -0.789183   -1.578019
  C      1.810546    0.072652   -1.199240
  C      2.526330    0.404815   -2.498704
  C      2.643715   -0.710162   -0.195937
  C     -2.232273   -1.228595    2.096664
  H     -2.358233    1.490627    2.859754
  H     -0.654336    0.971421    2.856218
  H     -1.251021    2.099955    1.606524
  H     -2.709315    0.319146    0.662949
  H      1.411435    0.984102   -0.737607
  H      3.393630    1.042144   -2.283690
  H      2.879712   -0.511176   -2.988817
  H      1.861730    0.943064   -3.184196
  H      3.514151   -0.110133    0.099740
  H      3.001507   -1.646698   -0.641995
  H      2.060365   -0.940850    0.702084
  H     -1.395801   -1.530735    2.739576
  H     -2.463758   -2.044339    1.402932
  H     -3.111453   -1.049576    2.729065
