32
  Isotropic shielding for P: 192.449 ppm
  C     -3.300474   -1.398412   -2.400989
  C     -3.101183   -1.559839   -0.904849
  O     -1.757022   -1.056816   -0.572895
  P     -1.159036   -1.208333    0.922951
  S     -1.269025   -2.975156    1.735976
  N      0.403690   -0.612832    0.798613
  C      1.067298   -0.544878   -0.303889
  C      2.456421   -0.083528   -0.359228
  C      3.106121   -0.023178   -1.605993
  C      4.431309    0.410556   -1.686888
  C      5.120993    0.786882   -0.530302
  C      4.462948    0.721671    0.706138
  C      3.145971    0.293772    0.810752
  Cl     5.335993    1.195932    2.164470
  O     -1.926790   -0.118296    1.825336
  C     -1.968863    1.300851    1.414617
  C     -2.732784    2.063577    2.481912
  H     -2.554860   -1.979013   -2.958340
  H     -3.224061   -0.344959   -2.697815
  H     -4.298902   -1.763809   -2.675411
  H     -3.158782   -2.610143   -0.594267
  H     -3.834545   -0.978953   -0.330648
  H      0.626186   -0.833581   -1.268738
  H      2.567582   -0.319088   -2.504799
  H      4.935602    0.456960   -2.649870
  H      6.152856    1.125045   -0.581386
  H      2.644717    0.243630    1.773198
  H     -2.462756    1.362272    0.437234
  H     -0.937280    1.661101    1.317076
  H     -2.781045    3.125476    2.206439
  H     -3.757380    1.683216    2.576861
  H     -2.232800    1.979869    3.454634
