32
  Isotropic shielding for P: 234.259 ppm
  O      3.862800    2.013745    2.025057
  N      4.472518    1.163614    1.351862
  O      5.681905    0.910391    1.492056
  C      3.714580    0.407419    0.328021
  C      4.380496   -0.556274   -0.434124
  C      3.649193   -1.254943   -1.396040
  C      2.287227   -0.993949   -1.581364
  C      1.632602   -0.019684   -0.809623
  C      2.358253    0.688748    0.154889
  C      0.147351    0.240724   -0.959332
  P     -0.836283   -0.935772    0.111997
  O     -0.850869   -2.283281   -0.546958
  C     -2.459731   -0.203208    0.383453
  C     -3.568145   -0.770312   -0.266308
  C     -4.836100   -0.203785   -0.103363
  C     -4.998923    0.928162    0.703684
  C     -3.893599    1.497236    1.350386
  C     -2.624205    0.936728    1.190507
  O     -0.192245   -0.845932    1.599366
  O     -0.346266    0.100133   -2.301976
  H      5.437309   -0.744119   -0.275715
  H      4.143774   -2.009286   -2.004146
  H      1.734190   -1.546703   -2.336474
  H      1.881778    1.451441    0.763622
  H     -0.080234    1.265218   -0.641050
  H     -3.434211   -1.653510   -0.886935
  H     -5.694925   -0.646095   -0.604978
  H     -5.986887    1.367923    0.830202
  H     -4.021725    2.375858    1.980131
  H     -1.768487    1.378688    1.696565
  H      0.715246   -1.207440    1.653813
  H     -0.506491   -0.851636   -2.467226
