33
  Isotropic shielding for P: 261.147 ppm
  C     -3.807713    1.711909   -1.934534
  O     -2.739998    1.395870   -0.982051
  P     -3.000217    0.369595    0.215470
  O     -4.113883    0.655714    1.160131
  C     -1.368523    0.333531    1.004376
  C     -1.188242    0.433091    2.320176
  O     -0.296022    0.063590    0.125484
  C      0.473664    1.132825   -0.311489
  O      0.289146    2.278244    0.036112
  C      1.581758    0.632263   -1.221995
  C      2.720281    0.062901   -0.385934
  C      3.709304    0.913578    0.132108
  C      4.738621    0.401988    0.929943
  C      4.788302   -0.966936    1.220467
  C      3.803782   -1.820722    0.707784
  C      2.774801   -1.307453   -0.089262
  O     -3.128762   -1.026489   -0.584879
  C     -3.564402   -2.223808    0.133940
  H     -3.413323    2.510331   -2.566869
  H     -4.698986    2.056926   -1.399666
  H     -4.040981    0.828248   -2.538100
  H     -2.041945    0.587341    2.974243
  H     -0.195260    0.364468    2.761035
  H      1.925692    1.484954   -1.815697
  H      1.178584   -0.136156   -1.890897
  H      3.672998    1.979017   -0.092254
  H      5.502510    1.071838    1.321857
  H      5.590553   -1.366034    1.839050
  H      3.838067   -2.887114    0.925918
  H      2.009507   -1.973311   -0.485718
  H     -4.528493   -2.042686    0.619940
  H     -2.812288   -2.509118    0.879623
  H     -3.658735   -3.008295   -0.620711
