50
  Isotropic shielding for P: 247.553 ppm
  C      5.404242    0.875176    0.054324
  C      4.485595   -0.017730   -0.797476
  C      4.037241   -1.315262   -0.095079
  C      3.252144   -1.114981    1.218655
  C      1.968478   -0.262909    1.132421
  C      0.842282   -0.876732    0.280034
  P     -0.797862   -0.113256    0.678110
  O     -1.176848   -0.233230    2.119155
  O     -1.870124   -0.696519   -0.372168
  C     -2.757348   -1.889129   -0.175860
  C     -3.303739   -2.155666   -1.581574
  C     -3.878391   -1.510264    0.798199
  C     -1.936404   -3.079988    0.331883
  O     -0.522410    1.358942    0.106692
  C     -1.492286    2.464345   -0.184173
  C     -2.688671    2.409686    0.772491
  C     -1.924279    2.313275   -1.646574
  C     -0.668499    3.736805    0.032611
  O      1.089167   -0.830439   -1.142642
  H      5.745678    1.749315   -0.516378
  H      6.295064    0.321535    0.385181
  H      4.892014    1.245587    0.952006
  H      5.009241   -0.291546   -1.725942
  H      3.601611    0.557537   -1.108353
  H      3.430432   -1.903168   -0.795831
  H      4.930560   -1.919345    0.131962
  H      2.986324   -2.103680    1.623970
  H      3.910276   -0.649934    1.967179
  H      2.189369    0.742345    0.747515
  H      1.580693   -0.123814    2.151299
  H      0.740938   -1.943297    0.521536
  H     -3.996453   -3.006053   -1.555753
  H     -3.844280   -1.277794   -1.955543
  H     -2.486745   -2.389656   -2.274678
  H     -3.470226   -1.267802    1.783991
  H     -4.574941   -2.352572    0.898159
  H     -4.435592   -0.644273    0.421085
  H     -1.117443   -3.308740   -0.360285
  H     -1.524298   -2.883459    1.328268
  H     -2.584407   -3.962609    0.401177
  H     -3.334884    3.274800    0.577726
  H     -2.359452    2.447999    1.816467
  H     -3.280779    1.501824    0.620764
  H     -2.481175    1.382565   -1.792775
  H     -2.567258    3.156515   -1.929753
  H     -1.047874    2.309472   -2.306253
  H     -1.278154    4.618722   -0.200138
  H      0.213374    3.740830   -0.619571
  H     -0.336862    3.806154    1.075582
  H      1.132865    0.110420   -1.399741
