41
  Isotropic shielding for P: 238.538 ppm
  C      2.375746   -3.160851    1.089028
  C      2.512757   -1.674195    0.816390
  O      1.155018   -1.127563    0.616837
  P      0.916076    0.450189    0.527155
  O      1.402192    1.266418    1.689459
  C     -0.908296    0.598393    0.319515
  C     -1.638535   -0.004926    1.499550
  C     -1.624874    0.518643    2.779033
  N     -0.981393    1.596693    3.284436
  O     -2.436861   -0.151702    3.648871
  N     -3.139727   -1.138995    2.832133
  C     -2.508581   -1.150761    1.531200
  O     -2.810559   -2.017028    0.701961
  C     -1.402816    0.181266   -1.057401
  C     -2.149203    1.097080   -1.810672
  C     -2.616863    0.776240   -3.089749
  C     -2.321781   -0.481460   -3.614191
  C     -1.577279   -1.414121   -2.887816
  C     -1.123778   -1.076540   -1.612020
  Cl    -2.898342   -0.903656   -5.232064
  O      1.608685    0.830001   -0.873768
  C      1.944211    2.231750   -1.194173
  C      3.421273    2.489739   -0.945820
  H      1.781540   -3.339132    1.993607
  H      3.373208   -3.595414    1.237298
  H      1.897789   -3.671660    0.244124
  H      2.976062   -1.146656    1.658933
  H      3.091176   -1.477186   -0.094240
  H     -1.039449    1.691040    0.387246
  H     -1.022774    1.719911    4.292851
  H     -0.072176    1.794645    2.849002
  H     -3.068597   -2.022440    3.347313
  H     -2.374910    2.078962   -1.396470
  H     -3.196159    1.493561   -3.665432
  H     -1.357866   -2.390959   -3.311295
  H     -0.550653   -1.803648   -1.046387
  H      1.680386    2.346296   -2.250860
  H      1.312576    2.902016   -0.598896
  H      3.663170    2.378719    0.117606
  H      3.670903    3.513786   -1.255708
  H      4.038903    1.793243   -1.526586
