33
  Isotropic shielding for P: 237.896 ppm
  O      4.307694   -2.241599   -0.498562
  C      3.434787   -1.327270   -1.200587
  C      3.329607    0.014000   -0.483322
  O      2.885282   -0.146665    0.891201
  C      1.497002   -0.482015    1.063107
  C      0.533989    0.704491    0.779510
  P     -0.387983    0.611665   -0.787943
  O      0.449678    0.631283   -2.018126
  O     -1.385729    1.880131   -0.792841
  C     -2.532075    2.039098    0.110715
  C     -3.024017    3.471530   -0.008210
  O     -1.273485   -0.735155   -0.752130
  C     -2.018448   -1.283609    0.389900
  C     -1.782937   -2.784118    0.445029
  H      4.065861   -2.176679    0.445811
  H      3.869523   -1.171717   -2.196272
  H      2.437356   -1.775646   -1.336038
  H      2.661628    0.685453   -1.039301
  H      4.321819    0.473745   -0.398202
  H      1.413091   -0.766082    2.117545
  H      1.229848   -1.362980    0.461917
  H     -0.182444    0.804224    1.604838
  H      1.101106    1.644146    0.752345
  H     -2.220710    1.812334    1.139126
  H     -3.307455    1.324475   -0.191339
  H     -3.899010    3.612863    0.640030
  H     -3.317314    3.696390   -1.041026
  H     -2.244469    4.178964    0.300176
  H     -1.695386   -0.796493    1.317458
  H     -3.076541   -1.049004    0.224942
  H     -0.725312   -3.009066    0.628391
  H     -2.377983   -3.217767    1.260039
  H     -2.086874   -3.258525   -0.496082
