38
  Isotropic shielding for P: 237.080 ppm
  O      0.612214    3.662426    0.743423
  P      0.812974    2.845033   -0.655974
  O      2.234235    2.828027   -1.113295
  C      0.011628    1.179678   -0.438446
  N      0.882439    0.195601    0.180590
  C      1.489551    0.530434    1.476122
  C      1.798223   -0.769721    2.259604
  C      2.113638   -1.944368    1.299914
  C      2.773243   -1.413249    0.017288
  C      1.807279   -0.484156   -0.751618
  C     -1.366564    1.295343    0.274506
  C     -2.134260   -0.004044    0.188639
  C     -2.964810   -0.267965   -0.912631
  C     -3.637817   -1.489595   -1.029326
  C     -3.486569   -2.470806   -0.041631
  C     -2.663513   -2.217508    1.062683
  C     -1.993731   -0.993881    1.174355
  O     -0.254794    3.579340   -1.630286
  H      1.451099    3.721241    1.242253
  H     -0.173929    0.845522   -1.469794
  H      0.791412    1.153097    2.044232
  H      2.414498    1.127081    1.345901
  H      0.943413   -1.031663    2.897261
  H      2.652756   -0.583942    2.925563
  H      1.185130   -2.470721    1.038237
  H      2.765985   -2.674803    1.796733
  H      3.687967   -0.863688    0.283737
  H      3.082127   -2.234551   -0.642386
  H      2.385886    0.239195   -1.352523
  H      1.189474   -1.072613   -1.447004
  H     -1.939004    2.102041   -0.199126
  H     -1.210547    1.580182    1.321415
  H     -3.086141    0.491459   -1.685616
  H     -4.280921   -1.674165   -1.888896
  H     -4.009141   -3.422168   -0.129644
  H     -2.542633   -2.973557    1.837501
  H     -1.355293   -0.804061    2.034951
  H      0.014599    4.485427   -1.885711
