49
  Isotropic shielding for P: 261.941 ppm
  O     -0.674304   -1.643690    3.880756
  C     -0.588442   -1.364135    2.683584
  O     -1.697965   -1.792473    1.913189
  C     -1.899051   -1.404982    0.526329
  C     -2.598420   -0.056933    0.414158
  C     -2.420100    0.967056    1.354503
  C     -3.045847    2.206101    1.186594
  C     -3.873697    2.436960    0.083626
  C     -4.090440    1.408076   -0.840630
  C     -3.462788    0.171064   -0.669746
  C     -0.589593   -1.574084   -0.330166
  P      0.660117   -0.508047    0.530689
  N      0.451598   -0.722120    2.112705
  C      2.330861   -1.052860    0.078720
  C      3.035455   -1.867339    0.979468
  C      4.310713   -2.334030    0.647702
  C      4.884860   -1.995378   -0.583056
  C      4.184182   -1.181890   -1.482314
  C      2.912091   -0.706886   -1.152892
  C      0.563329    1.263514    0.123686
  C      0.438929    1.766315   -1.182101
  C      0.370848    3.145931   -1.397933
  C      0.444094    4.033057   -0.318799
  C      0.591913    3.536372    0.981156
  C      0.648634    2.159662    1.203572
  C     -0.102642   -3.041570   -0.205452
  C     -0.834187   -1.263857   -1.814928
  H     -2.589164   -2.171361    0.147451
  H     -1.790551    0.811309    2.223956
  H     -2.882979    2.991710    1.922272
  H     -4.359692    3.402642   -0.045999
  H     -4.754461    1.564387   -1.689461
  H     -3.654031   -0.628661   -1.383407
  H      2.585115   -2.119380    1.936464
  H      4.855643   -2.960380    1.351815
  H      5.878276   -2.359562   -0.839718
  H      4.630217   -0.911182   -2.437679
  H      2.386245   -0.065019   -1.854686
  H      0.388157    1.100748   -2.036996
  H      0.260011    3.524992   -2.412319
  H      0.387918    5.106617   -0.490804
  H      0.653418    4.220735    1.825462
  H      0.739748    1.770333    2.214140
  H     -0.909557   -3.701978   -0.549576
  H      0.151641   -3.324016    0.820264
  H      0.773459   -3.210562   -0.839847
  H     -1.235670   -0.263160   -1.982482
  H     -1.558544   -1.986875   -2.214572
  H      0.094950   -1.375171   -2.386594
