48
  Isotropic shielding for P: 204.924 ppm
  C     -1.119427   -2.161404   -3.144346
  C     -1.761031   -2.092429   -1.750926
  N     -1.476944   -0.852768   -1.008831
  P     -0.548156   -0.778251    0.388691
  S     -0.099019   -2.566963    1.126987
  C     -1.584562    0.179768    1.546784
  C     -2.899411   -0.267256    1.767369
  C     -3.730182    0.395874    2.672311
  C     -3.255943    1.516231    3.369489
  C     -1.948489    1.964611    3.154730
  C     -1.114137    1.300046    2.247198
  N      0.765070    0.240219    0.215736
  C      1.740439    0.034383   -0.623163
  N      1.773768   -0.929934   -1.600059
  C      2.835061   -1.027939   -2.382126
  C      3.973350   -0.195796   -2.281147
  C      3.952693    0.758308   -1.292806
  N      2.872641    0.882431   -0.480742
  C      2.854530    1.850252    0.620559
  C      2.739953    1.191248    1.998268
  O      2.259534    1.761845    2.961758
  O      3.290428   -0.037758    2.015922
  C      3.160360   -0.781440    3.269441
  C     -1.886351    0.427692   -1.621089
  C     -3.400101    0.539131   -1.847586
  H     -1.354473   -3.130499   -3.605462
  H     -0.031671   -2.057877   -3.069624
  H     -1.499183   -1.376742   -3.811735
  H     -2.852138   -2.211752   -1.838291
  H     -1.399415   -2.921074   -1.134585
  H     -3.269780   -1.136427    1.227288
  H     -4.747389    0.041990    2.833730
  H     -3.903748    2.034546    4.074977
  H     -1.573360    2.834141    3.692835
  H     -0.100083    1.649242    2.085474
  H      2.802242   -1.812591   -3.141890
  H      4.828975   -0.304038   -2.938926
  H      4.774839    1.444125   -1.106262
  H      3.782764    2.432194    0.584541
  H      2.002634    2.526532    0.509056
  H      3.663616   -1.732358    3.086795
  H      2.099963   -0.940576    3.487961
  H      3.640762   -0.231296    4.084490
  H     -1.350867    0.576004   -2.572241
  H     -1.561244    1.237350   -0.957389
  H     -3.944274    0.422206   -0.902435
  H     -3.639169    1.525893   -2.266259
  H     -3.763176   -0.219298   -2.551763
