52
  Isotropic shielding for P: 242.154 ppm
  O     -4.412840   -0.921916    0.035123
  C     -3.409164   -0.679971   -0.634514
  C     -3.522509    0.019486   -1.976630
  C     -2.552701    1.197720   -2.205930
  C     -1.057704    0.824905   -2.135438
  C     -0.451461    0.884370   -0.712116
  C     -1.128157    0.023786    0.407386
  C     -2.028004   -1.120653   -0.161468
  C     -1.874393    0.886446    1.474751
  C     -0.957277    1.928709    2.145186
  C     -2.492430    0.002565    2.579150
  P      1.385358    0.665015   -0.880764
  O      1.961037    1.694723   -1.826857
  C      1.718831   -1.034850   -1.468374
  C      1.221056   -2.206305   -0.868944
  C      1.525857   -3.460269   -1.406365
  C      2.330651   -3.560863   -2.547451
  C      2.829267   -2.400943   -3.150539
  C      2.524226   -1.145685   -2.614893
  C      2.099902    0.837049    0.790496
  C      2.436510    2.142860    1.189562
  C      2.952206    2.381959    2.465265
  C      3.141654    1.318163    3.355937
  C      2.824286    0.014268    2.960091
  C      2.308610   -0.226732    1.682058
  H     -3.316522   -0.748512   -2.742287
  H     -4.563157    0.341197   -2.102707
  H     -2.767281    1.599358   -3.205178
  H     -2.770642    2.005646   -1.492565
  H     -0.903040   -0.165587   -2.586770
  H     -0.490152    1.531361   -2.752311
  H     -0.502048    1.939606   -0.409827
  H     -0.339813   -0.495469    0.969042
  H     -1.508033   -1.601302   -0.998932
  H     -2.176124   -1.878426    0.614036
  H     -2.688906    1.427892    0.966119
  H     -0.510080    2.634917    1.438044
  H     -1.535326    2.514979    2.871446
  H     -0.139055    1.436318    2.687082
  H     -1.710646   -0.605893    3.058383
  H     -3.267091   -0.668274    2.197493
  H     -2.944982    0.632592    3.356070
  H      0.593101   -2.158227    0.014516
  H      1.133254   -4.358439   -0.932510
  H      2.566370   -4.538804   -2.964181
  H      3.454119   -2.471506   -4.039451
  H      2.903505   -0.240117   -3.082682
  H      2.294528    2.968335    0.495321
  H      3.206811    3.397483    2.764201
  H      3.542523    1.503888    4.351133
  H      2.981651   -0.818545    3.643557
  H      2.084224   -1.248010    1.388336
