43
  Isotropic shielding for P: 194.420 ppm
  C      4.188213    0.292898    1.172357
  C      3.390681    0.944503    0.014200
  C      3.539331    0.203665   -1.329445
  C      2.949508   -1.227360   -1.304119
  C      1.720762   -1.366898   -0.365808
  C      0.985110   -0.024385   -0.149953
  C      1.918975    1.065255    0.403247
  O      1.509405    1.986908    1.096573
  P     -0.517670   -0.230354    0.929150
  Se    -0.012334   -0.877374    2.910437
  C     -1.462854    1.338643    0.850298
  C     -1.735992    1.945358   -0.387118
  C     -2.480272    3.126786   -0.437171
  C     -2.963253    3.705051    0.743684
  C     -2.697259    3.097137    1.975413
  C     -1.948210    1.917275    2.029296
  C     -1.586437   -1.425421    0.031263
  C     -1.629654   -1.476975   -1.372713
  C     -2.499731   -2.361013   -2.017693
  C     -3.338720   -3.194637   -1.269208
  C     -3.300183   -3.144795    0.128889
  C     -2.425268   -2.267814    0.776473
  H      5.253769    0.271956    0.910035
  H      4.068013    0.872587    2.094873
  H      3.864751   -0.734655    1.370437
  H      3.751181    1.977110   -0.095687
  H      4.599988    0.171406   -1.612004
  H      3.030396    0.796051   -2.103411
  H      3.713129   -1.946425   -0.981982
  H      2.667130   -1.509537   -2.326599
  H      1.024984   -2.108061   -0.772618
  H      2.028996   -1.742680    0.616277
  H      0.634877    0.362851   -1.120959
  H     -1.373594    1.512142   -1.316302
  H     -2.682882    3.595096   -1.399004
  H     -3.543287    4.625504    0.701953
  H     -3.068515    3.542338    2.897033
  H     -1.726960    1.445197    2.984463
  H     -0.986324   -0.842448   -1.976638
  H     -2.518017   -2.399296   -3.105588
  H     -4.014934   -3.882906   -1.773557
  H     -3.946602   -3.793088    0.718066
  H     -2.380046   -2.239700    1.863262
