40
  Isotropic shielding for P: 235.239 ppm
  O     -1.248121   -0.486398   -2.904723
  P      0.227333   -0.122423   -2.327132
  O      1.301056   -1.031587   -2.817931
  C      0.067916   -0.010176   -0.451839
  C     -0.682349    1.280177   -0.052012
  C     -1.907727    1.621059   -0.653762
  C     -2.602925    2.768998   -0.269355
  C     -2.096046    3.600777    0.736719
  C     -0.889200    3.263287    1.353685
  C     -0.190162    2.114264    0.962122
  C     -0.712828   -1.275601   -0.022323
  C     -1.816277   -1.202806    0.838416
  C     -2.499261   -2.361426    1.229679
  C     -2.092959   -3.614422    0.763459
  C     -0.983853   -3.700222   -0.086699
  C     -0.296729   -2.545318   -0.467272
  C      1.501987   -0.019028    0.123598
  C      1.851960   -0.853802    1.193183
  C      3.141494   -0.820246    1.739200
  C      4.104991    0.049548    1.222430
  C      3.762319    0.895976    0.160663
  C      2.474588    0.864716   -0.377293
  O      0.356328    1.420506   -2.784513
  H     -1.421177   -1.448447   -2.898369
  H     -2.329047    0.985484   -1.426484
  H     -3.545456    3.012958   -0.757443
  H     -2.637378    4.496764    1.036160
  H     -0.482585    3.891999    2.144508
  H      0.743612    1.872955    1.459745
  H     -2.151559   -0.241337    1.213989
  H     -3.352818   -2.277473    1.900736
  H     -2.628758   -4.514040    1.061795
  H     -0.646331   -4.669238   -0.451325
  H      0.575310   -2.632486   -1.110638
  H      1.119462   -1.535874    1.613824
  H      3.387368   -1.479253    2.570581
  H      5.109537    0.071579    1.641774
  H      4.499167    1.584462   -0.250323
  H      2.224170    1.545361   -1.186456
  H      0.765046    1.500835   -3.670271
