44
  Isotropic shielding for P: 294.750 ppm
  C      1.460309   -0.990837    1.545447
  N      1.286889   -0.007207    0.472829
  C      0.100928    0.682243    0.215747
  C      0.413625    1.564781   -0.807419
  N      1.729668    1.438614   -1.178624
  C      2.240079    0.472089   -0.403521
  C      3.627069   -0.001259   -0.489213
  C      3.970695   -1.360832   -0.354329
  C      5.302146   -1.771339   -0.469041
  C      6.310739   -0.835789   -0.726444
  C      5.976781    0.517016   -0.876762
  C      4.649012    0.931284   -0.759797
  P     -1.403149    0.448840    1.211360
  C     -2.059317   -1.146696    0.548509
  C     -3.135125   -1.736916    1.236373
  C     -3.682345   -2.946398    0.798654
  C     -3.145204   -3.594161   -0.321727
  C     -2.065530   -3.021231   -1.003542
  C     -1.528142   -1.802109   -0.573876
  C     -2.482961    1.698252    0.385407
  C     -3.195097    1.441885   -0.797099
  C     -3.991035    2.438353   -1.372382
  C     -4.079002    3.701954   -0.775446
  C     -3.372705    3.964706    0.404736
  C     -2.586001    2.964819    0.985783
  H      0.807389   -0.718677    2.381198
  H      1.197492   -1.998715    1.203378
  H      2.498199   -0.981098    1.885476
  H     -0.249200    2.276518   -1.283333
  H      3.196675   -2.106015   -0.190243
  H      5.548980   -2.827079   -0.367787
  H      7.347009   -1.157773   -0.814547
  H      6.754581    1.251426   -1.080182
  H      4.388036    1.981008   -0.872207
  H     -3.546767   -1.244955    2.117841
  H     -4.520206   -3.388130    1.336190
  H     -3.563990   -4.541457   -0.657758
  H     -1.643910   -3.520075   -1.875225
  H     -0.699398   -1.356406   -1.119835
  H     -3.129123    0.465221   -1.271117
  H     -4.540419    2.228314   -2.289072
  H     -4.699125    4.476251   -1.224450
  H     -3.440935    4.943466    0.877225
  H     -2.047715    3.168411    1.911124
