51
  Isotropic shielding for P: 272.156 ppm
  C      1.754962    7.001653    2.401441
  C      1.532659    5.484896    2.507683
  C      0.045876    5.097506    2.415250
  C     -0.197956    3.585647    2.521602
  C      0.195485    2.789008    1.301494
  O      0.546036    3.254953    0.230455
  P      0.127175    0.903406    1.493253
  O      0.750269    0.364539    2.732262
  O      0.838777    0.300129    0.186136
  C      0.293307    0.407715   -1.162017
  C      0.517295   -0.878943   -1.917315
  C     -0.216353   -1.100306   -3.096156
  C     -0.018639   -2.250708   -3.852703
  C      0.923686   -3.186535   -3.414281
  C      1.661372   -2.994079   -2.244516
  C      1.452415   -1.834414   -1.498162
  N      1.136695   -4.415280   -4.205391
  O      0.479858   -4.560877   -5.252190
  O      1.963695   -5.245928   -3.788669
  O     -1.461087    0.675334    1.322969
  C     -2.112619   -0.544396    1.863631
  C     -1.747471   -1.762991    1.056627
  C     -0.757703   -2.646138    1.517965
  C     -0.408394   -3.770238    0.773790
  C     -1.058795   -3.995185   -0.442053
  C     -2.039525   -3.129531   -0.932062
  C     -2.380002   -2.013080   -0.171673
  N     -0.690704   -5.184474   -1.239846
  O      0.174691   -5.951628   -0.784539
  O     -1.258260   -5.355004   -2.334110
  H      1.221596    7.536600    3.200166
  H      2.820474    7.254681    2.481192
  H      1.389544    7.387352    1.439188
  H      1.938063    5.117986    3.463532
  H      2.095897    4.974877    1.713447
  H     -0.376493    5.468039    1.470188
  H     -0.509085    5.592520    3.225079
  H      0.322291    3.146029    3.387640
  H     -1.265226    3.359574    2.692554
  H      0.808141    1.241320   -1.656406
  H     -0.776206    0.643225   -1.118525
  H     -0.955147   -0.368137   -3.418611
  H     -0.586983   -2.433748   -4.758672
  H      2.379470   -3.742990   -1.926910
  H      2.013933   -1.676829   -0.582394
  H     -3.180363   -0.320184    1.797221
  H     -1.818656   -0.652652    2.912058
  H     -0.255748   -2.447496    2.462282
  H      0.354110   -4.460808    1.118677
  H     -2.520516   -3.334693   -1.882217
  H     -3.145537   -1.329618   -0.534565
