61
  Isotropic shielding for P: 259.738 ppm
  C      2.346490    0.412424    2.302587
  N      1.608347    0.175747    1.037197
  P     -0.060883    0.435133    1.125950
  O     -0.502462    0.474182    2.555221
  N     -0.860480   -0.692449    0.196378
  C     -1.187228   -1.954727    0.930658
  C     -2.633991   -1.981145    1.459807
  C     -2.818818   -3.149908    2.461380
  C     -1.978283   -4.399231    2.073963
  C     -1.727284   -4.441092    0.556710
  C     -0.875281   -3.229237    0.100554
  C     -1.679090   -0.385126   -0.983369
  N     -0.274648    1.929326    0.298119
  C     -1.459677    2.642853    0.217699
  O     -2.529811    2.183944    0.627656
  C     -1.363505    4.004218   -0.409616
  C     -0.348588    4.352626   -1.318631
  C     -0.322933    5.627670   -1.891285
  C     -1.303088    6.568389   -1.554006
  C     -2.318041    6.226229   -0.650416
  C     -2.353406    4.948849   -0.088832
  C      2.428962    0.504623   -0.178372
  C      3.823645   -0.164587   -0.118253
  C      3.747349   -1.691097   -0.285632
  C      3.099641   -2.056035   -1.633992
  C      1.721697   -1.387597   -1.783307
  C      1.779586    0.127707   -1.527797
  H      1.645054    0.392815    3.136501
  H      2.857128    1.390060    2.290787
  H      3.096075   -0.371495    2.457666
  H     -0.528029   -1.960586    1.807277
  H     -3.329471   -2.095213    0.616798
  H     -2.864093   -1.024091    1.941324
  H     -3.883888   -3.416380    2.506156
  H     -2.535673   -2.815743    3.469171
  H     -2.484531   -5.314501    2.408943
  H     -1.007337   -4.373786    2.591834
  H     -1.223813   -5.374125    0.269251
  H     -2.694863   -4.434915    0.032785
  H      0.191841   -3.464114    0.206955
  H     -1.052641   -3.045141   -0.965893
  H     -1.654719   -1.233595   -1.677277
  H     -2.723397   -0.169132   -0.722925
  H     -1.272698    0.480492   -1.508814
  H      0.575514    2.433079    0.058639
  H      0.407927    3.626780   -1.611232
  H      0.458843    5.884258   -2.604017
  H     -1.278918    7.562826   -1.996562
  H     -3.081748    6.955575   -0.385951
  H     -3.139980    4.669067    0.607978
  H      2.596408    1.599787   -0.172635
  H      4.409667    0.261750   -0.946698
  H      4.354280    0.106318    0.799976
  H      4.755393   -2.123323   -0.214404
  H      3.155420   -2.121725    0.536266
  H      3.000370   -3.146974   -1.729614
  H      3.763265   -1.725151   -2.449945
  H      1.023565   -1.839273   -1.073881
  H      1.317352   -1.570977   -2.789264
  H      2.402555    0.602114   -2.301633
  H      0.786521    0.573430   -1.631429
