54
  Isotropic shielding for P: 255.592 ppm
  C     -5.249142    0.741701    1.672946
  C     -4.615086    0.671664    0.291578
  O     -3.262339    0.078916    0.369451
  C     -2.240189    0.912781    0.629286
  O     -2.325079    2.119653    0.782187
  C     -0.884922    0.168112    0.729075
  N     -0.957816   -1.269138    0.507207
  C     -1.278735   -2.135814    1.647498
  C     -1.168444   -1.748963   -0.758826
  O     -1.570319   -2.885250   -1.004738
  N     -0.859950   -0.847036   -1.827548
  C     -0.157289    0.341870   -1.686253
  O      0.222586    0.998223   -2.654585
  C      0.117671    0.782191   -0.256662
  P      1.860042    0.427594    0.252689
  O      2.009317    0.468366    1.729111
  O      2.767918    1.438023   -0.614869
  C      2.723843    2.834055   -0.370312
  C      2.054173    3.639241   -1.291076
  C      2.047550    5.024211   -1.088212
  C      2.699698    5.580275    0.019186
  C      3.366084    4.749293    0.928696
  C      3.384414    3.362880    0.738592
  O      2.335596   -0.904270   -0.518936
  C      2.112624   -2.232483   -0.091588
  C      1.750284   -3.140267   -1.085706
  C      1.555557   -4.480744   -0.740331
  C      1.720826   -4.899295    0.584734
  C      2.094591   -3.971672    1.564224
  C      2.301927   -2.627837    1.233918
  C     -1.166139   -1.305249   -3.196692
  H     -5.290111   -0.252379    2.134763
  H     -6.275816    1.119911    1.578340
  H     -4.692703    1.419478    2.330578
  H     -5.153831   -0.009344   -0.373297
  H     -4.531303    1.657910   -0.175142
  H     -0.525056    0.340515    1.749602
  H     -1.022039   -3.165460    1.395048
  H     -2.345969   -2.080999    1.903789
  H     -0.679095   -1.812025    2.503613
  H      0.033668    1.875486   -0.226190
  H      1.549564    3.180148   -2.137500
  H      1.529455    5.666393   -1.798194
  H      2.690708    6.657778    0.172365
  H      3.876223    5.177822    1.789487
  H      3.896661    2.701583    1.432423
  H      1.617653   -2.793093   -2.107327
  H      1.263906   -5.193432   -1.509248
  H      1.562583   -5.942301    0.852070
  H      2.231728   -4.291273    2.595847
  H      2.595979   -1.902360    1.985430
  H     -1.376441   -0.430081   -3.813922
  H     -2.031501   -1.966696   -3.155021
  H     -0.313512   -1.848820   -3.621657
