59
  Isotropic shielding for P: 185.670 ppm
  C      2.146055    0.254739    2.314547
  N      2.654304    0.134386    0.951572
  C      1.756085    0.234456   -0.129697
  C      0.374094    0.307878    0.040129
  C     -0.486976    0.503620   -1.065136
  C      0.061740    0.579569   -2.345502
  C      1.445406    0.462422   -2.533420
  C      2.307317    0.306043   -1.440473
  N      3.702365    0.251513   -1.566844
  C      4.424274   -0.468610   -0.587472
  C      3.876302   -0.533237    0.720884
  C      4.570482   -1.222167    1.722451
  C      5.815714   -1.814729    1.452315
  C      6.352857   -1.750251    0.169670
  C      5.648433   -1.092171   -0.852909
  C      4.320988    0.521043   -2.862629
  P     -2.287413    0.511942   -0.831544
  S     -3.274734    1.015968   -2.473338
  N     -2.497144    1.443631    0.559107
  C     -1.798196    2.739943    0.702140
  C     -2.702267    3.914516    0.321020
  O     -3.928376    3.896214    1.085047
  C     -4.650872    2.666146    0.852009
  C     -3.811234    1.447347    1.243743
  N     -2.774490   -1.012239   -0.288876
  C     -2.255063   -1.581647    0.966376
  C     -3.361720   -2.420622    1.636448
  O     -4.201458   -3.099173    0.669898
  C     -3.489632   -3.359941   -0.551661
  C     -3.162807   -2.045019   -1.283445
  H      2.975914    0.490781    2.986651
  H      1.425656    1.077406    2.355699
  H      1.652025   -0.665126    2.670290
  H     -0.042402    0.249487    1.038123
  H     -0.590308    0.727511   -3.202363
  H      1.846972    0.507032   -3.540879
  H      4.152236   -1.294138    2.721741
  H      6.347566   -2.328582    2.250817
  H      7.312453   -2.212297   -0.054073
  H      6.067317   -1.064098   -1.854179
  H      3.812101    1.367063   -3.333759
  H      4.276617   -0.343719   -3.545026
  H      5.368845    0.793547   -2.707734
  H     -1.486661    2.842115    1.753876
  H     -0.897301    2.746529    0.081173
  H     -2.935036    3.878109   -0.756280
  H     -2.210338    4.866865    0.552929
  H     -5.556003    2.721154    1.468699
  H     -4.937236    2.599850   -0.210206
  H     -3.625717    1.461056    2.329401
  H     -4.351440    0.527142    1.000439
  H     -1.965607   -0.775108    1.644323
  H     -1.356893   -2.192278    0.779235
  H     -4.036088   -1.777396    2.214162
  H     -2.900555   -3.157834    2.316015
  H     -2.575230   -3.940087   -0.344815
  H     -4.147891   -3.975523   -1.174198
  H     -2.358344   -2.235221   -2.015002
  H     -4.038787   -1.685808   -1.831170
