59
  Isotropic shielding for P: 247.627 ppm
  C     -3.971287    5.061998    1.805789
  O     -3.815472    4.461101    0.503981
  C     -2.860250    3.481061    0.359680
  C     -2.752536    2.912605   -0.923155
  C     -1.819288    1.910523   -1.169746
  C     -0.968165    1.451615   -0.149596
  C     -1.076991    2.031165    1.117431
  C     -2.012821    3.038511    1.386285
  C      0.020293    0.327372   -0.388742
  P     -0.771619   -1.345759   -0.229631
  O      0.195918   -2.477401   -0.361686
  O     -1.585395   -1.330135    1.164564
  C     -1.057040   -2.009553    2.374821
  C     -1.394527   -1.114189    3.560772
  C     -1.680584   -3.399066    2.458669
  O     -1.938869   -1.257749   -1.320421
  C     -2.841696   -2.418189   -1.545277
  C     -2.363330   -3.162880   -2.786773
  C     -4.251719   -1.853197   -1.660097
  N      0.667213    0.422151   -1.690130
  C      1.873583    0.017541   -1.823079
  N      2.565868    0.055816   -3.026886
  N      3.891822   -0.255846   -3.048968
  C      4.303520   -0.643010   -1.874932
  S      3.042037   -0.651965   -0.613917
  S      5.930044   -1.247685   -1.612954
  C      6.678556    0.030513   -0.451666
  C      6.473128    1.453676   -0.974487
  C      6.226765   -0.153119    1.000623
  H     -4.247480    4.309201    2.557620
  H     -3.049643    5.572708    2.118916
  H     -4.778845    5.790984    1.698551
  H     -3.411842    3.268913   -1.712812
  H     -1.747415    1.475347   -2.162759
  H     -0.421102    1.695526    1.919453
  H     -2.064726    3.466582    2.382704
  H      0.755817    0.333736    0.438582
  H      0.030867   -2.095635    2.260547
  H     -0.923420   -0.130468    3.455865
  H     -1.032165   -1.576561    4.488064
  H     -2.480690   -0.977064    3.642829
  H     -2.773943   -3.323944    2.526754
  H     -1.418919   -3.994350    1.576656
  H     -1.311329   -3.920228    3.351870
  H     -2.774168   -3.072081   -0.665575
  H     -1.340417   -3.529740   -2.646776
  H     -3.019803   -4.021613   -2.979811
  H     -2.387568   -2.501703   -3.662747
  H     -4.528479   -1.313837   -0.746707
  H     -4.967670   -2.671059   -1.814006
  H     -4.321551   -1.164775   -2.512403
  H      2.141092    0.401220   -3.882765
  H      7.738764   -0.246247   -0.539881
  H      6.826645    1.558735   -2.006391
  H      7.030374    2.157871   -0.340913
  H      5.413668    1.737463   -0.939954
  H      6.811588    0.514144    1.650289
  H      5.168017    0.105115    1.124956
  H      6.376891   -1.184348    1.339472
