59
  Isotropic shielding for P: 274.000 ppm
  C     -4.022898    4.994463    2.020823
  N     -2.807476    4.755154    1.226393
  N     -3.058273    5.225361   -0.127301
  C     -2.481332    4.503279   -1.033559
  C     -1.713446    3.280711   -0.914439
  C     -1.181620    2.589883   -2.002877
  C     -0.555450    1.376448   -1.644695
  C     -0.596661    1.139686   -0.279227
  S     -1.419027    2.418119    0.575399
  P      0.022676   -0.265909    0.667556
  O     -0.285964   -0.088173    2.132981
  C     -0.732359   -1.739068   -0.004735
  C     -0.467588   -2.454482   -1.159696
  C     -1.389758   -3.506827   -1.385650
  C     -2.372428   -3.598181   -0.403221
  S     -2.142828   -2.367822    0.818691
  C     -3.455278   -4.547404   -0.321484
  N     -4.292251   -4.482353    0.681348
  N     -5.276614   -5.384015    0.838492
  C     -6.346370   -4.959789    1.745150
  C     -5.614415   -6.331721   -0.223560
  C      1.750706   -0.373070    0.230154
  C      2.600641   -1.467806    0.331636
  C      3.964006   -1.146213    0.150630
  C      4.181836    0.211494   -0.082316
  S      2.664851    1.078589   -0.089218
  C      5.403571    0.949576   -0.306495
  N      6.549825    0.320315   -0.342742
  N      7.703287    1.001034   -0.459214
  C      8.850612    0.195871   -0.880837
  C      7.723436    2.433409   -0.758287
  C     -1.656466    5.498808    1.783123
  H     -3.840440    4.648474    3.044829
  H     -4.853008    4.420463    1.596153
  H     -4.300395    6.064499    2.043859
  H     -2.624974    4.853889   -2.060434
  H     -1.263560    2.959240   -3.022511
  H     -0.094440    0.695757   -2.354914
  H      0.364874   -2.223748   -1.818402
  H     -1.342136   -4.186369   -2.233113
  H     -3.514327   -5.296667   -1.115816
  H     -5.903912   -4.362144    2.546971
  H     -7.106650   -4.352276    1.224555
  H     -6.832940   -5.843880    2.172266
  H     -5.919655   -5.810803   -1.148441
  H     -4.752584   -6.971550   -0.452826
  H     -6.437931   -6.961879    0.122191
  H      2.238152   -2.469639    0.545819
  H      4.772734   -1.869515    0.192242
  H      5.316187    2.033476   -0.418683
  H      8.739057   -0.809879   -0.466531
  H      8.917327    0.125052   -1.980192
  H      9.773092    0.649237   -0.500632
  H      8.764523    2.763462   -0.797954
  H      7.236814    2.654541   -1.724690
  H      7.204406    2.996516    0.028403
  H     -1.848597    6.586553    1.811543
  H     -0.762320    5.308673    1.181261
  H     -1.476153    5.138952    2.802228
