56
  Isotropic shielding for P: 230.380 ppm
  C     -1.626275    2.050317   -3.246340
  C     -1.801285    1.440791   -1.846341
  C     -0.523382    0.721898   -1.371977
  P     -0.684152   -0.153657    0.231732
  N     -2.009861   -0.926825    0.442614
  Si    -2.818580   -2.297895   -0.178255
  C     -4.550664   -2.362591    0.575083
  C     -1.901170   -3.894709    0.271521
  C     -2.978729   -2.240958   -2.067027
  O     -0.447120    1.019469    1.377565
  C     -1.275918    2.142215    1.473597
  C     -0.735933    3.387656    1.140021
  C     -1.533101    4.531733    1.250748
  C     -2.859102    4.427784    1.689898
  C     -3.382174    3.173746    2.030188
  C     -2.592829    2.022667    1.929440
  C      0.863186   -1.087546    0.495520
  C      2.183020   -0.327634    0.270509
  C      3.415128   -1.182032    0.613927
  C      4.744016   -0.450374    0.367437
  C      5.981671   -1.290278    0.723622
  C      7.305946   -0.552867    0.467366
  H     -1.387478    1.274057   -3.986921
  H     -0.810916    2.787172   -3.258120
  H     -2.544193    2.557667   -3.571848
  H     -2.634468    0.727986   -1.850724
  H     -2.069134    2.229113   -1.132697
  H     -0.238160   -0.052039   -2.101802
  H      0.318477    1.424725   -1.304868
  H     -5.120365   -1.456224    0.325645
  H     -4.497309   -2.434783    1.670598
  H     -5.115656   -3.230328    0.205559
  H     -2.445160   -4.782747   -0.082270
  H     -1.779547   -3.983016    1.360287
  H     -0.899066   -3.912429   -0.179960
  H     -3.481665   -3.140875   -2.450222
  H     -3.559628   -1.366951   -2.391805
  H     -1.989617   -2.181320   -2.543618
  H      0.293016    3.446311    0.791441
  H     -1.117426    5.503736    0.989975
  H     -3.478629    5.318937    1.772133
  H     -4.410245    3.087892    2.378613
  H     -2.984020    1.041970    2.183657
  H      0.799029   -1.962248   -0.167949
  H      0.802081   -1.469226    1.525378
  H      2.190251    0.585798    0.881603
  H      2.249779   -0.005001   -0.778455
  H      3.357746   -1.491233    1.669961
  H      3.393132   -2.109305    0.018701
  H      4.801806   -0.150116   -0.691797
  H      4.758625    0.483630    0.953044
  H      5.963254   -2.225637    0.141930
  H      5.924478   -1.585898    1.783202
  H      7.365180    0.369575    1.062549
  H      7.402700   -0.272627   -0.591308
  H      8.170636   -1.177276    0.729541
