49
  Isotropic shielding for P: 221.515 ppm
  C     -2.502608   -0.661041    2.743904
  O     -2.924106    0.150999    1.610875
  P     -2.581088   -0.392068    0.110167
  O     -3.066992   -1.796618   -0.082433
  C     -0.772590   -0.137530   -0.112057
  C     -0.173888    1.040096    0.429421
  C      1.222348    1.165332    0.423714
  C      2.058683    0.191590   -0.115247
  C      1.451911   -0.910834   -0.721665
  C      0.063136   -1.104091   -0.758688
  C     -0.359155   -2.344937   -1.566714
  C     -1.414746   -2.085783   -2.663707
  C     -0.674425   -3.577743   -0.688336
  C      3.571162    0.347398   -0.076296
  C      4.233757   -0.790684    0.731317
  C      4.170710    0.442985   -1.496846
  C     -0.938593    2.251616    0.979847
  C     -0.582960    2.545790    2.453591
  C     -0.694770    3.491691    0.088251
  C     -3.479960    0.802624   -0.918402
  H     -2.941740   -1.662988    2.679385
  H     -2.866520   -0.147554    3.637619
  H     -1.408224   -0.734630    2.778201
  H      1.674670    2.060315    0.847696
  H      2.080322   -1.657726   -1.204942
  H      0.555179   -2.610316   -2.116131
  H     -1.438093   -2.944186   -3.349471
  H     -2.418813   -1.955844   -2.254891
  H     -1.151589   -1.195837   -3.251768
  H     -0.826314   -4.458114   -1.329147
  H     -1.574533   -3.420354   -0.090141
  H      0.168730   -3.791836   -0.017356
  H      3.783924    1.294662    0.441451
  H      4.061630   -1.764014    0.252634
  H      3.829945   -0.837428    1.750994
  H      5.318623   -0.632671    0.797135
  H      4.011300   -0.488913   -2.055596
  H      3.711007    1.262655   -2.064001
  H      5.252610    0.624298   -1.443854
  H     -2.007449    2.054581    0.962236
  H     -0.770196    1.670713    3.086891
  H     -1.195389    3.376669    2.828919
  H      0.471573    2.827777    2.568544
  H     -1.301998    4.334791    0.444797
  H      0.357774    3.802204    0.103644
  H     -0.971818    3.286348   -0.954117
  H     -3.165248    1.835328   -0.745613
  H     -4.551363    0.701815   -0.707149
  H     -3.293926    0.541666   -1.966664
