46
  Isotropic shielding for P: 189.280 ppm
  C      3.620178    3.599773   -0.358195
  C      2.184593    3.566135   -0.850840
  O      1.437474    2.500051   -0.144519
  P      1.092105    1.088885   -0.808272
  S      2.115301    0.524058   -2.348505
  O      1.085857    0.091540    0.470048
  C      2.276605   -0.296802    1.108055
  C      2.852206    0.549546    2.055664
  C      4.002463    0.133764    2.730781
  C      4.544521   -1.121441    2.442709
  C      3.963299   -1.970177    1.497296
  C      2.814491   -1.549963    0.820517
  Cl     5.995989   -1.649724    3.299614
  O     -0.523339    1.278649   -0.954706
  N     -1.195819    0.167094   -1.645787
  C     -2.317297   -0.099093   -1.062378
  C     -3.186578   -1.079564   -1.747671
  C     -4.049140   -1.913335   -1.009985
  C     -4.854900   -2.847244   -1.665538
  C     -4.817758   -2.955226   -3.060716
  C     -3.965661   -2.125391   -3.801853
  C     -3.155927   -1.193466   -3.153039
  C     -2.770260    0.545921    0.242302
  N     -1.937454    0.130404    1.371994
  C     -1.269473    0.889511    2.271899
  N     -0.652642    0.114584    3.162590
  C     -0.976030   -1.148083    2.743118
  N     -1.755727   -1.197034    1.662154
  H      4.149428    4.429111   -0.847153
  H      3.659776    3.755218    0.726683
  H      4.137629    2.664954   -0.603257
  H      2.127002    3.381551   -1.928597
  H      1.640937    4.485531   -0.610580
  H      2.402682    1.515019    2.266598
  H      4.466189    0.776158    3.474699
  H      4.399134   -2.943851    1.290174
  H      2.338778   -2.185686    0.078433
  H     -4.070149   -1.856017    0.075268
  H     -5.512563   -3.491328   -1.084785
  H     -5.454565   -3.677098   -3.569195
  H     -3.941434   -2.197791   -4.887781
  H     -2.508376   -0.535011   -3.726239
  H     -2.693089    1.634400    0.161811
  H     -3.812037    0.288061    0.449226
  H     -1.253968    1.972173    2.229237
  H     -0.632353   -2.048962    3.238622
