56
  Isotropic shielding for P: 257.621 ppm
  Cl    -0.377080    0.426120    6.485395
  C     -0.357804    0.380996    4.720147
  C     -0.317834    1.579147    4.006235
  C     -0.306464    1.529414    2.609893
  C     -0.325843    0.303198    1.929729
  C     -0.362984   -0.887813    2.671751
  C     -0.384287   -0.854071    4.067315
  C     -0.300044    0.324301    0.412478
  P      1.297001   -0.199747   -0.357089
  O      1.215127   -0.568891   -1.792473
  O      1.982913   -1.244404    0.651856
  C      2.949396   -2.173572    0.199174
  C      4.298289   -1.829651    0.279558
  C      5.256030   -2.770404   -0.116945
  C      4.857899   -4.028905   -0.584894
  C      3.496257   -4.349562   -0.655652
  C      2.527160   -3.419447   -0.262306
  O      2.242988    1.091075   -0.020882
  C      1.981655    2.384242   -0.513606
  C      1.677869    2.619153   -1.857496
  C      1.445213    3.935841   -2.273219
  C      1.527863    4.996551   -1.363963
  C      1.846302    4.740014   -0.024137
  C      2.072025    3.429754    0.408571
  N     -1.489918   -0.266478   -0.241089
  C     -1.549420   -1.655646   -0.437532
  O     -0.645287   -2.409539   -0.073136
  N     -2.682288   -2.118816   -1.063630
  C     -3.742648   -1.332291   -1.492145
  C     -3.677077    0.059591   -1.287222
  C     -2.503512    0.650701   -0.634158
  O     -2.368415    1.857382   -0.420450
  C     -4.743540    0.872983   -1.712452
  C     -5.853216    0.308467   -2.330549
  C     -5.907645   -1.084006   -2.530296
  C     -4.863429   -1.905731   -2.116541
  H     -0.302641    2.532592    4.527856
  H     -0.286365    2.459502    2.045911
  H     -0.364936   -1.844474    2.159978
  H     -0.412824   -1.776959    4.640980
  H     -0.354877    1.376981    0.110794
  H      4.584695   -0.846660    0.645947
  H      6.313017   -2.516437   -0.059630
  H      5.606003   -4.757029   -0.892893
  H      3.183252   -5.326590   -1.019964
  H      1.464897   -3.639406   -0.313215
  H      1.622177    1.789686   -2.556319
  H      1.203351    4.128585   -3.317045
  H      1.347582    6.016904   -1.696868
  H      1.914944    5.559248    0.689480
  H      2.311768    3.207256    1.445650
  H     -2.714306   -3.126012   -1.202921
  H     -4.675609    1.945029   -1.545672
  H     -6.676726    0.938675   -2.658573
  H     -6.775671   -1.528380   -3.013924
  H     -4.903091   -2.982766   -2.269911
