54
  Isotropic shielding for P: 251.662 ppm
  O     -2.025236   -5.495382    1.494315
  C     -1.722746   -4.544429    0.544743
  C     -1.509149   -4.864648   -0.804746
  C     -1.214256   -3.844726   -1.713531
  C     -1.125312   -2.514033   -1.293289
  C     -1.341063   -2.202614    0.055802
  C     -1.638349   -3.214249    0.974582
  C     -1.195946   -0.782281    0.574045
  N     -1.446355    0.281766   -0.418497
  C     -2.773831    0.754943   -0.639489
  C     -3.014696    2.104265   -0.950746
  C     -4.325099    2.551006   -1.133734
  C     -5.407109    1.672279   -0.996361
  C     -5.164296    0.334055   -0.670648
  C     -3.856371   -0.128663   -0.496611
  C     -0.330408    0.785198   -1.087134
  O     -0.352882    1.514209   -2.070398
  N      0.860546    0.330279   -0.461182
  P      0.550831   -0.432997    1.026043
  O      1.503988   -1.503459    1.403519
  O      0.321487    0.736406    2.132314
  C      1.371117    1.628946    2.454006
  C      1.325944    2.913292    1.912633
  C      2.353341    3.810095    2.224896
  C      3.403702    3.415994    3.063292
  C      3.424634    2.122025    3.598699
  C      2.401983    1.215032    3.297523
  C      2.128979    0.367820   -1.126820
  C      3.262269    0.836887   -0.452566
  C      4.504088    0.827779   -1.096430
  C      4.613972    0.371640   -2.414217
  C      3.474127   -0.091823   -3.084409
  C      2.234179   -0.106157   -2.442073
  H     -2.061519   -6.376138    1.074024
  H     -1.579709   -5.901160   -1.134386
  H     -1.051936   -4.092494   -2.761050
  H     -0.905139   -1.731538   -2.014059
  H     -1.808394   -2.981641    2.024647
  H     -1.832028   -0.619975    1.450863
  H     -2.184727    2.795885   -1.047178
  H     -4.499547    3.598570   -1.373991
  H     -6.425966    2.028372   -1.136515
  H     -5.993568   -0.362067   -0.556431
  H     -3.683846   -1.173761   -0.257610
  H      0.507493    3.192341    1.253405
  H      2.334080    4.814602    1.806334
  H      4.203251    4.115476    3.299537
  H      4.238933    1.812933    4.251434
  H      2.403741    0.203315    3.694698
  H      3.179259    1.207412    0.564211
  H      5.383426    1.187892   -0.565460
  H      5.580055    0.373367   -2.915695
  H      3.551401   -0.456342   -4.107317
  H      1.352553   -0.483400   -2.953094
