58
  Isotropic shielding for P: 289.497 ppm
  C     -1.475491   -2.206414    1.793384
  C     -1.390182   -1.933511    0.277096
  N     -0.947410   -0.523569    0.037833
  P      0.530224    0.178947   -0.177662
  N      0.431073    1.738232   -0.281359
  C     -0.625559    2.612629   -0.036798
  C     -0.448183    3.672476    0.886196
  C     -1.467178    4.594518    1.135609
  C     -2.700442    4.492768    0.475628
  C     -2.890174    3.456913   -0.447944
  C     -1.871526    2.533863   -0.706547
  N      1.647903   -0.395636    0.970116
  C      2.724671   -1.223625    0.411597
  C      2.748315   -0.929891   -1.094436
  N      1.378000   -0.531809   -1.461294
  C      1.037234   -0.330908   -2.814061
  C     -0.299168   -0.076568   -3.193698
  C     -0.628874    0.117935   -4.535511
  C      0.351298    0.051631   -5.534816
  C      1.673801   -0.214307   -5.165122
  C      2.020920   -0.400424   -3.822501
  C      1.486012   -0.250025    2.356730
  C      0.527486    0.642526    2.888735
  C      0.366631    0.766442    4.268637
  C      1.151423    0.018491    5.156812
  C      2.105309   -0.861812    4.635078
  C      2.275065   -1.001113    3.253669
  C     -0.434063   -2.937993   -0.387786
  C     -2.788607   -2.057291   -0.362504
  H     -0.488165   -2.132226    2.261961
  H     -2.142523   -1.481612    2.277396
  H     -1.870618   -3.214870    1.974744
  H     -1.687776    0.157403    0.197976
  H      0.507374    3.754645    1.402062
  H     -1.298605    5.397435    1.853107
  H     -3.494047    5.211601    0.671820
  H     -3.837005    3.368175   -0.980486
  H     -2.027571    1.757144   -1.451790
  H      3.686029   -0.958459    0.866676
  H      2.538011   -2.290391    0.603848
  H      3.042800   -1.822244   -1.657861
  H      3.461788   -0.123859   -1.323687
  H     -1.080427   -0.059571   -2.442504
  H     -1.667457    0.311853   -4.800645
  H      0.087098    0.198285   -6.580382
  H      2.452421   -0.274142   -5.924524
  H      3.058343   -0.593968   -3.567592
  H     -0.088109    1.244029    2.229114
  H     -0.379081    1.461962    4.651682
  H      1.022415    0.122117    6.232468
  H      2.726556   -1.454847    5.305127
  H      3.015221   -1.702314    2.879706
  H      0.556593   -2.927776    0.077204
  H     -0.846403   -3.946757   -0.264643
  H     -0.323711   -2.736378   -1.458512
  H     -2.732682   -1.884389   -1.444204
  H     -3.481007   -1.323825    0.072934
  H     -3.197767   -3.059691   -0.186469
