29
  Isotropic shielding for P: 141.431 ppm
  C     -2.011477   -1.039958   -1.407375
  C     -1.441689   -0.995291    0.012399
  N     -1.124013    0.393840    0.455934
  P      0.234443    0.546522    1.420941
  S      0.150089    0.012105    3.306606
  C      1.587092   -0.177285    0.457049
  C      1.689152    0.103186   -0.917424
  C      2.736648   -0.445285   -1.658740
  C      3.685903   -1.266683   -1.034250
  C      3.586061   -1.539980    0.334619
  C      2.537433   -0.996183    1.083161
  Cl     0.627202    2.625317    1.257227
  C     -2.304625    1.258636    0.750188
  C     -2.578420    2.287725   -0.352030
  H     -1.312162   -0.589080   -2.122163
  H     -2.181279   -2.085717   -1.696132
  H     -2.969933   -0.512643   -1.475301
  H     -0.522010   -1.588787    0.053851
  H     -2.148097   -1.446230    0.726964
  H      0.952495    0.740700   -1.399733
  H      2.813637   -0.232072   -2.723370
  H      4.502206   -1.692107   -1.615649
  H      4.321606   -2.177947    0.821178
  H      2.448783   -1.207326    2.146264
  H     -2.149935    1.771043    1.708032
  H     -3.171824    0.599654    0.889184
  H     -2.777003    1.801878   -1.313839
  H     -3.457001    2.890344   -0.083102
  H     -1.723181    2.961730   -0.473891
