40
  Isotropic shielding for P: 308.246 ppm
  C      5.283790   -2.238834    0.832111
  C      4.105946   -2.209639    1.586990
  C      3.000829   -1.470449    1.151469
  C      3.051631   -0.739808   -0.055435
  C      4.246589   -0.779727   -0.811433
  C      5.344241   -1.517493   -0.371928
  C      1.899434    0.034385   -0.499572
  C      1.748138    0.826480   -1.589947
  N      0.468414    1.392668   -1.624591
  P     -0.545356    1.073703   -0.312842
  O      0.759291    0.001702    0.272312
  O     -1.635941    2.185689   -1.003241
  C     -2.921328    2.450872   -0.386219
  C     -2.800700    2.594708    1.143872
  C     -1.357900    2.913797    1.511248
  O     -0.476434    1.790808    1.160382
  C     -1.693819   -0.341455   -0.341214
  C     -2.208366   -0.786800   -1.568948
  C     -3.088280   -1.873415   -1.611073
  C     -3.471984   -2.514075   -0.426327
  C     -2.966352   -2.066686    0.800786
  C     -2.076327   -0.988440    0.844183
  H      6.143283   -2.814154    1.171915
  H      4.043977   -2.764687    2.522433
  H      2.090673   -1.451436    1.745248
  H      4.313486   -0.229221   -1.748189
  H      6.254456   -1.532749   -0.970125
  H      2.464623    1.057746   -2.366643
  H      0.216882    2.089191   -2.315452
  H     -3.632746    1.657763   -0.656760
  H     -3.260464    3.389678   -0.839941
  H     -3.460150    3.395824    1.503286
  H     -3.097957    1.669400    1.653477
  H     -0.997652    3.816140    1.001313
  H     -1.228257    3.037901    2.590930
  H     -1.923712   -0.284108   -2.491526
  H     -3.479013   -2.214790   -2.568553
  H     -4.162515   -3.355355   -0.458868
  H     -3.264676   -2.557385    1.726172
  H     -1.685662   -0.647753    1.800499
