35
  Isotropic shielding for P: 223.691 ppm
  O     -0.059129    2.844123   -1.399876
  C      0.718162    2.410629   -0.563107
  C      2.137731    3.091056   -0.497466
  F      2.750437    2.928735    0.709117
  F      2.050465    4.427582   -0.737256
  F      2.955665    2.555441   -1.453131
  P      0.333335    1.126510    0.722718
  C      1.759727   -0.010950    0.471322
  C      2.524654   -0.381938    1.589219
  C      3.596310   -1.270813    1.448475
  C      3.910584   -1.794327    0.189122
  C      3.149822   -1.430105   -0.929943
  C      2.079425   -0.542826   -0.791110
  C     -1.124715    0.265209   -0.083972
  C     -1.274268   -1.165582    0.479810
  C     -2.507353   -1.867814   -0.122883
  C     -3.793652   -1.050525    0.094716
  C     -3.640511    0.380668   -0.450572
  C     -2.412201    1.087572    0.156572
  H      2.280283    0.024029    2.569424
  H      4.182389   -1.554584    2.321089
  H      4.744615   -2.485519    0.078667
  H      3.391980   -1.835337   -1.911196
  H      1.492325   -0.268946   -1.665566
  H     -0.930215    0.208623   -1.165109
  H     -1.381262   -1.115615    1.575445
  H     -0.371816   -1.753740    0.273469
  H     -2.610062   -2.869385    0.318618
  H     -2.345237   -2.010554   -1.203325
  H     -4.015122   -1.004707    1.173417
  H     -4.646730   -1.551627   -0.384627
  H     -4.544181    0.970099   -0.239570
  H     -3.531927    0.344336   -1.546392
  H     -2.561766    1.207078    1.241389
  H     -2.307766    2.093403   -0.267492
