33
  Isotropic shielding for P: 199.928 ppm
  O      0.417243    0.331081    2.648631
  P      0.308074    0.148738    1.148161
  C     -1.001636   -0.997600    0.494205
  C     -0.872305   -0.756516   -1.029730
  C     -0.633792    0.788419   -1.235000
  C     -0.607509    1.438398    0.170997
  C     -1.978140    1.297617    0.889430
  C     -2.233975   -0.258041    1.086116
  C     -3.563550   -0.129495    0.270261
  C     -3.317907    1.405304    0.089057
  C      1.909665   -0.216663    0.373634
  C      2.369797   -1.542826    0.304418
  C      3.632791   -1.821394   -0.226894
  C      4.443873   -0.777604   -0.690341
  C      3.990926    0.545923   -0.621715
  C      2.728044    0.826921   -0.090678
  H     -0.918786   -2.047507    0.788258
  H     -1.774085   -1.090882   -1.552552
  H     -0.035656   -1.336008   -1.434291
  H     -1.423661    1.231667   -1.849860
  H      0.313290    0.969252   -1.754209
  H     -0.189130    2.448502    0.186978
  H     -1.976790    1.877254    1.817836
  H     -2.390666   -0.562148    2.125734
  H     -4.452281   -0.373711    0.862458
  H     -3.606117   -0.703450   -0.660952
  H     -3.227599    1.743136   -0.948641
  H     -4.060032    2.037241    0.589209
  H      1.741891   -2.357974    0.660801
  H      3.982580   -2.851057   -0.281292
  H      5.426504   -0.995580   -1.105739
  H      4.619545    1.358220   -0.982991
  H      2.379492    1.857284   -0.041499
