20
  Isotropic shielding for P: 116.314 ppm
  C      2.868525   -0.137129    0.042482
  O      2.494358    1.045932    0.814561
  P      0.957813    1.437311    1.250102
  O      0.304459    0.059096    1.933882
  C     -0.377169   -0.780479    0.949481
  C     -0.886289    0.163088   -0.162374
  O      0.108147    1.268646   -0.173761
  C     -2.254532    0.765615    0.175496
  C     -0.869112   -0.496325   -1.539018
  H      2.714411   -1.040596    0.643467
  H      3.930025   -0.029274   -0.198173
  H      2.281207   -0.193163   -0.880317
  H     -1.199085   -1.289309    1.462913
  H      0.328295   -1.522580    0.555243
  H     -2.249110    1.205097    1.180716
  H     -2.510956    1.547021   -0.549558
  H     -3.027682   -0.012602    0.139652
  H     -1.554577   -1.353777   -1.551184
  H     -1.196192    0.215602   -2.306245
  H      0.137361   -0.852475   -1.787267
