46
  Isotropic shielding for P: 77.324 ppm
  C     -5.131158   -3.686051   -2.798699
  C     -5.534243   -2.265581   -2.443742
  O     -6.680387   -1.863104   -2.682522
  C     -4.527202   -1.370886   -1.803479
  C     -3.213835   -1.795569   -1.527633
  C     -2.288815   -0.939595   -0.928996
  C     -2.681411    0.362310   -0.586201
  C     -3.985550    0.808369   -0.855751
  C     -4.892845   -0.051873   -1.459739
  O     -1.830877    1.281157    0.003886
  P     -0.486698    0.798425    0.898448
  C     -0.069287    2.461335    1.526736
  C     -0.052689    2.632694    2.920627
  C      0.270221    3.878197    3.472138
  C      0.581703    4.951701    2.630654
  C      0.572536    4.782660    1.237496
  C      0.250508    3.541776    0.684653
  O      0.562375    0.708954   -0.444240
  C      1.751992    0.020600   -0.390527
  C      2.483243   -0.142453    0.796465
  C      3.688284   -0.844292    0.768013
  C      4.190302   -1.378864   -0.433761
  C      3.443000   -1.190802   -1.616978
  C      2.237180   -0.503324   -1.601712
  C      5.477069   -2.128586   -0.493706
  O      5.901771   -2.577457   -1.566925
  C      6.264125   -2.338139    0.788730
  H     -5.985244   -4.204239   -3.243528
  H     -4.293010   -3.685615   -3.509089
  H     -4.795690   -4.230795   -1.905791
  H     -2.894348   -2.801571   -1.786169
  H     -1.274520   -1.283298   -0.745347
  H     -4.265430    1.823468   -0.581855
  H     -5.905333    0.284971   -1.669129
  H     -0.289011    1.792637    3.573694
  H      0.281988    4.008000    4.552940
  H      0.836406    5.920626    3.057290
  H      0.819221    5.619622    0.586069
  H      0.249993    3.409493   -0.395528
  H      2.125889    0.285176    1.730349
  H      4.240601   -0.963285    1.696257
  H      3.823878   -1.601558   -2.549066
  H      1.653780   -0.364358   -2.509545
  H      7.168553   -2.912177    0.568796
  H      5.660341   -2.874885    1.532937
  H      6.542529   -1.373916    1.235687
