16
  Isotropic shielding for P: -32.237 ppm
  C     -1.027322   -0.321742    1.147330
  C     -0.402397    0.611785    0.094581
  C      0.940931    0.084868   -0.470801
  P      2.329699    0.099393    0.763580
  Cl     3.940589   -0.239431   -0.585123
  Cl     2.144227   -1.846200    1.601469
  C     -1.378455    0.845936   -1.076236
  H     -1.175309   -1.329973    0.735172
  H     -0.401995   -0.413862    2.043265
  H     -2.006017    0.065095    1.459843
  H     -0.207968    1.586491    0.570211
  H      0.834658   -0.915236   -0.911514
  H      1.292355    0.765696   -1.260492
  H     -1.600506   -0.100826   -1.589281
  H     -2.324982    1.263794   -0.708581
  H     -0.957505    1.542413   -1.813323
