56
  Isotropic shielding for P: 211.705 ppm
  C      3.103143   -0.565896    3.369520
  C      3.367329   -0.236956    1.907426
  O      2.077456    0.026044    1.286132
  C      2.068741    0.262437   -0.085501
  O      3.145008    0.403133   -0.692819
  C      0.753561    0.347894   -0.666527
  P     -0.607185   -0.302209    0.123215
  N     -0.274959   -1.685873    0.968802
  C      0.792428   -2.621705    0.594711
  C     -1.069852   -2.120455    2.126584
  O     -1.463836    0.630174    1.125293
  C     -0.785452    1.400459    2.206215
  C     -1.767715    1.452562    3.369934
  C     -0.405690    2.779356    1.676062
  O     -1.825004   -0.528051   -0.916589
  C     -1.820237   -1.687913   -1.844380
  C     -2.516288   -1.231564   -3.121928
  C     -2.532258   -2.868610   -1.187457
  Si     0.601229    1.416878   -2.201558
  C      1.816108    2.867984   -2.104825
  C      0.969601    0.438950   -3.781398
  C     -1.107965    2.225961   -2.328409
  H      2.462665   -1.452153    3.462567
  H      4.053600   -0.771449    3.879438
  H      2.613887    0.273734    3.879749
  H      4.006809    0.649207    1.801763
  H      3.854493   -1.072322    1.386900
  H      0.362979   -3.615041    0.395504
  H      1.523514   -2.712043    1.409912
  H      1.305071   -2.276597   -0.304960
  H     -1.927662   -1.462918    2.273901
  H     -0.452467   -2.111635    3.037669
  H     -1.437394   -3.144350    1.965659
  H      0.115832    0.847054    2.491962
  H     -1.321897    2.013926    4.201126
  H     -2.694490    1.958828    3.068763
  H     -2.014427    0.446053    3.726078
  H      0.060078    3.364049    2.480277
  H      0.304136    2.699304    0.847340
  H     -1.298333    3.315684    1.328354
  H     -0.773370   -1.942279   -2.059103
  H     -2.554396   -2.066489   -3.833002
  H     -1.986327   -0.400273   -3.595410
  H     -3.544717   -0.915884   -2.902506
  H     -2.573950   -3.707256   -1.894525
  H     -3.559875   -2.589644   -0.920117
  H     -2.011773   -3.205356   -0.287505
  H      2.859445    2.540061   -2.159419
  H      1.681584    3.426964   -1.168402
  H      1.623220    3.558877   -2.938562
  H      0.873796    1.073565   -4.674529
  H      1.995525    0.046375   -3.752158
  H      0.288819   -0.413898   -3.896295
  H     -1.130400    2.868295   -3.220911
  H     -1.291295    2.864678   -1.453619
  H     -1.930740    1.510232   -2.398444
