19
  Isotropic shielding for P: 242.458 ppm
  F     -1.482624    0.000021    1.539670
  P     -1.515796    0.026440   -0.162782
  F     -1.764320    0.055783   -1.843076
  F     -3.120669    0.050513   -0.026766
  C     -0.570288   -1.530399   -0.237007
  C      0.854713   -1.310093    0.348427
  C      1.551790   -0.022555   -0.141074
  C      0.896034    1.271549    0.386719
  C     -0.521248    1.554018   -0.190846
  H     -1.110446   -2.290651    0.340427
  H     -0.516276   -1.852179   -1.280451
  H      0.798069   -1.293642    1.444058
  H      1.456583   -2.184799    0.069062
  H      2.596500   -0.044294    0.197515
  H      1.577715   -0.006697   -1.242330
  H      0.838765    1.224590    1.481451
  H      1.525411    2.134551    0.132710
  H     -0.456568    1.904407   -1.224399
  H     -1.037349    2.313538    0.409091
