33
  Isotropic shielding for P: 263.113 ppm
  Cl    -0.067251   -2.581203   -1.068747
  C     -1.590928   -1.763953   -0.814574
  C     -1.656053   -0.487767   -0.376553
  C     -2.902524    0.394696   -0.188649
  C     -3.606239    0.579727   -1.562253
  C     -2.495809    1.795487    0.328130
  C     -3.886650   -0.220170    0.841327
  O     -0.419499    0.161788   -0.258371
  P      0.710875    0.125032    0.917602
  Cl     0.694159    1.792399    2.174329
  Cl    -0.550276   -1.008597    2.304043
  O      1.870621   -1.008453    1.252080
  C      3.099303   -0.725528    0.641519
  C      3.012746    0.398447   -0.174021
  O      1.743377    0.923507   -0.196297
  C      4.121858    0.873456   -0.861168
  C      5.324279    0.163013   -0.697930
  C      5.399871   -0.970616    0.123891
  C      4.270247   -1.439371    0.819181
  Cl    -2.971435   -2.751862   -1.164821
  H     -2.923074    1.039647   -2.287221
  H     -4.470012    1.244002   -1.431938
  H     -3.965986   -0.367600   -1.974598
  H     -2.050244    1.747457    1.326618
  H     -3.402664    2.408188    0.395120
  H     -1.793757    2.295615   -0.347413
  H     -3.401569   -0.341908    1.815809
  H     -4.278477   -1.189479    0.522422
  H     -4.736335    0.464205    0.960738
  H      4.054045    1.753942   -1.495401
  H      6.214285    0.505989   -1.221459
  H      6.345208   -1.497550    0.232344
  H      4.308005   -2.312438    1.465860
