50
  Isotropic shielding for P: 250.835 ppm
  N      1.733159    2.812283    1.558341
  C      1.815066    1.916354    0.817882
  C      2.005689    0.786578   -0.069445
  Si     3.890966    0.287097   -0.041137
  C      4.116787   -1.042542   -1.352813
  C      4.295881   -0.348169    1.681332
  C      4.884816    1.827086   -0.462827
  C      1.074487   -0.410375    0.271434
  P     -0.664327   -0.118171   -0.174059
  O     -0.866825    0.214530   -1.619888
  O     -1.430909   -1.425075    0.323785
  Si    -2.143621   -2.731197   -0.525381
  C     -0.829584   -3.491265   -1.625505
  C     -3.595695   -2.077970   -1.512153
  C     -2.688417   -3.901587    0.831105
  O     -1.134618    1.006916    0.846996
  Si    -2.240949    2.306988    0.706050
  C     -1.558593    3.537414   -0.530921
  C     -2.318657    3.015736    2.437165
  C     -3.888898    1.603934    0.154078
  H      1.807351    1.126397   -1.097788
  H      3.547052   -1.951262   -1.120280
  H      5.178479   -1.318748   -1.418804
  H      3.798910   -0.678730   -2.339266
  H      3.713508   -1.246252    1.926008
  H      5.361399   -0.608483    1.747370
  H      4.086388    0.415446    2.442377
  H      4.592790    2.227162   -1.443358
  H      4.742349    2.616193    0.286890
  H      5.956100    1.585573   -0.500876
  H      1.388635   -1.294227   -0.296802
  H      1.130659   -0.664687    1.336171
  H     -0.472533   -2.768588   -2.370520
  H      0.031286   -3.829007   -1.032668
  H     -1.235391   -4.361096   -2.160888
  H     -4.109820   -2.904450   -2.022948
  H     -3.261952   -1.358229   -2.269733
  H     -4.321312   -1.577707   -0.857395
  H     -1.831379   -4.234989    1.431710
  H     -3.167376   -4.790642    0.397649
  H     -3.412406   -3.417482    1.500400
  H     -0.580637    3.918434   -0.210239
  H     -1.442870    3.072359   -1.517912
  H     -2.242507    4.392256   -0.631001
  H     -3.002828    3.875239    2.468213
  H     -1.327603    3.356665    2.764605
  H     -2.681147    2.266170    3.153576
  H     -4.224877    0.809796    0.834160
  H     -3.820122    1.183170   -0.856991
  H     -4.655706    2.391349    0.144096
