32
  Isotropic shielding for P: 243.459 ppm
  Cl    -0.021775    2.349000    0.719128
  P     -0.002998    0.350800    0.163047
  O     -0.435813    0.141461   -1.412668
  N     -1.871731    0.074540   -1.630046
  C     -2.435972    0.031341   -0.456175
  O     -1.630830    0.066753    0.629417
  C     -3.883650   -0.043542   -0.251374
  C     -4.410836    0.042116    1.050239
  C     -5.793256   -0.012502    1.245873
  C     -6.653841   -0.152191    0.151087
  C     -6.128849   -0.239433   -1.146897
  C     -4.751081   -0.186766   -1.352394
  O      0.440995   -0.635309    1.405415
  N      1.878639   -0.783284    1.561548
  C      2.437854   -0.203154    0.537353
  O      1.627024    0.377272   -0.375721
  C      3.885425   -0.140076    0.327630
  C      4.403636    0.589690   -0.757863
  C      5.785594    0.661313   -0.951435
  C      6.654704    0.010177   -0.068672
  C      6.138777   -0.718194    1.013532
  C      4.761583   -0.796666    1.214468
  H     -3.742619    0.155246    1.899564
  H     -6.197063    0.055777    2.254205
  H     -7.730568   -0.193762    0.306035
  H     -6.796748   -0.350014   -1.999048
  H     -4.344972   -0.257111   -2.358428
  H      3.729307    1.098916   -1.440949
  H      6.182521    1.227565   -1.791854
  H      7.730983    0.068469   -0.221264
  H      6.813157   -1.225793    1.700560
  H      4.362707   -1.362740    2.052590
