25
  Isotropic shielding for P: 178.004 ppm
  C     -0.934375    2.880122   -0.968031
  C     -1.272012    1.468388   -0.521723
  O     -0.264218    0.558085   -1.091771
  P      0.019900   -0.925202   -0.504280
  O      1.131240   -1.549124   -1.294736
  Se     0.503515   -0.725437    1.730347
  C      2.408165   -0.126487    1.464012
  C      2.540724    1.337306    1.056615
  C     -1.570766   -1.818767   -0.541574
  C     -1.451340   -3.304561   -0.161306
  H     -0.926954    2.954276   -2.062711
  H     -1.692182    3.573543   -0.579712
  H      0.046352    3.186131   -0.584196
  H     -1.247747    1.377565    0.571815
  H     -2.256825    1.151146   -0.886598
  H      2.864674   -0.329250    2.438408
  H      2.836002   -0.809111    0.724915
  H      2.080286    1.526200    0.080697
  H      2.072492    2.001662    1.792987
  H      3.606957    1.600719    0.987459
  H     -2.268610   -1.288587    0.121386
  H     -1.940521   -1.698119   -1.570804
  H     -0.760240   -3.827966   -0.832129
  H     -1.090396   -3.425903    0.866897
  H     -2.433920   -3.786630   -0.235965
