32
  Isotropic shielding for P: 215.195 ppm
  O      2.145495    3.026287    0.363860
  C      1.767094    1.856465    0.466854
  C      2.666520    0.719022    0.121466
  C      3.913988    1.003985   -0.472685
  C      4.790506   -0.025938   -0.807319
  C      4.436535   -1.359223   -0.550646
  C      3.202858   -1.653723    0.041395
  C      2.321551   -0.621879    0.375863
  C      0.340930    1.587242    0.929510
  P     -0.835073    1.243890   -0.482853
  S     -0.370276    2.233906   -2.142336
  C     -2.484784    1.499928    0.194341
  C     -3.150503    0.323446    0.231458
  C     -2.347652   -0.848691   -0.272914
  C     -1.090438   -0.532406   -0.662454
  C     -2.948027   -2.220386   -0.345477
  C     -4.564243    0.155247    0.701379
  H      4.178849    2.040501   -0.667212
  H      5.750188    0.204234   -1.267233
  H      5.122524   -2.164122   -0.809883
  H      2.928092   -2.686722    0.246070
  H      1.374905   -0.870013    0.846369
  H      0.259347    0.751402    1.632844
  H     -0.031256    2.501272    1.403477
  H     -2.870296    2.467055    0.502338
  H     -0.363973   -1.217323   -1.086344
  H     -3.286689   -2.550448    0.646735
  H     -3.833662   -2.219968   -0.997499
  H     -2.226028   -2.946248   -0.732910
  H     -4.986659    1.113161    1.021880
  H     -5.193029   -0.257021   -0.100808
  H     -4.616395   -0.553034    1.540335
