50
  Isotropic shielding for P: 284.919 ppm
  C      3.666495   -3.279885    1.314341
  C      4.904190   -2.605907    1.231604
  C      4.963083   -1.297479    0.770179
  C      3.798205   -0.596034    0.369064
  C      2.546108   -1.294422    0.459423
  C      2.504312   -2.628968    0.932071
  C      1.347825   -0.612404    0.059954
  O      0.122681   -1.138191    0.083629
  P     -1.197324    0.269366   -0.463040
  O      0.175904    1.210294   -0.750645
  C      1.413230    0.681012   -0.396034
  C      2.610818    1.426382   -0.511719
  C      3.835929    0.778356   -0.120088
  C      5.033894    1.524034   -0.232318
  C      5.040881    2.831821   -0.701949
  C      3.832814    3.455038   -1.084192
  C      2.636050    2.763519   -0.990171
  C     -1.925204    0.277147    1.217074
  C     -3.468229    0.087391    1.197076
  C     -3.859452   -1.382175    0.893293
  C     -4.059053   -1.810814   -0.595025
  N     -3.386946   -1.053125   -1.660533
  C     -1.928207   -1.034948   -1.613150
  C     -4.003105    0.243881   -1.969216
  N     -3.692676    1.346427   -1.052165
  C     -2.253631    1.681220   -1.109306
  C     -4.179974    1.161636    0.329993
  H      3.626971   -4.305927    1.677074
  H      5.819973   -3.113240    1.531123
  H      5.932242   -0.808195    0.719148
  H      1.540670   -3.130843    0.989005
  H      5.979115    1.070578    0.054805
  H      5.981287    3.375406   -0.774816
  H      3.841824    4.480130   -1.452181
  H      1.700371    3.236096   -1.281002
  H     -1.670106    1.262347    1.635741
  H     -1.455761   -0.490696    1.837420
  H     -3.791705    0.278294    2.232602
  H     -3.102910   -2.029766    1.357858
  H     -4.804109   -1.600813    1.410429
  H     -3.755102   -2.863056   -0.689908
  H     -5.128344   -1.768343   -0.835373
  H     -1.525688   -0.778096   -2.605552
  H     -1.546949   -2.018152   -1.327372
  H     -3.665079    0.552096   -2.968776
  H     -5.089447    0.098540   -1.989473
  H     -1.980790    1.898649   -2.150860
  H     -2.059673    2.585151   -0.515646
  H     -4.071127    2.130413    0.839855
  H     -5.254088    0.936060    0.280750
