25
  Isotropic shielding for P: 268.373 ppm
  O      3.997290    0.461077    0.669874
  P      2.811480    0.191183   -0.372711
  O      3.145191    0.444365   -1.801294
  O      2.400841   -1.321385   -0.016145
  C      1.009289   -1.724276   -0.327586
  C      0.006934   -0.781328    0.334097
  C      0.235818    0.669137   -0.110625
  O      1.626290    1.086246    0.234867
  C     -0.719491    1.641891    0.565331
  C     -2.178725    1.234802    0.270871
  C     -2.450767   -0.226019    0.678459
  C     -1.448214   -1.192282    0.019448
  H      4.812710    0.768377    0.226225
  H      0.889147   -1.738851   -1.419591
  H      0.921452   -2.743496    0.058936
  H      0.159312   -0.825679    1.424022
  H      0.139899    0.745389   -1.204636
  H     -0.518727    2.660784    0.208925
  H     -0.534166    1.622741    1.649620
  H     -2.861116    1.913225    0.799851
  H     -2.379065    1.356101   -0.805136
  H     -2.375355   -0.319119    1.773111
  H     -3.475671   -0.509835    0.402854
  H     -1.617927   -2.220584    0.366969
  H     -1.596530   -1.192359   -1.071739
