34
  Isotropic shielding for P: 259.269 ppm
  C     -1.210259   -2.519905    1.276540
  C     -0.452453   -1.534269    0.404308
  O     -1.194020   -0.262220    0.406979
  P     -0.933337    0.854650   -0.732769
  O     -0.802886    0.293413   -2.109875
  O     -2.172927    1.833471   -0.447676
  C     -3.553055    1.312324   -0.472671
  C     -4.495770    2.502679   -0.490793
  N      0.336955    1.845253   -0.330269
  C      1.684647    1.664545   -0.925257
  C      2.402130    0.414046   -0.449126
  C      2.822902    0.301880    0.886587
  C      3.422940   -0.872908    1.348748
  C      3.615488   -1.953293    0.475836
  C      3.209261   -1.846545   -0.858890
  C      2.605499   -0.668305   -1.316157
  H     -0.664118   -3.472171    1.306693
  H     -1.303341   -2.143921    2.303384
  H     -2.214290   -2.708425    0.875948
  H      0.552677   -1.341755    0.795211
  H     -0.369895   -1.888077   -0.629469
  H     -3.676221    0.687955   -1.366628
  H     -3.697389    0.691794    0.419412
  H     -5.533725    2.144432   -0.493216
  H     -4.337633    3.114203   -1.387783
  H     -4.348701    3.129864    0.397515
  H      0.348101    2.175117    0.633520
  H      2.262503    2.560654   -0.666891
  H      1.573730    1.639914   -2.013802
  H      2.668381    1.136965    1.570247
  H      3.741181   -0.947861    2.387666
  H      4.080274   -2.870088    0.835299
  H      3.356326   -2.681269   -1.542866
  H      2.276822   -0.592150   -2.351761
