41
  Isotropic shielding for P: 129.335 ppm
  C      3.170595   -1.526271   -0.660760
  Si     3.069767   -0.121317    0.591200
  Te     0.814880   -0.219658    1.794944
  P     -0.478613    0.014053   -0.383412
  C     -1.485918    1.633473   -0.106138
  C     -2.453565    1.641344    1.088450
  C     -2.260365    1.926933   -1.416093
  C     -0.431189    2.751614    0.071458
  C     -1.621207   -1.538088   -0.299503
  C     -2.678246   -1.426776   -1.422393
  C     -0.677460   -2.719572   -0.632746
  C     -2.326011   -1.820689    1.040020
  C      4.368084   -0.328782    1.944757
  C      3.268071    1.539809   -0.276086
  H      3.084215   -2.502354   -0.167047
  H      2.369384   -1.444980   -1.405608
  H      4.136413   -1.485544   -1.186299
  H     -1.947641    1.364851    2.021974
  H     -3.293934    0.956947    0.932441
  H     -2.868887    2.652893    1.217396
  H     -2.659872    2.950877   -1.370080
  H     -1.606346    1.861205   -2.295576
  H     -3.103964    1.247189   -1.561357
  H      0.281218    2.767649   -0.763444
  H      0.135989    2.632587    1.000872
  H     -0.945113    3.723517    0.099560
  H     -3.149075   -2.410460   -1.566868
  H     -2.232742   -1.124111   -2.379159
  H     -3.469227   -0.715257   -1.165311
  H     -0.188996   -2.582526   -1.606127
  H      0.103175   -2.841524    0.127700
  H     -1.265242   -3.648378   -0.672700
  H     -2.876074   -2.771277    0.962717
  H     -3.045979   -1.040201    1.301084
  H     -1.607555   -1.919053    1.862504
  H      4.303207    0.478961    2.685369
  H      5.373223   -0.303945    1.498695
  H      4.249051   -1.287047    2.466815
  H      3.216422    2.369282    0.440408
  H      4.244672    1.577788   -0.781695
  H      2.484856    1.686634   -1.029666
