60
  Isotropic shielding for P: 190.861 ppm
  C     -4.742840   -2.145200   -2.251203
  O     -3.479591   -1.581241   -1.783419
  C     -3.555976   -0.730365   -0.734491
  O     -4.602616   -0.359207   -0.220603
  C     -2.193250   -0.275662   -0.314797
  C     -1.880615    1.050877   -0.345183
  C     -0.445975    1.385845    0.011569
  P      0.324531   -0.333061    0.034299
  C     -1.138757   -1.229788    0.017930
  C     -1.197587   -2.616714    0.345222
  O     -0.214180   -3.370036    0.468428
  O     -2.487436   -3.074435    0.542185
  C     -2.619200   -4.496478    0.804841
  O      1.200327   -0.641833    1.314556
  C      2.650276   -0.248943    1.479433
  C      3.418988   -1.534565    1.744909
  C      2.723022    0.765237    2.609350
  O      1.262887   -0.330864   -1.255843
  C      1.753956   -1.612414   -1.888389
  C      0.820504   -1.948348   -3.041677
  C      3.193091   -1.354235   -2.305801
  O     -0.243827    1.882296    1.341528
  C     -0.886339    3.175238    1.643492
  C     -2.144657    2.926227    2.474565
  C      0.152971    4.024881    2.372505
  C      0.258400    2.251872   -1.055974
  O     -0.170147    2.437258   -2.182893
  O      1.427653    2.731793   -0.588831
  C      2.235034    3.500453   -1.535300
  H     -5.414741   -1.347480   -2.583844
  H     -5.212264   -2.719881   -1.445823
  H     -4.471009   -2.796702   -3.083931
  H     -2.564755    1.824060   -0.676975
  H     -3.694185   -4.675777    0.884799
  H     -2.193896   -5.083635   -0.017248
  H     -2.117917   -4.766155    1.741703
  H      2.968299    0.204122    0.535050
  H      3.322463   -2.238258    0.910572
  H      4.482775   -1.295877    1.873435
  H      3.057986   -2.015908    2.662621
  H      2.117456    1.646597    2.380808
  H      2.373125    0.321762    3.550403
  H      3.767904    1.076211    2.740277
  H      1.705788   -2.387256   -1.114300
  H      1.157175   -2.879269   -3.516226
  H     -0.206444   -2.089718   -2.688134
  H      0.836114   -1.148488   -3.792824
  H      3.598676   -2.259178   -2.776340
  H      3.242382   -0.533457   -3.032705
  H      3.819928   -1.105139   -1.442531
  H     -1.155800    3.659134    0.693293
  H     -1.880608    2.424758    3.415430
  H     -2.633060    3.879924    2.715479
  H     -2.855764    2.296228    1.929069
  H      1.031109    4.194016    1.739786
  H      0.473851    3.524579    3.295778
  H     -0.280212    4.997021    2.641604
  H      1.679207    4.379612   -1.875693
  H      2.503931    2.870293   -2.389333
  H      3.123748    3.795378   -0.974506
