51
  Isotropic shielding for P: 240.063 ppm
  O      5.502296   -2.020156    1.109666
  N      4.257279   -1.852097    1.060713
  O      3.451963   -2.744987    1.402647
  C      3.749723   -0.577654    0.587257
  C      4.692821    0.393501    0.238092
  C      4.268454    1.630294   -0.226233
  C      2.891577    1.941651   -0.366205
  C      1.963121    0.991744   -0.020039
  C      2.326187   -0.324427    0.487340
  O      1.372139   -1.103590    0.786824
  P     -0.665431    0.109196   -0.011925
  N      0.581978    1.223508   -0.122688
  C     -0.512609   -1.275771   -1.154876
  C      0.059311   -1.023858   -2.412892
  C      0.200578   -2.068909   -3.329746
  C     -0.229612   -3.358720   -2.996309
  C     -0.797664   -3.605418   -1.740155
  C     -0.937353   -2.568132   -0.814645
  C     -2.048291    1.131006   -0.622036
  C     -2.762431    0.801348   -1.783815
  C     -3.829600    1.605487   -2.199788
  C     -4.185927    2.739169   -1.462418
  C     -3.478356    3.068610   -0.298587
  C     -2.419520    2.264659    0.126559
  C     -1.207656   -0.317420    1.659125
  C     -2.465909   -0.924558    1.813027
  C     -2.942395   -1.217647    3.093633
  C     -2.182235   -0.878128    4.219002
  C     -0.942602   -0.245469    4.063490
  C     -0.448972    0.030142    2.785705
  N      5.256316    2.625545   -0.579540
  O      4.855551    3.737918   -1.004005
  O      6.475476    2.353323   -0.454455
  H      5.748924    0.175470    0.331646
  H      2.589562    2.916001   -0.738394
  H      0.309927    2.137932   -0.476312
  H      0.396154   -0.023053   -2.674657
  H      0.646855   -1.873779   -4.303081
  H     -0.118949   -4.171213   -3.712268
  H     -1.128119   -4.608408   -1.476521
  H     -1.361175   -2.771814    0.164758
  H     -2.498321   -0.078617   -2.363131
  H     -4.380975    1.342190   -3.100584
  H     -5.016485    3.362731   -1.788854
  H     -3.756991    3.945886    0.282346
  H     -1.888893    2.517007    1.042909
  H     -3.078165   -1.160101    0.945055
  H     -3.910944   -1.700186    3.209884
  H     -2.559240   -1.098413    5.216250
  H     -0.356171    0.031863    4.937479
  H      0.514801    0.516149    2.670652
