43
  Isotropic shielding for P: 110.125 ppm
  C      3.613001   -0.702221    1.758225
  C      3.540539   -1.308273    0.346150
  C      2.206045   -2.021173    0.103931
  O      1.080656   -1.107718    0.283957
  P      0.238292   -0.641551   -1.076356
  O     -0.458566    0.707386   -0.411851
  C      0.405856    1.860916   -0.181117
  C     -0.437522    3.137480   -0.177502
  C     -1.117175    3.373402   -1.537259
  C      0.446944    4.332409    0.226182
  O     -1.076459   -1.616829   -1.085635
  C     -1.955653   -1.808303    0.078399
  C     -3.304683   -1.111422   -0.121513
  C     -4.161359   -1.301087    1.145292
  C     -4.032767   -1.625513   -1.375346
  C      4.699973   -2.290487    0.093423
  H      3.555571   -1.492872    2.521197
  H      4.559643   -0.164131    1.900354
  H      2.790686    0.001490    1.933474
  H      3.609324   -0.490452   -0.389692
  H      2.063983   -2.839076    0.824301
  H      2.181294   -2.450390   -0.909163
  H      0.915312    1.724198    0.782319
  H      1.171953    1.913215   -0.972936
  H     -1.219021    3.009695    0.589018
  H     -0.362976    3.511260   -2.326335
  H     -1.742967    4.275083   -1.506481
  H     -1.752847    2.525430   -1.818349
  H      0.911565    4.173369    1.208673
  H      1.249784    4.489669   -0.508756
  H     -0.148553    5.252978    0.275602
  H     -1.453448   -1.437385    0.979061
  H     -2.092150   -2.894211    0.173815
  H     -3.103105   -0.037529   -0.246926
  H     -5.123334   -0.782770    1.041085
  H     -4.370507   -2.366440    1.321073
  H     -3.654204   -0.902716    2.034576
  H     -4.985404   -1.097297   -1.514090
  H     -4.251552   -2.699946   -1.283474
  H     -3.426446   -1.477767   -2.277153
  H      4.668466   -2.694053   -0.927790
  H      4.654643   -3.135842    0.795386
  H      5.667170   -1.790426    0.232238
