49
  Isotropic shielding for P: 97.074 ppm
  C      2.727458    0.303186    0.808162
  C      2.746791    0.310881   -0.727407
  C      4.081874    0.849653   -1.238777
  O      1.691485    1.251422   -1.205217
  P      0.211647    0.525427   -1.359711
  O      0.833065   -1.014103   -1.344891
  C      2.316375   -1.057326   -1.370813
  C      2.733981   -1.196110   -2.841132
  C      2.746356   -2.285296   -0.568355
  O     -0.384529    0.626058    0.192809
  C     -1.791095    0.949681    0.370171
  C     -1.940710    2.257396    1.122246
  C     -3.119647    3.004447    0.972986
  C     -3.306794    4.191521    1.689147
  C     -2.311842    4.647319    2.563825
  C     -1.131966    3.908348    2.713765
  C     -0.947589    2.719084    1.998219
  C     -2.465807   -0.227466    1.114568
  C     -2.289103   -1.541150    0.385858
  C     -1.477441   -2.553182    0.919284
  C     -1.264344   -3.747662    0.221496
  C     -1.859771   -3.944352   -1.029853
  C     -2.674774   -2.941809   -1.572191
  C     -2.888059   -1.752323   -0.867734
  H      2.810697    1.335680    1.166698
  H      1.804523   -0.128249    1.204871
  H      3.581017   -0.264920    1.196672
  H      4.056821    1.034096   -2.316677
  H      4.319763    1.790483   -0.728186
  H      4.882729    0.131432   -1.022318
  H      2.230991   -2.070658   -3.269798
  H      2.451129   -0.311310   -3.422716
  H      3.816435   -1.343721   -2.931003
  H      3.840380   -2.317116   -0.487219
  H      2.414082   -3.195319   -1.081523
  H      2.318262   -2.276895    0.437839
  H     -2.258564    1.054049   -0.620878
  H     -3.892830    2.656631    0.287783
  H     -4.224392    4.763670    1.559332
  H     -2.453023    5.573387    3.119020
  H     -0.351290    4.258665    3.387792
  H     -0.027042    2.151585    2.111094
  H     -2.037522   -0.291554    2.123406
  H     -3.531337    0.018635    1.223348
  H     -0.998821   -2.397122    1.885646
  H     -0.627107   -4.519725    0.650696
  H     -1.692117   -4.870170   -1.578195
  H     -3.145424   -3.087549   -2.543675
  H     -3.522819   -0.977847   -1.298356
