36
  Isotropic shielding for P: 23.585 ppm
  Cl     0.058014    2.173594    2.142379
  P     -0.266451    1.410785    0.000270
  N     -1.308885    0.070566    0.187049
  C     -2.771542    0.049228    0.444250
  C     -3.364961   -1.172297   -0.283889
  C     -3.404429    1.343997   -0.099422
  C     -3.020514   -0.067079    1.964387
  Si    -0.025343   -1.103137    0.037560
  N      1.014919    0.284865   -0.171282
  Si     2.752405    0.589981   -0.313632
  C      2.956027    2.342968   -0.957975
  C      3.436799   -0.685815   -1.511633
  C      3.548890    0.398275    1.378144
  C     -0.086599   -2.339605   -1.340695
  Cl     0.367688   -2.148120    1.817480
  H     -4.448508   -1.215819   -0.119166
  H     -2.930790   -2.106285    0.096866
  H     -3.176313   -1.111695   -1.362689
  H     -4.487620    1.325220    0.069977
  H     -3.221284    1.445944   -1.176583
  H     -2.999866    2.228524    0.410559
  H     -4.098391   -0.092225    2.170049
  H     -2.581653    0.787221    2.491918
  H     -2.570826   -0.986233    2.359420
  H      2.473166    2.468583   -1.936384
  H      4.022354    2.583093   -1.071087
  H      2.520479    3.074562   -0.263632
  H      4.517898   -0.541718   -1.647100
  H      3.280649   -1.706132   -1.135079
  H      2.954146   -0.606124   -2.494725
  H      4.630640    0.584950    1.321371
  H      3.398430   -0.617151    1.768641
  H      3.113017    1.106823    2.094441
  H      0.889345   -2.831383   -1.442947
  H     -0.842636   -3.109704   -1.145598
  H     -0.328153   -1.829060   -2.281142
