43
  Isotropic shielding for P: 241.650 ppm
  C     -0.372674   -0.715652    2.604433
  C     -1.335044    0.071232    1.690077
  P     -0.670248    0.147779   -0.058339
  N      0.792878    0.771768   -0.204008
  C      2.055343    0.302240    0.095981
  C      2.387188   -1.016801    0.514239
  C      3.708602   -1.389988    0.775010
  C      4.761744   -0.476140    0.634517
  C      4.459663    0.831215    0.221832
  C      3.143642    1.210328   -0.042246
  C     -0.896115   -1.615489   -0.650344
  C     -2.368793   -2.055188   -0.785661
  C     -0.072335   -1.928102   -1.916157
  C     -1.798494    1.263141   -1.026537
  C     -1.472599    2.755970   -0.800007
  C     -1.763725    0.976619   -2.543248
  C     -1.641835    1.448804    2.306114
  H      0.589976   -0.198922    2.696117
  H     -0.182030   -1.732591    2.245693
  H     -0.813430   -0.792776    3.607466
  H     -2.280652   -0.484697    1.609643
  H      1.601916   -1.755709    0.642088
  H      3.915483   -2.412067    1.094054
  H      5.788496   -0.772955    0.840914
  H      5.259076    1.563512    0.104923
  H      2.920008    2.227703   -0.362680
  H     -0.462069   -2.200620    0.172350
  H     -2.402895   -3.129606   -1.013056
  H     -2.883795   -1.529391   -1.597254
  H     -2.935444   -1.894803    0.138475
  H      0.961668   -1.579089   -1.824629
  H     -0.050479   -3.015602   -2.070313
  H     -0.508028   -1.473739   -2.811399
  H     -2.807967    1.048684   -0.644640
  H     -2.227073    3.362206   -1.319632
  H     -1.468406    3.048495    0.251868
  H     -0.489895    2.994755   -1.221204
  H     -0.743655    1.070810   -2.936251
  H     -2.390154    1.717367   -3.058127
  H     -2.144713   -0.014618   -2.800397
  H     -0.756129    2.096954    2.304765
  H     -1.952366    1.310320    3.350865
  H     -2.454342    1.964740    1.784805
