35
  Isotropic shielding for P: 231.842 ppm
  C     -2.212008    1.086700   -2.564421
  N     -2.483802    0.689826   -1.169883
  P     -1.280014    0.409514   -0.091745
  N      0.123508    0.372174   -0.831846
  S      1.189419   -0.823176   -0.932137
  O      1.545049   -1.024330   -2.344443
  O      0.787836   -2.028548   -0.185102
  C      2.631060   -0.137006   -0.105306
  C      3.785408    0.150292   -0.837883
  C      4.901783    0.675663   -0.174605
  C      4.855449    0.908447    1.204145
  C      3.690231    0.615772    1.927877
  C      2.572630    0.091017    1.275435
  N     -1.814894   -0.783097    0.908659
  C     -2.477379   -1.978365    0.340261
  C     -1.233173   -1.015618    2.243916
  Cl    -1.173750    2.088055    1.187457
  C     -3.835779    1.034356   -0.686897
  H     -2.264239    2.179340   -2.678972
  H     -2.973222    0.625348   -3.205904
  H     -1.224754    0.735793   -2.867458
  H      3.808785   -0.034333   -1.908347
  H      5.805161    0.901655   -0.738412
  H      5.724565    1.317247    1.716655
  H      3.652939    0.796061    3.000770
  H      1.666821   -0.136407    1.831358
  H     -3.296281   -2.272694    1.009031
  H     -1.759960   -2.805206    0.254785
  H     -2.885645   -1.755772   -0.647431
  H     -0.749821   -0.111337    2.618404
  H     -0.493599   -1.826059    2.201516
  H     -2.039742   -1.295971    2.933495
  H     -4.575325    0.547611   -1.334272
  H     -3.991832    2.122353   -0.717732
  H     -3.975324    0.680397    0.337434
