28
  Isotropic shielding for P: 310.843 ppm
  C     -2.595323    0.346272    2.522234
  O     -1.368579    0.642580    1.785064
  P     -0.986706    0.052185    0.329060
  O     -1.663004    0.743023   -0.966786
  C     -1.128156    1.843044   -1.762331
  O     -2.162170   -1.110933    0.397273
  C     -2.443467   -2.000174   -0.707063
  O      0.165697   -1.154691    0.102325
  C      1.473111   -0.707781   -0.010699
  C      1.555362    0.677819    0.148556
  O      0.343413    1.243314    0.372932
  C      2.784872    1.327707    0.074784
  C      3.926398    0.539123   -0.161201
  C      3.832241   -0.850425   -0.316496
  C      2.584616   -1.500785   -0.241366
  H     -2.574055    1.024404    3.380603
  H     -3.475681    0.544771    1.904341
  H     -2.598422   -0.693859    2.858543
  H     -1.076609    2.758710   -1.167171
  H     -0.139858    1.591853   -2.157147
  H     -1.840262    1.964567   -2.583895
  H     -1.573004   -2.625435   -0.939345
  H     -2.739357   -1.432555   -1.597530
  H     -3.274737   -2.635080   -0.382949
  H      2.852332    2.406689    0.197541
  H      4.899837    1.022402   -0.223306
  H      4.729844   -1.438204   -0.497500
  H      2.491468   -2.578341   -0.358674
