11
  Isotropic shielding for P: 153.540 ppm
  Cl     2.115141   -1.067456    1.467473
  P      1.465559    0.244036   -0.021591
  S      2.897589    1.249701   -0.820542
  O      0.560365   -0.709909   -0.962641
  C     -0.882062   -0.459098   -0.735647
  C     -0.977793    0.302662    0.595214
  O      0.276693    1.079809    0.688879
  H     -1.383101   -1.429513   -0.698978
  H     -1.239942    0.134327   -1.582605
  H     -1.033207   -0.366952    1.460137
  H     -1.799145    1.022491    0.610303
