32
  Isotropic shielding for P: 221.834 ppm
  C     -3.448024   -2.122292   -1.107270
  N     -2.047383   -1.950162   -0.662705
  P     -1.390375   -0.607028    0.065376
  N      0.163862   -0.875631    0.443454
  C      0.901885    0.138552   -0.140066
  N      0.287057    1.087608   -0.843181
  N     -1.092641    0.807735   -0.790049
  C     -2.012875    1.662767   -1.525658
  C      2.366611    0.166810    0.012275
  C      3.144624    1.189876   -0.567084
  C      4.531639    1.197125   -0.416821
  C      5.171902    0.184971    0.315160
  C      4.406968   -0.834069    0.895106
  C      3.016876   -0.844080    0.745416
  N     -2.568065   -0.270411    1.179889
  C     -2.528445    0.908673    2.061276
  H     -4.129601   -1.694036   -0.367901
  H     -3.662778   -3.193701   -1.193038
  H     -3.639787   -1.642989   -2.077871
  H     -1.369984   -2.442363   -1.242660
  H     -1.939448    2.703045   -1.180425
  H     -1.812110    1.628472   -2.605724
  H     -3.033656    1.307311   -1.347516
  H      2.650660    1.975175   -1.134403
  H      5.117616    1.994430   -0.871963
  H      6.254368    0.192824    0.430363
  H      4.892552   -1.624891    1.465491
  H      2.418555   -1.634071    1.192263
  H     -3.074118   -1.067130    1.560448
  H     -1.980031    0.710971    2.992927
  H     -2.042036    1.737432    1.537909
  H     -3.553619    1.209173    2.307882
