48
  Isotropic shielding for P: 253.304 ppm
  C     -1.885654    2.209469    3.025418
  C     -1.846296    1.699995    1.581987
  N     -0.495888    1.213010    1.232259
  P     -0.313695    0.221675   -0.127585
  N     -0.777607    0.731284   -1.547571
  C     -0.183990    1.963963   -2.079261
  C     -1.102525    2.593180   -3.136728
  N      1.347978   -0.088887   -0.012201
  C      1.952227   -0.804092   -1.156320
  C      3.262317   -0.181710   -1.657661
  C      2.092802   -0.187654    1.264735
  C      2.944436    1.049436    1.589504
  N     -1.255833   -1.118653    0.224305
  C     -1.046318   -1.852933    1.483335
  C     -0.170924   -3.113089    1.371341
  C     -2.253511   -1.656902   -0.718653
  C     -1.690487   -2.586841   -1.805812
  H     -1.179687    3.039838    3.166468
  H     -1.619966    1.409553    3.728708
  H     -2.890936    2.574714    3.275086
  H     -2.178224    2.495813    0.894435
  H     -2.541971    0.860961    1.459006
  H      0.209898    1.944389    1.304131
  H      0.800123    1.765680   -2.546136
  H      0.009425    2.720134   -1.292196
  H     -0.651733    3.500628   -3.564170
  H     -2.072114    2.862272   -2.694752
  H     -1.289337    1.882544   -3.954332
  H      1.217086   -0.804455   -1.968122
  H      2.129549   -1.857424   -0.876938
  H      3.114495    0.872692   -1.924026
  H      4.057360   -0.240544   -0.904201
  H      3.608087   -0.720894   -2.550505
  H      2.739236   -1.076138    1.208763
  H      1.390626   -0.359136    2.086950
  H      3.476796    0.897873    2.539447
  H      2.319232    1.945329    1.696017
  H      3.686622    1.246900    0.807984
  H     -2.035878   -2.127532    1.880417
  H     -0.601851   -1.162987    2.209450
  H      0.811334   -2.872470    0.947397
  H     -0.640605   -3.874876    0.738000
  H     -0.017898   -3.549966    2.368395
  H     -2.765508   -0.814946   -1.196179
  H     -2.997429   -2.196860   -0.114450
  H     -0.949861   -2.054513   -2.414268
  H     -2.501479   -2.923843   -2.467762
  H     -1.212625   -3.473790   -1.373812
