54
  Isotropic shielding for P: 231.627 ppm
  C      8.494778    0.118035   -1.029539
  C      7.371992    0.245908   -0.311723
  C      6.603030   -0.887147    0.312805
  C      5.169539   -1.018576   -0.250468
  C      4.366984   -2.140727    0.428127
  C      2.957503   -2.355075   -0.160721
  C      2.005457   -1.144301   -0.069776
  C      1.714693   -0.681373    1.368423
  C      0.731250    0.500776    1.463031
  C     -0.692781    0.136969    1.008069
  C     -1.696844    1.271236    1.147523
  O     -1.374542    2.452653    1.107651
  P     -3.468594    0.729948    1.564978
  C     -3.745830   -0.585726    0.311141
  C     -3.402294   -0.430229   -1.045192
  C     -3.622998   -1.467228   -1.954602
  C     -4.192248   -2.672944   -1.521502
  C     -4.539802   -2.836783   -0.176268
  C     -4.315270   -1.798199    0.735582
  C     -4.452366    2.162438    0.977668
  C     -4.303762    3.380651    1.670418
  C     -5.052474    4.502800    1.303417
  C     -5.978203    4.420175    0.255246
  C     -6.148787    3.207093   -0.422322
  C     -5.390501    2.085682   -0.066539
  H      8.951531   -0.858388   -1.201707
  H      8.997410    0.980360   -1.466792
  H      6.945556    1.243927   -0.167408
  H      6.530558   -0.719942    1.400929
  H      7.147147   -1.832650    0.168801
  H      5.224705   -1.209371   -1.333973
  H      4.650913   -0.056089   -0.129988
  H      4.928939   -3.083463    0.337205
  H      4.296934   -1.931838    1.506452
  H      2.488791   -3.210714    0.350867
  H      3.057386   -2.645102   -1.218678
  H      1.062897   -1.416761   -0.566762
  H      2.416252   -0.298324   -0.642075
  H      2.654579   -0.383781    1.854748
  H      1.321234   -1.530115    1.952054
  H      0.687867    0.855500    2.503075
  H      1.103718    1.341260    0.861240
  H     -0.701048   -0.149991   -0.054878
  H     -1.066592   -0.742442    1.552564
  H     -2.963310    0.503478   -1.391805
  H     -3.350580   -1.336537   -3.000827
  H     -4.362813   -3.480635   -2.231598
  H     -4.982603   -3.771121    0.165109
  H     -4.581455   -1.929884    1.783373
  H     -3.603512    3.451178    2.500441
  H     -4.919011    5.439675    1.842596
  H     -6.567102    5.292063   -0.025207
  H     -6.872229    3.130778   -1.233017
  H     -5.533892    1.152775   -0.605466
