20
  Isotropic shielding for P: 179.297 ppm
  C     -0.993991   -1.634734    0.201877
  O     -0.910146   -0.473428    1.077342
  N     -0.381387    0.752403    0.474632
  P      1.317743    0.854101   -0.089628
  C      2.110490    0.015442    1.354911
  C      1.588555   -0.412384   -1.432121
  O     -1.194493    1.095173   -0.677316
  C     -2.352963    1.845463   -0.237025
  H     -1.340936   -1.346209   -0.795710
  H     -0.031658   -2.155684    0.141225
  H     -1.737724   -2.286932    0.673180
  H      1.747788   -1.009156    1.494764
  H      1.930405    0.599477    2.264736
  H      3.191455   -0.007367    1.164757
  H      2.572624   -0.194381   -1.869420
  H      0.834210   -0.279596   -2.216298
  H      1.577189   -1.447643   -1.077609
  H     -2.916139    2.065815   -1.150597
  H     -2.967731    1.242971    0.443548
  H     -2.043087    2.776768    0.254556
