24
  Isotropic shielding for P: 191.619 ppm
  Cl    -2.569408    0.591769   -2.621732
  C     -1.996268   -0.537197   -1.289733
  C     -1.263073    0.191657   -0.148810
  C     -2.194784    1.169665    0.593350
  C     -0.805795   -0.885756    0.860511
  O      0.189493   -1.812560    0.275446
  P      1.488433   -1.188697   -0.432654
  S      2.484068   -2.453988   -1.511378
  O      0.944622    0.057712   -1.302360
  C     -0.029565    0.961354   -0.650842
  O      2.244272   -0.547409    0.838115
  C      3.495825    0.190470    0.652865
  H     -2.896729   -1.027815   -0.912517
  H     -1.357740   -1.266031   -1.789814
  H     -1.669384    1.645484    1.430179
  H     -2.549505    1.954615   -0.083685
  H     -3.068400    0.636228    0.988496
  H     -1.636369   -1.529076    1.164856
  H     -0.363094   -0.415039    1.745689
  H     -0.295026    1.688300   -1.421345
  H      0.467203    1.473622    0.181434
  H      3.809059    0.496430    1.653474
  H      4.248887   -0.463329    0.199597
  H      3.323280    1.069491    0.022165
