53
  Isotropic shielding for P: 195.768 ppm
  Se    -2.759514    3.878970   -0.891556
  P     -1.995643    1.869076   -0.680436
  C     -2.031728    1.306339    1.051297
  C     -0.894753    1.406731    1.869673
  C     -0.969362    1.045435    3.218479
  C     -2.176121    0.588371    3.759078
  C     -3.314043    0.492704    2.946688
  C     -3.244406    0.851476    1.598979
  C     -2.915907    0.618300   -1.643715
  C     -2.841775   -0.743023   -1.298690
  C     -3.490343   -1.699228   -2.085220
  C     -4.211268   -1.306064   -3.219518
  C     -4.284603    0.048423   -3.565746
  C     -3.640454    1.008654   -2.779352
  C     -0.243677    1.742394   -1.248579
  C      0.327574    0.322647   -1.254493
  As     2.335510    0.385194   -1.449130
  C      2.731989   -1.539162   -1.184801
  C      4.082325   -1.902051   -1.042356
  C      4.447765   -3.243171   -0.887497
  C      3.464928   -4.242352   -0.887814
  C      2.119576   -3.889789   -1.040178
  C      1.753566   -2.544264   -1.186614
  C      2.656662    1.006615    0.412097
  C      2.551192    0.157648    1.524137
  C      2.702123    0.666509    2.818460
  C      2.950249    2.031439    3.014423
  C      3.058123    2.883663    1.909819
  C      2.919221    2.370379    0.613077
  H      0.050328    1.761396    1.470758
  H     -0.080438    1.119236    3.841122
  H     -2.231334    0.307171    4.809455
  H     -4.255626    0.138297    3.362613
  H     -4.132624    0.777708    0.974888
  H     -2.289483   -1.059461   -0.417946
  H     -3.433555   -2.750868   -1.809516
  H     -4.717674   -2.052974   -3.828758
  H     -4.846922    0.359343   -4.444598
  H     -3.704575    2.063806   -3.037903
  H      0.321629    2.426028   -0.602384
  H     -0.236763    2.181496   -2.253815
  H      0.108288   -0.216379   -0.327766
  H     -0.071256   -0.252045   -2.095685
  H      4.855920   -1.133678   -1.046053
  H      5.497703   -3.508677   -0.770630
  H      3.747409   -5.287586   -0.771710
  H      1.349563   -4.660430   -1.041914
  H      0.700949   -2.294790   -1.296047
  H      2.343174   -0.901473    1.385246
  H      2.615775   -0.000434    3.675272
  H      3.060095    2.427199    4.022903
  H      3.252530    3.945555    2.054465
  H      3.009782    3.039898   -0.242207
