24
  Isotropic shielding for P: 56.870 ppm
  C      3.336109   -0.188269    0.496572
  C      2.307819   -0.066830   -0.640649
  C      1.092471    0.790975   -0.235191
  P     -0.070386    1.046060   -1.653444
  O     -1.372754    1.778186   -0.867115
  C     -2.008272    1.132537    0.193223
  C     -2.219466    1.779785    1.340786
  C     -2.446207   -0.283842   -0.149181
  C     -1.328019   -1.125569   -0.744916
  C     -0.951507   -2.346526   -0.360688
  O     -0.706174   -0.508608   -1.830109
  Cl    -3.762928   -0.121009   -1.496218
  Cl    -3.222903   -1.100187    1.251976
  H      4.190324   -0.806123    0.189376
  H      3.717886    0.799804    0.788277
  H      2.883906   -0.650646    1.384771
  H      2.790105    0.371110   -1.527705
  H      1.965505   -1.068755   -0.934389
  H      1.416293    1.802119    0.058283
  H      0.573085    0.351239    0.627409
  H     -2.766702    1.329089    2.159530
  H     -1.841488    2.792399    1.457899
  H     -1.454983   -2.875420    0.439217
  H     -0.121813   -2.831416   -0.868615
