35
  Isotropic shielding for P: 295.576 ppm
  C      4.331419    1.045214    1.476590
  C      3.839954   -0.389545    1.214204
  C      2.416999   -0.474919    0.623891
  C      2.325370    0.132996   -0.774141
  O      0.953786    0.013771   -1.310937
  C      0.623685   -1.145750   -1.933557
  O      1.397323   -2.075923   -2.118933
  P     -1.117260   -1.077728   -2.629824
  C     -2.163687   -0.442973   -1.207853
  C     -2.146056    1.113439   -1.151763
  C     -2.549938    1.643434    0.248533
  C     -3.589118    0.722608    0.909844
  C     -2.988645   -0.682628    1.187150
  C     -1.874267   -1.061608    0.172778
  H      3.630091    1.585460    2.128491
  H      4.435831    1.620479    0.547290
  H      5.311877    1.036923    1.970793
  H      4.542094   -0.904643    0.540330
  H      3.850250   -0.952193    2.158626
  H      2.108490   -1.527318    0.570555
  H      1.706204    0.040299    1.286776
  H      2.504402    1.211280   -0.770431
  H      3.017393   -0.352493   -1.470820
  H     -1.337286   -2.471367   -2.451621
  H     -3.170529   -0.766793   -1.518175
  H     -1.149447    1.494694   -1.405905
  H     -2.839307    1.499056   -1.911871
  H     -2.937839    2.666872    0.155100
  H     -1.660623    1.704247    0.893760
  H     -4.458933    0.631781    0.241568
  H     -3.959657    1.164199    1.844648
  H     -3.788528   -1.435434    1.153465
  H     -2.567594   -0.714034    2.202065
  H     -0.902615   -0.697876    0.530420
  H     -1.793841   -2.153324    0.094855
