40
  Isotropic shielding for P: 81.785 ppm
  C     -1.624625    4.602836   -2.343313
  C     -0.309249    4.145248   -2.498446
  C      0.099623    2.958754   -1.886355
  C     -0.801704    2.197842   -1.114882
  C     -2.121636    2.668604   -0.965508
  C     -2.527094    3.860988   -1.571113
  C     -0.350347    0.932640   -0.476708
  C     -1.273180   -0.096003   -0.213363
  C     -0.948206   -1.299481    0.412169
  P      0.693565   -1.690212    0.924256
  C      1.525516   -0.217187    0.379198
  N      0.967297    0.853746   -0.198521
  C      2.992878   -0.133930    0.616770
  C      3.806432   -1.283897    0.591844
  C      5.180262   -1.191495    0.831419
  C      5.765812    0.051096    1.103901
  C      4.966624    1.202221    1.129099
  C      3.594780    1.111973    0.884609
  C     -2.006251   -2.312907    0.648300
  C     -2.989391   -2.564469   -0.330204
  C     -3.978823   -3.527081   -0.115063
  C     -4.009523   -4.252471    1.082849
  C     -3.040066   -4.009621    2.063832
  C     -2.045394   -3.052399    1.847468
  H     -1.942419    5.530010   -2.817533
  H      0.398247    4.713607   -3.100415
  H      1.119199    2.602600   -2.007934
  H     -2.831637    2.118198   -0.352199
  H     -3.547839    4.214323   -1.433661
  H     -2.308980    0.063836   -0.505859
  H      3.366736   -2.251872    0.358370
  H      5.795240   -2.089340    0.795613
  H      6.835984    0.122752    1.291263
  H      5.413987    2.171719    1.343907
  H      2.972980    2.003432    0.909762
  H     -2.963034   -2.020668   -1.272532
  H     -4.724066   -3.715358   -0.886397
  H     -4.782873   -5.000229    1.250542
  H     -3.061576   -4.561669    3.002112
  H     -1.306849   -2.856431    2.622823
