20
  Isotropic shielding for P: 163.089 ppm
  C     -1.440499   -1.331205   -0.362012
  C     -0.623989   -0.057245   -0.056950
  C     -1.554476    1.101172    0.360562
  C      0.365960   -0.309576    1.108084
  O      1.657006   -0.863582    0.620030
  P      2.530636    0.130739   -0.289417
  S      3.863660   -0.772908   -1.353892
  O      1.419727    1.045556   -1.014286
  C      0.164837    0.313927   -1.337605
  Cl     3.317441    1.543089    1.018327
  H     -0.776664   -2.184317   -0.552924
  H     -2.091748   -1.577990    0.485898
  H     -2.073125   -1.183630   -1.247219
  H     -0.988521    2.034687    0.475574
  H     -2.332729    1.255304   -0.397453
  H     -2.048228    0.879312    1.316031
  H     -0.010678   -1.061235    1.805927
  H      0.584707    0.612781    1.657492
  H     -0.396931    1.000882   -1.974901
  H      0.433712   -0.575866   -1.918371
