35
  Isotropic shielding for P: 221.208 ppm
  C      4.632578   -0.130219   -0.282208
  C      3.525583   -1.166744    0.003251
  C      2.492544   -0.663381    0.969698
  N      1.298590   -0.433267    0.579005
  O      0.442719    0.067582    1.622428
  P     -1.092078    0.433005    1.084506
  O     -1.841096    0.909690    2.291028
  C     -1.766893   -1.070092    0.348366
  C     -2.712753   -1.802408    1.086654
  C     -3.240605   -2.987377    0.565960
  C     -2.827803   -3.443746   -0.691848
  C     -1.887312   -2.714327   -1.431126
  C     -1.356149   -1.529301   -0.915488
  C     -0.860732    1.667828   -0.211571
  C     -1.839389    1.822427   -1.208791
  C     -1.718531    2.844560   -2.154628
  C     -0.622979    3.715474   -2.109541
  C      0.351989    3.566494   -1.114834
  C      0.235359    2.547518   -0.165777
  Cl     3.035684   -0.390421    2.631484
  H      5.176869    0.132318    0.632221
  H      5.347900   -0.548901   -0.999860
  H      4.205822    0.785333   -0.710026
  H      3.965445   -2.084198    0.418348
  H      3.002309   -1.433231   -0.923022
  H     -3.034032   -1.438841    2.060259
  H     -3.975028   -3.550625    1.139034
  H     -3.241728   -4.365156   -1.098354
  H     -1.569609   -3.067787   -2.410452
  H     -0.628845   -0.965458   -1.493143
  H     -2.691974    1.147603   -1.250584
  H     -2.477432    2.958860   -2.926587
  H     -0.528272    4.508690   -2.849328
  H      1.204500    4.242494   -1.079512
  H      0.995152    2.436000    0.604136
