32
  Isotropic shielding for P: 237.688 ppm
  C     -3.861381   -1.936860    0.440149
  C     -2.627353   -2.811619    0.613020
  O     -1.505250   -2.068766    1.218167
  P     -0.535409   -1.145129    0.320317
  O     -0.185611   -1.707482   -1.021450
  C      0.847957   -0.898793    1.480948
  C      1.826505    0.134656    0.971616
  C      2.766148   -0.195284   -0.018728
  C      3.639003    0.774388   -0.522477
  C      3.585975    2.088301   -0.039548
  C      2.656770    2.423326    0.952427
  C      1.781595    1.452621    1.450958
  O     -1.262112    0.295080    0.256028
  C     -1.534314    0.975248   -1.023797
  C     -0.363622    1.848984   -1.445887
  H     -4.695331   -2.560916    0.090694
  H     -4.150223   -1.476869    1.393425
  H     -3.694913   -1.143875   -0.298143
  H     -2.290132   -3.232781   -0.341372
  H     -2.814158   -3.631261    1.314379
  H      1.321707   -1.881240    1.605267
  H      0.419441   -0.600854    2.445401
  H      2.808725   -1.214727   -0.399130
  H      4.361927    0.504139   -1.290920
  H      4.266092    2.843317   -0.430810
  H      2.609800    3.441600    1.335794
  H      1.052562    1.718545    2.215319
  H     -1.767843    0.218669   -1.780487
  H     -2.432703    1.570561   -0.829149
  H     -0.628058    2.382321   -2.369513
  H      0.531356    1.246065   -1.637002
  H     -0.127254    2.588434   -0.672398
