42
  Isotropic shielding for P: 244.367 ppm
  C     -3.176112    2.478661   -0.888294
  C     -2.799893    1.745831    0.392201
  O     -1.310174    1.794938    0.496837
  P     -0.486464    0.439590    0.699784
  O     -0.864411   -0.394900    1.880259
  C      1.269691    1.051782    0.723410
  C      2.172235   -0.178378    0.579126
  C      2.236895   -1.144456    1.600885
  C      3.009603   -2.296882    1.452011
  C      3.745951   -2.507137    0.278478
  C      3.695009   -1.552407   -0.739990
  C      2.911361   -0.400883   -0.593644
  S      1.475376    1.854453    2.414236
  C      1.478658    2.115852   -0.370953
  O     -0.647324   -0.290613   -0.723557
  C     -0.610956   -1.775718   -0.862646
  C     -2.027510   -2.314386   -0.695349
  C     -0.004891   -2.058778   -2.230130
  C     -3.374436    2.363595    1.660498
  H     -2.846416    3.524892   -0.843817
  H     -2.716454    1.997451   -1.759334
  H     -4.266310    2.462756   -1.015877
  H     -3.096231    0.691384    0.320933
  H      1.675132   -0.989674    2.516872
  H      3.039275   -3.031338    2.255555
  H      4.352932   -3.403659    0.163104
  H      4.261716   -1.699685   -1.658109
  H      2.881774    0.315866   -1.407967
  H      2.654501    2.448166    2.109430
  H      2.530526    2.425749   -0.390671
  H      1.213669    1.723275   -1.359546
  H      0.858580    2.992029   -0.171302
  H      0.040476   -2.164947   -0.071727
  H     -2.420932   -2.069524    0.297024
  H     -2.022142   -3.406416   -0.809561
  H     -2.691683   -1.887745   -1.458386
  H      0.999099   -1.628732   -2.307539
  H      0.069156   -3.143495   -2.380100
  H     -0.636527   -1.641117   -3.025287
  H     -3.058472    1.799253    2.545426
  H     -3.043284    3.405022    1.765288
  H     -4.471197    2.350523    1.612426
