30
  Isotropic shielding for P: 124.186 ppm
  C      5.676996    0.397011   -0.048519
  C      5.082567    0.949556   -1.191250
  C      3.699037    0.867664   -1.379653
  C      2.913423    0.220071   -0.419845
  C      3.494121   -0.347742    0.720729
  C      4.879035   -0.248872    0.903405
  O      1.543344    0.126660   -0.669133
  P      0.430132    0.463008    0.540142
  O     -0.574139    1.323443   -0.527433
  N     -1.801050    1.547735    0.339566
  C     -2.829567    0.603115    0.070602
  C     -2.717154   -0.722487    0.567818
  N     -1.546130   -1.151531    1.244939
  N     -0.298164   -1.101078    0.523007
  C     -3.820139   -1.582383    0.456481
  C     -5.018188   -1.147283   -0.119733
  C     -5.121602    0.153338   -0.626791
  C     -4.022207    1.013364   -0.543790
  H      6.753454    0.466282    0.096284
  H      5.695335    1.452703   -1.937524
  H      3.220562    1.299773   -2.256338
  H      2.874088   -0.867777    1.448120
  H      5.332503   -0.687302    1.790934
  H     -2.083220    2.484716    0.044575
  H     -1.656743   -2.088275    1.631241
  H     -0.379119   -1.516914   -0.416041
  H     -3.732826   -2.599421    0.838220
  H     -5.862175   -1.831578   -0.187133
  H     -6.044632    0.493751   -1.091843
  H     -4.087747    2.030358   -0.930335
