17
  Isotropic shielding for P: 236.275 ppm
  N      0.172260    1.632955    0.442423
  C      0.059504    0.166930    0.528950
  P      1.719592   -0.644274    0.638670
  O      2.608166   -0.090795    1.714578
  O      2.265491   -0.466600   -0.884371
  C     -0.789691   -0.444183   -0.597530
  C     -2.280649   -0.126028   -0.532839
  Br    -2.781185    1.625120   -1.401969
  H      0.783910    1.981989    1.184340
  H      0.598688    1.904013   -0.446888
  H     -0.411071   -0.080548    1.494268
  H      1.500718   -2.040294    0.770395
  H      3.172692   -0.810529   -1.012878
  H     -0.378120   -0.174219   -1.578058
  H     -0.714406   -1.541290   -0.523804
  H     -2.871545   -0.853109   -1.091057
  H     -2.654355   -0.039137    0.489470
