33
  Isotropic shielding for P: 197.491 ppm
  C     -2.240681   -1.448551    1.263371
  C     -1.347834   -1.776570    0.054612
  P     -0.177389   -0.445178   -0.598007
  C      1.069368   -0.390942    0.826882
  O      0.864769   -0.919074    1.907798
  C      2.559727    0.087412    0.581346
  C      3.383797   -1.070849   -0.021701
  F      3.189470   -2.214837    0.694584
  F      4.723120   -0.808251    0.004168
  F      3.052894   -1.343627   -1.315353
  C      2.728555    1.401834   -0.186330
  F      2.005045    2.387157    0.427361
  F      2.309385    1.336906   -1.481638
  F      4.026415    1.823145   -0.206631
  C     -1.193693    1.162169   -0.421584
  C     -1.219273    1.819186    0.969360
  C     -0.864870    2.175617   -1.532711
  C     -2.198701   -2.255560   -1.143248
  H     -2.812036   -2.345824    1.542669
  H     -2.967230   -0.662620    1.021826
  H     -1.656585   -1.133207    2.132111
  H     -0.660533   -2.588887    0.334223
  H      2.974879    0.264859    1.581152
  H     -2.197234    0.761737   -0.631687
  H     -0.258045    2.286658    1.207514
  H     -1.985494    2.608081    0.980852
  H     -1.458611    1.107684    1.764194
  H      0.111882    2.647204   -1.382363
  H     -1.622776    2.971967   -1.529637
  H     -0.869133    1.703442   -2.522556
  H     -2.862513   -1.457567   -1.504584
  H     -1.573846   -2.585681   -1.982462
  H     -2.832727   -3.097934   -0.833331
