22
  Isotropic shielding for P: 186.053 ppm
  C     -2.479701   -0.656733   -0.333425
  C     -0.970771   -0.906278   -0.175977
  C     -0.480421   -1.006497    1.255573
  C      0.688072   -0.422988    1.561736
  C      1.452822    0.266262    0.447387
  P      0.129335    0.433399   -0.864515
  S      0.662219    0.253038   -2.772538
  C     -0.686308    2.026187   -0.492806
  C      2.691893   -0.523924   -0.017180
  H     -2.800375    0.233253    0.220712
  H     -3.039440   -1.517847    0.054048
  H     -2.748266   -0.525137   -1.389097
  H     -0.704319   -1.819263   -0.731387
  H     -1.085297   -1.540638    1.988886
  H      1.117834   -0.450314    2.563167
  H      1.764099    1.277701    0.745621
  H     -0.972089    2.069458    0.564799
  H     -1.573585    2.139550   -1.123609
  H      0.022357    2.831000   -0.717238
  H      2.416133   -1.530240   -0.355054
  H      3.400262   -0.622033    0.815782
  H      3.195346   -0.007853   -0.843189
