28
  Isotropic shielding for P: 291.173 ppm
  C      4.828953   -0.056764   -0.575241
  C      3.318272    0.039545   -0.510531
  O      2.875145   -0.719886    0.694634
  P      1.363890   -0.853842    1.110487
  O      1.161389   -1.641409    2.345747
  O      0.626853   -1.446794   -0.208462
  C     -0.735423   -1.159047   -0.415424
  C     -1.475643   -2.023271   -1.189340
  C     -2.841710   -1.731706   -1.428136
  C     -3.433186   -0.602337   -0.894033
  C     -2.682741    0.302955   -0.093601
  C     -1.295150    0.015755    0.151796
  C     -0.544668    0.923440    0.944098
  O      0.821024    0.674183    1.175477
  C     -1.101243    2.063096    1.478178
  C     -2.468795    2.339671    1.230074
  C     -3.242203    1.483924    0.468497
  H      5.182347    0.495386   -1.456082
  H      5.289597    0.384243    0.317090
  H      5.152997   -1.100449   -0.668326
  H      2.835514   -0.415012   -1.382070
  H      2.972906    1.072205   -0.394033
  H     -1.007420   -2.913251   -1.603241
  H     -3.425438   -2.416849   -2.039816
  H     -4.484082   -0.387853   -1.079801
  H     -0.490380    2.730879    2.081060
  H     -2.907490    3.240538    1.654736
  H     -4.292914    1.702351    0.286265
