60
  Isotropic shielding for P: 267.105 ppm
  C      0.491570   -1.934142   -1.836880
  C      0.088450   -0.661205   -1.804846
  P      0.034518    0.328668   -0.278844
  N      0.827225   -0.223726    0.940428
  Si     2.190772   -1.082846    1.481840
  C      2.990137   -0.145283    2.921681
  C      1.648175   -2.779967    2.135844
  C      3.525911   -1.366413    0.166677
  C     -1.753436    0.581108    0.141515
  Si    -3.077543    0.852229   -1.233230
  C     -3.460210   -0.716770   -2.205368
  C     -4.630835    1.409197   -0.316740
  C     -2.557372    2.213413   -2.433288
  C     -2.216896   -0.476648    1.120078
  C     -2.229218   -1.842013    0.782572
  C     -2.647206   -2.805036    1.705246
  C     -3.071119   -2.423434    2.984436
  C     -3.066988   -1.067119    3.331270
  C     -2.639700   -0.106794    2.407810
  C      0.586425    2.010148   -0.845206
  C      2.075003    2.046442   -1.060275
  C      2.633978    1.683314   -2.297352
  C      4.020779    1.675060   -2.479424
  C      4.871510    2.029715   -1.424708
  C      4.323811    2.393038   -0.188301
  C      2.937250    2.397069   -0.008702
  H      0.820607   -2.451099   -0.937475
  H      0.497917   -2.508015   -2.763496
  H     -0.244991   -0.165595   -2.718862
  H      3.371111    0.830832    2.592555
  H      2.261406    0.030730    3.726056
  H      3.831556   -0.712233    3.346452
  H      0.889216   -2.669537    2.923558
  H      2.495512   -3.340535    2.557699
  H      1.206867   -3.389677    1.334562
  H      4.383911   -1.899795    0.602800
  H      3.148482   -1.967681   -0.670276
  H      3.888948   -0.414638   -0.239137
  H     -1.740043    1.547571    0.670950
  H     -3.864918   -1.507669   -1.562490
  H     -4.219094   -0.479124   -2.965021
  H     -2.578118   -1.111872   -2.722699
  H     -4.441128    2.321039    0.266207
  H     -5.436078    1.625593   -1.032770
  H     -4.987997    0.634024    0.373238
  H     -1.734009    1.902619   -3.088902
  H     -2.252080    3.127139   -1.906642
  H     -3.414074    2.465416   -3.074793
  H     -1.898839   -2.157470   -0.202927
  H     -2.640779   -3.857488    1.424288
  H     -3.398581   -3.173874    3.702298
  H     -3.391440   -0.755201    4.323327
  H     -2.629350    0.946109    2.688056
  H      0.040857    2.266475   -1.758909
  H      0.282286    2.706704   -0.054127
  H      1.977490    1.409821   -3.122322
  H      4.437674    1.393690   -3.445575
  H      5.951203    2.023699   -1.565943
  H      4.976923    2.667846    0.638751
  H      2.514758    2.673885    0.955431
