40
  Isotropic shielding for P: 266.965 ppm
  C      0.549454    2.930522    2.122870
  C     -0.131365    2.452280    0.854158
  O      0.578973    1.238698    0.392719
  P      0.103027    0.445853   -0.917058
  N      0.939418   -0.844923   -1.151871
  C      2.320395   -1.038047   -1.078795
  C      3.276578    0.006767   -1.092411
  C      4.645247   -0.271045   -1.040139
  C      5.107513   -1.592696   -0.975603
  C      4.172246   -2.637259   -0.965402
  C      2.802656   -2.366780   -1.015795
  O      0.019640    1.580726   -2.078859
  C     -1.244607    1.468170   -2.820863
  C     -2.297252    0.989645   -1.813194
  N     -1.550147    0.131518   -0.869018
  C     -2.210595   -0.581427    0.155808
  C     -3.614231   -0.530510    0.270268
  C     -4.264663   -1.234719    1.289577
  C     -3.539620   -1.995174    2.212346
  C     -2.143544   -2.044474    2.100311
  C     -1.480483   -1.350662    1.087209
  H      0.038536    3.830886    2.488719
  H      0.502463    2.163446    2.905650
  H      1.600109    3.182078    1.932528
  H     -1.179895    2.184437    1.033348
  H     -0.082366    3.200177    0.054523
  H      2.940888    1.041305   -1.146806
  H      5.356693    0.554529   -1.052533
  H      6.174614   -1.804064   -0.936530
  H      4.511461   -3.671784   -0.916824
  H      2.078467   -3.180431   -1.008557
  H     -1.103838    0.746380   -3.634314
  H     -1.470736    2.456378   -3.227613
  H     -2.762889    1.833842   -1.284021
  H     -3.079175    0.414734   -2.322833
  H     -4.204059    0.056721   -0.426912
  H     -5.350319   -1.180436    1.357803
  H     -4.050657   -2.539661    3.003996
  H     -1.559011   -2.631253    2.807593
  H     -0.399033   -1.414049    1.010127
