31
  Isotropic shielding for P: 256.368 ppm
  C      4.563129   -0.043695   -0.535060
  C      3.114021   -0.137459   -0.019391
  C      2.415495    1.201418   -0.249596
  O      1.088218    1.170665    0.393010
  P     -0.144087    1.933707   -0.297387
  O     -0.068401    3.420230   -0.351402
  O     -1.393840    1.422060    0.555349
  C     -1.689105   -0.023217    0.645024
  C     -3.200186   -0.220259    0.741551
  C     -3.921919    0.291750   -0.517048
  C     -3.493411   -1.711822    0.995752
  C      2.350138   -1.296420   -0.682945
  H      5.095622   -0.985293   -0.351008
  H      5.115197    0.764110   -0.036320
  H      4.581422    0.147456   -1.617725
  H      3.142290   -0.308157    1.068586
  H      2.973996    2.031279    0.199329
  H      2.295103    1.394127   -1.326414
  H     -0.259806    1.321393   -1.562377
  H     -1.173106   -0.403209    1.534256
  H     -1.286485   -0.529801   -0.243828
  H     -3.551758    0.356582    1.611695
  H     -3.590575   -0.266263   -1.405109
  H     -5.007241    0.159795   -0.419238
  H     -3.721860    1.356187   -0.688716
  H     -2.995837   -2.068787    1.907328
  H     -4.572525   -1.874539    1.109391
  H     -3.146158   -2.327122    0.153258
  H      2.852117   -2.252142   -0.484051
  H      2.307514   -1.155585   -1.772980
  H      1.322137   -1.366489   -0.308132
