51
  Isotropic shielding for P: 176.843 ppm
  C     -2.599778   -2.363036   -1.625752
  Si    -1.373282   -2.109915   -0.201787
  C     -0.796012   -0.318560   -0.190158
  P      0.798814   -0.025422   -0.539084
  C      1.355515    1.701812   -0.530779
  C      1.176471    2.535419   -1.645458
  C      1.536492    3.883224   -1.574074
  C      2.084041    4.403347   -0.394864
  C      2.276753    3.570114    0.713263
  C      1.915642    2.221686    0.647889
  C      2.012415   -0.953512    0.444679
  C      3.311565   -1.223877   -0.012866
  C      4.225584   -1.870782    0.822404
  C      3.851872   -2.248752    2.118734
  C      2.561562   -1.969424    2.581851
  C      1.644951   -1.319190    1.750878
  Cl     1.450797   -0.601367   -2.631674
  Si    -2.077298    1.046830   -0.311862
  C     -1.585038    2.630619    0.605393
  C     -2.473297    1.476019   -2.113347
  C     -3.688462    0.495974    0.520640
  C     -2.186035   -2.581879    1.440783
  C      0.008520   -3.375002   -0.497197
  H     -2.955844   -3.403561   -1.629321
  H     -2.103140   -2.172617   -2.587195
  H     -3.475600   -1.706992   -1.565193
  H      0.760137    2.133956   -2.564739
  H      1.391620    4.526304   -2.440358
  H      2.365518    5.453736   -0.342062
  H      2.707573    3.968348    1.630208
  H      2.064109    1.582168    1.514540
  H      3.605539   -0.940952   -1.019694
  H      5.229539   -2.083690    0.459144
  H      4.565580   -2.757225    2.764878
  H      2.265934   -2.255984    3.589571
  H      0.644639   -1.094573    2.110258
  H     -1.211009    2.402808    1.612266
  H     -2.482322    3.257866    0.712316
  H     -0.824337    3.220373    0.086035
  H     -1.586412    1.852049   -2.639003
  H     -2.834319    0.591329   -2.654325
  H     -3.252948    2.249985   -2.165944
  H     -4.416364    1.314743    0.424344
  H     -4.134999   -0.400383    0.076496
  H     -3.538565    0.307213    1.591689
  H     -3.079877   -1.987744    1.659930
  H     -1.478855   -2.451730    2.271301
  H     -2.480680   -3.641350    1.413691
  H     -0.471104   -4.349541   -0.671940
  H      0.617307   -3.138799   -1.377985
  H      0.677088   -3.479861    0.363775
