35
  Isotropic shielding for P: 259.167 ppm
  C     -2.484062    2.238314    1.442899
  C     -2.135021    1.043577    2.084393
  C     -1.663921   -0.044321    1.341794
  C     -1.539401    0.041413   -0.055829
  C     -1.907141    1.243221   -0.689288
  C     -2.368526    2.335884    0.051133
  P     -0.805329   -1.262239   -1.135253
  C     -1.078665   -2.866721   -0.194452
  C      0.201559   -3.718326   -0.268201
  C      1.341337   -3.112052    0.573928
  O      1.326538   -1.659708    0.621255
  C      1.063527   -1.057036   -0.648846
  C      1.416618    0.403376   -0.634739
  C      1.487344    1.132484    0.561579
  C      1.712922    2.512990    0.536368
  C      1.867458    3.183301   -0.682863
  C      1.807010    2.458713   -1.880559
  C      1.585865    1.078711   -1.854906
  H     -2.846162    3.085525    2.023479
  H     -2.220830    0.960898    3.167237
  H     -1.374342   -0.951586    1.865633
  H     -1.817749    1.326115   -1.771757
  H     -2.640242    3.259796   -0.457515
  H     -1.919048   -3.387227   -0.668792
  H     -1.351516   -2.681165    0.850425
  H      0.514737   -3.827722   -1.316565
  H      0.007393   -4.733118    0.105358
  H      1.247822   -3.415669    1.623240
  H      2.319846   -3.449573    0.193612
  H      1.631965   -1.570782   -1.440641
  H      1.352920    0.619289    1.509113
  H      1.760880    3.067264    1.472767
  H      2.037686    4.258666   -0.700689
  H      1.934529    2.968018   -2.834827
  H      1.533699    0.519688   -2.788885
