41
  Isotropic shielding for P: 239.561 ppm
  Cl    -1.435035    2.332983    1.746128
  P     -0.857489    0.714209    0.604481
  N      0.346951    0.019389    1.438757
  S      1.651033   -0.514076    0.704371
  O      2.781613   -0.563711    1.625897
  N      2.022503    0.302031   -0.632448
  S      1.041756    1.378930   -1.305218
  N     -0.485301    1.165204   -0.900898
  O      1.188455    1.373750   -2.756347
  C      1.519004    2.983269   -0.677730
  C      2.422145    3.098164    0.381734
  C      2.712891    4.372014    0.883136
  C      2.105720    5.503138    0.327994
  C      1.202703    5.369641   -0.736420
  C      0.901440    4.106010   -1.246320
  C      1.284655   -2.180929    0.165895
  C      1.387487   -3.209152    1.111136
  C      1.005701   -4.501927    0.744215
  C      0.525543   -4.755109   -0.547548
  C      0.430106   -3.715469   -1.479760
  C      0.811137   -2.416695   -1.128121
  C     -2.321105   -0.351700    0.527092
  C     -2.726661   -0.905894   -0.690527
  C     -3.799226   -1.804248   -0.666078
  C     -4.402047   -2.102217    0.556409
  C     -3.913514   -1.491606    1.720301
  N     -2.887224   -0.626365    1.716193
  H      2.895047    2.217345    0.804929
  H      3.417099    4.475336    1.706288
  H      2.336084    6.491309    0.721952
  H      0.731642    6.249986   -1.169202
  H      0.197591    3.993774   -2.067504
  H      1.757915   -3.002559    2.111843
  H      1.084859   -5.310697    1.468065
  H      0.229790   -5.764368   -0.828021
  H      0.064241   -3.912191   -2.485544
  H      0.747819   -1.610401   -1.852248
  H     -2.221193   -0.647038   -1.615782
  H     -4.152875   -2.260258   -1.588513
  H     -5.238445   -2.795064    0.617169
  H     -4.363116   -1.704714    2.690346
