22
  Isotropic shielding for P: 183.344 ppm
  C     -3.174920    1.347579    0.794592
  C     -1.925350    0.510976    0.657049
  C     -0.820935    0.722153    1.499876
  C      0.352175   -0.019642    1.353841
  C      0.418114   -0.992657    0.350918
  C     -0.670827   -1.237301   -0.494214
  C     -1.833210   -0.485596   -0.332559
  S      1.946549   -1.857676    0.070594
  O      2.803106   -1.702985    1.246319
  O      1.662063   -3.209732   -0.405969
  N      2.636074   -1.086404   -1.228455
  P      2.891773    0.443972   -1.444789
  Br     4.199212    0.652323   -3.204418
  Br     1.080124    1.673826   -1.893777
  Br     3.889939    1.560386    0.216106
  H     -4.069218    0.775955    0.519091
  H     -3.293062    1.721707    1.818218
  H     -3.125118    2.220923    0.127112
  H     -0.878814    1.477663    2.282150
  H      1.203762    0.155832    2.004669
  H     -0.606822   -1.997987   -1.267934
  H     -2.684411   -0.673317   -0.985520
