57
  Isotropic shielding for P: 190.416 ppm
  C      4.408939   -1.277993    0.586728
  Si     2.984407   -1.440322   -0.647943
  N      1.924796   -0.097372   -0.520843
  P      0.873780    0.504678    0.438316
  C      0.799713    2.367953    0.253957
  C      0.094684    2.667900   -1.090441
  C      0.060166    3.062176    1.412122
  C      2.255659    2.882313    0.197480
  C     -0.756595   -0.323862    0.480522
  Si    -2.181067    0.148661    1.703490
  C     -3.200560    1.659053    1.164275
  C     -3.338178   -1.346882    1.784939
  C     -1.603541    0.421931    3.479565
  Si    -1.438340   -0.871876   -1.264264
  C     -1.840579   -2.713313   -1.122380
  C     -0.256257   -0.700928   -2.723737
  C     -3.007161    0.062727   -1.750184
  Cl     1.558130    0.290411    2.503615
  C      2.109916   -3.088577   -0.332473
  C      3.706411   -1.450441   -2.394223
  H      4.039838   -1.308419    1.620067
  H      4.940037   -0.326292    0.445610
  H      5.133806   -2.094920    0.456772
  H     -0.935719    2.298719   -1.114097
  H      0.642102    2.236279   -1.934793
  H      0.058372    3.757100   -1.228829
  H     -0.978363    2.740201    1.501284
  H      0.049764    4.143173    1.216394
  H      0.562631    2.893579    2.369363
  H      2.232804    3.971313    0.054298
  H      2.792907    2.672264    1.129910
  H      2.807283    2.430699   -0.632482
  H     -0.437117   -1.300616    0.887414
  H     -2.785925    2.189761    0.302067
  H     -3.277248    2.373939    1.994159
  H     -4.218538    1.345217    0.899057
  H     -4.083146   -1.157659    2.571559
  H     -3.883026   -1.526573    0.851588
  H     -2.795719   -2.264268    2.049382
  H     -0.973581    1.308177    3.599892
  H     -1.052467   -0.443711    3.866160
  H     -2.506290    0.555949    4.094572
  H     -2.165585   -3.086104   -2.104344
  H     -0.952281   -3.283992   -0.823252
  H     -2.637419   -2.922173   -0.400837
  H      0.105516    0.319779   -2.879759
  H     -0.816688   -1.005291   -3.620853
  H      0.612156   -1.356972   -2.623560
  H     -2.829027    1.137584   -1.876198
  H     -3.831963   -0.065431   -1.041244
  H     -3.337162   -0.334601   -2.721235
  H      1.340985   -3.283027   -1.091261
  H      1.619922   -3.091582    0.651266
  H      2.825668   -3.923333   -0.356387
  H      4.246237   -0.514715   -2.597338
  H      2.919557   -1.557148   -3.152893
  H      4.413354   -2.283141   -2.519674
