19
  Isotropic shielding for P: 268.834 ppm
  C      2.613927   -1.010717    0.109746
  C      1.301218   -0.283112   -0.033769
  C      0.135256   -0.905020   -0.372747
  P     -1.385746   -0.046165   -0.713902
  O     -1.831512   -0.087766   -2.168544
  C     -0.986560    1.577116   -0.098014
  C      0.287019    1.935265    0.212103
  N      1.364778    1.077496    0.218203
  C     -2.688199   -0.756342    0.351897
  H      2.480139   -2.081763   -0.064687
  H      3.032435   -0.863544    1.115528
  H      3.348583   -0.625940   -0.612176
  H      0.161069   -1.981515   -0.535453
  H     -1.764612    2.337009   -0.053610
  H      0.540542    2.955184    0.497044
  H      2.266310    1.467540    0.474607
  H     -2.871766   -1.795127    0.048452
  H     -3.613780   -0.181471    0.219588
  H     -2.389300   -0.731227    1.405738
