37
  Isotropic shielding for P: 186.820 ppm
  C      4.587992    0.513878   -2.240384
  C      3.744007    1.693001   -1.779863
  C      2.504165    1.441997   -1.064414
  C      2.026874    0.199454   -0.752175
  C      0.802430   -0.097039   -0.056898
  P      0.491161   -1.683182    0.400852
  C     -1.192901   -2.113884    0.762870
  C     -1.509234   -2.963702    1.839931
  C     -2.842003   -3.306416    2.077178
  C     -3.854776   -2.806008    1.250037
  C     -3.538622   -1.963870    0.175183
  C     -2.211120   -1.619213   -0.076266
  C     -0.178597    0.938609    0.370878
  C     -0.570367    1.071963    1.715655
  C     -1.551500    1.997271    2.090105
  C     -2.138648    2.825574    1.128145
  C     -1.737836    2.720229   -0.212102
  C     -0.772761    1.783971   -0.587424
  F      1.091539   -2.702403   -0.672928
  F      1.322794   -2.306083    1.632698
  N      4.091230    2.932725   -1.999668
  H      4.895479   -0.109390   -1.389491
  H      5.487447    0.868162   -2.755897
  H      4.023921   -0.132943   -2.926082
  H      1.945512    2.330919   -0.772542
  H      2.625777   -0.661401   -1.051401
  H     -0.725412   -3.345864    2.487938
  H     -3.089078   -3.961126    2.910504
  H     -4.892464   -3.073367    1.441802
  H     -4.326477   -1.578738   -0.468914
  H     -1.963833   -0.968737   -0.910734
  H     -0.103917    0.443512    2.472934
  H     -1.848854    2.075166    3.134929
  H     -2.899056    3.549345    1.417016
  H     -2.191162    3.359793   -0.968292
  H     -0.487692    1.686555   -1.633120
  H      4.985980    2.961246   -2.506259
