24
  Isotropic shielding for P: 227.501 ppm
  C     -3.599557    0.132670   -0.431802
  C     -2.338511   -0.447972    0.225308
  C     -1.031347    0.088494   -0.380371
  C      0.201053   -0.593398    0.236863
  P      1.800225   -0.130328   -0.543028
  O      1.747986   -0.150515   -2.058674
  C      2.994931   -1.321005    0.153588
  C      2.302817    1.484672    0.138516
  O     -0.944522    1.535121   -0.270355
  H     -3.634900    1.223830   -0.324740
  H     -3.625489   -0.102676   -1.505257
  H     -4.505981   -0.283269    0.026887
  H     -2.336738   -0.230545    1.305905
  H     -2.336314   -1.543608    0.126175
  H     -1.035755   -0.094542   -1.463672
  H      0.258684   -0.382815    1.315355
  H      0.107909   -1.683092    0.121620
  H      2.740924   -2.330827   -0.190057
  H      4.003424   -1.063482   -0.192187
  H      2.970608   -1.293749    1.250082
  H      3.321206    1.708039   -0.202767
  H      2.285240    1.460205    1.234824
  H      1.615570    2.257133   -0.219546
  H     -0.961562    1.761862    0.679733
