24
  Isotropic shielding for P: 56.142 ppm
  Br    -5.006512   -0.633192   -2.336309
  C     -3.610586   -0.326436   -1.037057
  C     -3.861662    0.526875    0.038371
  C     -2.845128    0.731740    0.976678
  C     -1.593813    0.106165    0.834798
  C     -1.375736   -0.756489   -0.253977
  C     -2.382975   -0.976626   -1.196296
  P     -0.352954    0.485211    2.142488
  O      0.659574    1.608566    1.331727
  C      1.682511    0.922369    0.683724
  C      1.738284   -0.433003    1.031478
  O      0.740960   -0.805396    1.932296
  C      2.721407   -1.273165    0.532304
  C      3.666954   -0.711699   -0.346307
  C      3.610162    0.642197   -0.698465
  C      2.606534    1.484656   -0.184528
  H     -4.827215    1.012947    0.151503
  H     -3.037263    1.385214    1.828265
  H     -0.426019   -1.272088   -0.370944
  H     -2.215470   -1.645515   -2.036525
  H      2.751679   -2.322893    0.815148
  H      4.451810   -1.344929   -0.754518
  H      4.351921    1.056215   -1.378220
  H      2.553538    2.539480   -0.444431
