36
  Isotropic shielding for P: 316.934 ppm
  C     -2.461766    3.650361   -0.268225
  C     -0.950238    3.592605   -0.547548
  C     -0.199046    2.519298    0.267393
  C     -0.609269    1.079682   -0.084716
  P      0.314960   -0.206234    0.917148
  C      1.949096   -0.023657    0.255773
  C      3.110292    0.123262   -0.095465
  C      4.510362    0.286674   -0.485308
  C      5.480109    0.325277    0.720375
  C     -0.221813   -1.782363    0.052858
  C     -1.664874   -2.183751    0.403173
  C     -2.076826   -3.523732   -0.232846
  C     -3.520436   -3.927991    0.106975
  H     -2.655264    3.824169    0.800258
  H     -2.964192    2.715953   -0.550671
  H     -2.935338    4.464872   -0.832547
  H     -0.779509    3.413386   -1.620827
  H     -0.505247    4.573641   -0.322420
  H     -0.367649    2.696544    1.341509
  H      0.880927    2.635439    0.096860
  H     -0.456384    0.882323   -1.155835
  H     -1.672039    0.914019    0.136308
  H      4.794207   -0.534474   -1.161802
  H      4.613909    1.212905   -1.071703
  H      5.418320   -0.604982    1.298207
  H      5.237908    1.162155    1.386745
  H      6.511938    0.448265    0.367907
  H     -0.102702   -1.660613   -1.033196
  H      0.477400   -2.565699    0.378100
  H     -1.773546   -2.252890    1.497167
  H     -2.362875   -1.400653    0.070531
  H     -1.959898   -3.454400   -1.325597
  H     -1.382789   -4.309382    0.104244
  H     -3.786506   -4.887246   -0.357022
  H     -4.235170   -3.172378   -0.249019
  H     -3.655756   -4.030384    1.193120
