36
  Isotropic shielding for P: 46.373 ppm
  C     -1.273626    2.089140   -0.673770
  C     -0.951774    1.212727    0.547625
  N     -0.692977   -0.201836    0.146101
  P      0.690967   -1.075612    0.490435
  C      2.210881   -0.061503   -0.052308
  C      3.419309   -0.939090    0.358577
  C      2.103251   -0.038108   -1.596777
  C      2.410433    1.363436    0.489965
  Cl     0.934406   -0.841709    2.710408
  C     -1.887533   -0.988552   -0.324767
  C     -2.353202   -2.042224    0.694917
  C     -1.636787   -1.599564   -1.712448
  C     -2.035353    1.323638    1.637367
  H     -0.462693    2.044262   -1.409672
  H     -2.202607    1.766605   -1.161453
  H     -1.402455    3.133817   -0.361465
  H     -0.022200    1.570163    0.993357
  H      3.555422   -0.950983    1.446020
  H      3.306487   -1.975697    0.012836
  H      4.331099   -0.528401   -0.096973
  H      1.272541    0.591078   -1.934048
  H      3.036116    0.366786   -2.014578
  H      1.962175   -1.045725   -2.011614
  H      3.418956    1.708033    0.216442
  H      1.697665    2.073375    0.059133
  H      2.329685    1.397324    1.582723
  H     -2.690814   -0.252371   -0.433221
  H     -2.556256   -1.585659    1.670108
  H     -3.273887   -2.523054    0.338649
  H     -1.593198   -2.822870    0.829734
  H     -2.551146   -2.083876   -2.080624
  H     -0.841580   -2.355190   -1.672568
  H     -1.339416   -0.823992   -2.428431
  H     -3.026068    1.034504    1.265218
  H     -1.787143    0.694748    2.499339
  H     -2.098378    2.366277    1.975462
