47
  Isotropic shielding for P: 242.925 ppm
  C      5.603646   -1.223590    1.056687
  C      4.544785   -1.529518    0.010371
  O      3.426361   -0.610406    0.241666
  C      2.352436   -0.709366   -0.620716
  O      2.320693   -1.570512   -1.506418
  C      1.307091    0.273186   -0.395284
  C      1.426745    1.362191    0.454540
  N      2.403329    1.615132    1.354742
  O      0.489515    2.372477    0.487470
  C     -0.441427    2.398392   -0.545907
  C     -0.686837    1.376618   -1.369258
  C      0.022787    0.071257   -1.193546
  P     -1.040913   -1.161788   -0.309091
  O     -0.390545   -2.432981    0.138155
  O     -2.238262   -1.355912   -1.374019
  C     -3.161611   -2.502182   -1.296771
  C     -4.219432   -2.319793   -0.216772
  O     -1.677896   -0.301236    0.902988
  C     -1.637213   -0.763845    2.299275
  C     -0.389692   -0.257272    3.006242
  C     -1.800132    1.732571   -2.326884
  C     -1.971620    3.273919   -2.117316
  C     -1.298882    3.609231   -0.748014
  H      5.961487   -0.190142    0.965470
  H      6.458495   -1.897691    0.915869
  H      5.210717   -1.372957    2.070360
  H      4.917997   -1.375734   -1.009388
  H      4.172264   -2.557665    0.091973
  H      2.512808    2.570349    1.679113
  H      3.211409    1.001672    1.357965
  H      0.258872   -0.397352   -2.158051
  H     -2.570311   -3.411359   -1.135074
  H     -3.613612   -2.546172   -2.292915
  H     -4.755785   -1.372173   -0.350598
  H     -3.780253   -2.339100    0.787373
  H     -4.946042   -3.141032   -0.285831
  H     -1.691429   -1.857726    2.314118
  H     -2.549388   -0.358097    2.749914
  H      0.517023   -0.670803    2.549950
  H     -0.419611   -0.567103    4.060041
  H     -0.335018    0.837212    2.968768
  H     -1.558017    1.480268   -3.368964
  H     -2.718509    1.181543   -2.074734
  H     -3.022377    3.581300   -2.145667
  H     -1.445410    3.810578   -2.915760
  H     -0.722876    4.543980   -0.772945
  H     -2.035350    3.701927    0.066669
