35
  Isotropic shielding for P: 264.876 ppm
  C      0.576542    3.159093    0.379278
  N     -0.002135    2.439992   -0.763998
  C     -0.108302    2.921590   -2.048531
  C     -0.640899    1.892987   -2.804081
  N     -0.860216    0.787447   -2.013697
  C     -0.464311    1.142067   -0.783665
  P     -0.515011    0.062484    0.665162
  O     -1.272067    0.645269    1.834215
  C     -1.228753   -1.457984    0.005137
  N     -0.557920   -2.606908   -0.151105
  C     -1.473215   -3.500227   -0.659731
  C     -2.705138   -2.889219   -0.806780
  N     -2.545883   -1.592352   -0.376615
  C     -3.579759   -0.549041   -0.411759
  C      1.211461   -0.334801    1.035628
  C      2.177604   -0.397019    0.018240
  C      3.501978   -0.710127    0.334532
  C      3.864774   -0.960414    1.664694
  C      2.903299   -0.893671    2.680464
  C      1.576762   -0.579698    2.368294
  H      0.029373    2.896230    1.288193
  H      1.633091    2.892641    0.497965
  H      0.488383    4.233251    0.198080
  H      0.190058    3.931364   -2.300228
  H     -0.880825    1.896584   -3.861173
  H     -1.206878   -4.527134   -0.882462
  H     -3.660991   -3.253268   -1.161739
  H     -3.502197    0.022637   -1.342633
  H     -3.447051    0.122509    0.440228
  H     -4.560637   -1.027406   -0.349941
  H      1.897858   -0.203955   -1.015509
  H      4.250696   -0.757201   -0.454316
  H      4.897796   -1.202616    1.909105
  H      3.185746   -1.083921    3.714468
  H      0.826969   -0.519185    3.154479
