37
  Isotropic shielding for P: 301.176 ppm
  C     -2.904202   -2.235769   -0.809719
  N     -2.373990   -1.418944    0.290723
  C     -1.755433   -0.174566   -0.194370
  P     -0.123101   -0.470835   -1.076151
  C      0.324027    1.327093   -1.437639
  N      0.356851    2.234375   -0.277112
  C     -0.577278    3.359076   -0.402367
  C      1.716095    2.686542    0.041176
  C      0.917518   -0.782431    0.453134
  N      2.344784   -0.981666    0.153404
  C      2.592396   -2.259209   -0.530507
  C      3.147695   -0.893095    1.382716
  C     -3.427531   -1.130117    1.275529
  H     -2.100322   -2.483457   -1.512064
  H     -3.319255   -3.168039   -0.407621
  H     -3.705286   -1.711280   -1.373357
  H     -2.420678    0.376246   -0.892972
  H     -1.566584    0.482202    0.664238
  H     -0.411064    1.669986   -2.180108
  H      1.295667    1.307028   -1.953311
  H     -0.317087    4.041747   -1.238825
  H     -0.574133    3.942454    0.527479
  H     -1.593286    2.983232   -0.570032
  H      2.142985    3.339923   -0.749364
  H      2.374868    1.819808    0.159154
  H      1.706636    3.249844    0.983158
  H      0.474753   -1.650555    0.982897
  H      0.813543    0.093652    1.106112
  H      2.295842   -3.131142    0.090671
  H      3.660626   -2.349404   -0.762872
  H      2.024679   -2.299397   -1.466719
  H      4.211407   -0.999846    1.134772
  H      2.881985   -1.681911    2.117634
  H      2.993600    0.083936    1.856361
  H     -3.842018   -2.072497    1.655659
  H     -3.004048   -0.567493    2.116324
  H     -4.260464   -0.535692    0.843768
