48
  Isotropic shielding for P: 256.256 ppm
  C     -3.349755    2.709000    2.409368
  C     -3.613599    1.691076    1.316157
  O     -3.512756    0.341608    1.927323
  P     -3.457874   -1.013032    1.083414
  O     -3.803553   -2.214229    1.898592
  C     -1.731767   -1.153513    0.401165
  O     -0.807181   -1.105469    1.510482
  C     -0.060835    0.103954    1.657561
  N      0.937044    0.292706    0.588064
  C      0.633239    1.205076   -0.460578
  O     -0.449970    1.799947   -0.518722
  C      1.700239    1.331242   -1.422891
  F      1.485869    2.175570   -2.472230
  C      2.858685    0.637722   -1.328421
  N      3.082571   -0.217290   -0.281716
  C      2.138200   -0.433844    0.717295
  O      2.343202   -1.205565    1.655517
  C      4.403047   -0.969821   -0.148240
  C      5.322198   -0.296938    0.881628
  C      6.089947    0.721577    0.015601
  C      6.238899   -0.027041   -1.311844
  O      5.078069   -0.942729   -1.385246
  O     -1.579545   -2.368885   -0.299314
  O     -4.407253   -0.692443   -0.170535
  C     -4.859680   -1.754434   -1.096591
  C     -6.011426   -1.197580   -1.912612
  H     -3.442304    3.719076    1.988616
  H     -4.076204    2.605616    3.224947
  H     -2.337844    2.595931    2.817534
  H     -4.621794    1.786945    0.899968
  H     -2.878585    1.768171    0.507357
  H     -1.531147   -0.347988   -0.312072
  H      0.466881    0.009450    2.606568
  H     -0.703581    0.985537    1.652610
  H      3.641892    0.710237   -2.075377
  H      4.125636   -1.997010    0.101336
  H      4.767218    0.151541    1.709397
  H      6.000615   -1.057526    1.288548
  H      5.501858    1.638160   -0.118318
  H      7.058810    0.994554    0.446108
  H      7.144598   -0.646279   -1.342434
  H      6.206185    0.618955   -2.195812
  H     -1.910832   -3.096456    0.266779
  H     -4.008264   -2.032719   -1.728256
  H     -5.164986   -2.621867   -0.500342
  H     -6.852556   -0.920269   -1.265220
  H     -6.355308   -1.964466   -2.619384
  H     -5.696607   -0.316356   -2.485382
