38
  Isotropic shielding for P: 167.505 ppm
  C      5.740016   -0.012539    1.210780
  C      4.842358    1.133092    0.767934
  O      3.919926    0.693640   -0.304773
  C      2.778242    0.096389    0.077257
  O      2.411912   -0.091778    1.224055
  C      2.002438   -0.376970   -1.157754
  C      2.190041   -1.908596   -1.419851
  S      0.416826   -2.163798   -1.063784
  O      0.148047   -2.806045    0.216586
  O     -0.390069   -2.552859   -2.212931
  N      0.541155   -0.447841   -0.922595
  P     -0.538888    0.762259   -0.525328
  Se     0.360417    2.668330   -0.553671
  O     -1.147750    0.263454    0.881698
  C     -2.500539    0.755637    1.238369
  C     -3.538481    0.393157    0.161085
  C     -3.084107    0.982504   -1.186647
  O     -1.736484    0.497926   -1.571780
  C     -3.713699   -1.136108    0.059640
  C     -4.875555    1.063072    0.543573
  H      6.452638    0.360091    1.958667
  H      6.309194   -0.412912    0.362829
  H      5.156219   -0.821791    1.664268
  H      5.409719    1.941926    0.299271
  H      4.240929    1.531325    1.590737
  H      2.250518    0.226420   -2.033343
  H      2.822134   -2.443124   -0.708007
  H      2.426140   -2.163586   -2.454366
  H     -2.726332    0.270992    2.192266
  H     -2.439064    1.841702    1.385143
  H     -3.053119    2.079168   -1.152330
  H     -3.735066    0.661255   -2.004330
  H     -2.782314   -1.637255   -0.222307
  H     -4.473446   -1.378674   -0.694256
  H     -4.042143   -1.544078    1.024058
  H     -4.771158    2.153490    0.615119
  H     -5.641842    0.837290   -0.208833
  H     -5.228709    0.684936    1.511452
