36
  Isotropic shielding for P: 245.744 ppm
  N     -0.047869    1.308259   -3.032757
  C     -0.661943    1.434225   -2.057351
  C     -1.451246    1.631758   -0.830812
  C     -1.094285    0.646602    0.356164
  P     -1.673553   -1.072343    0.050494
  O     -1.389259   -1.991502    1.187793
  O     -3.230424   -0.942414   -0.348951
  C     -4.267061   -0.977851    0.687618
  O     -1.001249   -1.403636   -1.360904
  C     -1.157142   -2.722929   -1.983529
  C      0.342709    0.730793    0.826979
  C      0.627696    1.365264    2.039586
  C      1.949328    1.464874    2.490760
  C      2.997995    0.933149    1.740213
  C      2.719432    0.285975    0.509440
  C      1.398059    0.190297    0.067218
  O      3.805597   -0.214812   -0.162347
  C      3.559864   -0.892690   -1.415977
  O      4.314900    0.995398    2.133479
  C     -1.289590    3.022202   -0.373709
  N     -1.169575    4.103584    0.028643
  H     -2.512074    1.490645   -1.093488
  H     -1.743972    0.972644    1.180397
  H     -5.219802   -0.949357    0.154157
  H     -4.174670   -0.103519    1.342217
  H     -4.181864   -1.900232    1.269980
  H     -0.793852   -3.500021   -1.303541
  H     -2.209368   -2.891263   -2.234990
  H     -0.548553   -2.694717   -2.889578
  H     -0.178354    1.783978    2.638940
  H      2.172905    1.958617    3.436460
  H      1.183840   -0.320032   -0.863904
  H      2.915626   -1.769977   -1.267038
  H      3.097007   -0.213625   -2.144624
  H      4.543145   -1.208690   -1.773201
  H      4.367703    1.451448    2.996163
