31
  Isotropic shielding for P: 120.375 ppm
  Cl     2.173779    3.332687    1.595192
  P      0.323646    2.304158    2.541441
  N      0.177615    0.874266    1.900725
  C      0.039998    0.253967    0.703501
  N      1.139260   -0.107638   -0.000289
  C      2.514920   -0.049319    0.563729
  C      3.351927    0.485848   -0.600709
  C      2.702022   -0.180837   -1.828843
  C      1.196375   -0.256499   -1.487116
  N     -1.197911   -0.057453    0.257638
  C     -2.432887    0.366518    0.974260
  C     -3.312280   -0.887861    0.943307
  C     -3.002855   -1.489299   -0.439640
  C     -1.501792   -1.204590   -0.655241
  Cl    -1.131452    3.623410    1.416203
  H      2.823051   -1.069443    0.838564
  H      2.543670    0.581516    1.449407
  H      4.413511    0.237370   -0.494518
  H      3.251668    1.577584   -0.650284
  H      2.870223    0.373774   -2.758096
  H      3.100650   -1.194482   -1.962547
  H      0.769876   -1.206197   -1.818005
  H      0.621338    0.561301   -1.938272
  H     -2.898263    1.196923    0.427195
  H     -2.184211    0.707248    1.978695
  H     -3.005998   -1.576338    1.742636
  H     -4.372723   -0.649117    1.078117
  H     -3.215866   -2.561715   -0.502467
  H     -3.592856   -0.979599   -1.212079
  H     -1.293312   -0.952468   -1.697539
  H     -0.871126   -2.053914   -0.364868
