34
  Isotropic shielding for P: 275.068 ppm
  O      0.877237    0.193543    0.161382
  C      0.459306   -0.318559   -0.886804
  N      1.326891   -0.713381   -1.903319
  P      3.032326   -0.616316   -1.853841
  O      3.491988   -1.215601   -3.140027
  N      3.629985   -1.314615   -0.481176
  C      3.940189   -0.586289    0.776891
  C      4.576230    0.769181    0.461319
  C      3.687439    1.615139   -0.438893
  O      3.428273    0.927964   -1.724637
  N     -0.869486   -0.555702   -1.170093
  C     -2.005602   -0.283503   -0.373717
  C     -3.254817   -0.685713   -0.885018
  C     -4.425661   -0.454615   -0.163728
  C     -4.400006    0.183154    1.088374
  C     -3.147694    0.574059    1.586856
  C     -1.960657    0.353466    0.879911
  C     -5.675221    0.462515    1.853417
  H      0.943559   -1.097729   -2.764048
  H      3.373500   -2.291355   -0.350155
  H      3.031540   -0.446164    1.377522
  H      4.641489   -1.206902    1.346762
  H      5.555409    0.624619   -0.016245
  H      4.738016    1.318065    1.399203
  H      2.719395    1.823983    0.026775
  H      4.172347    2.552462   -0.726711
  H     -1.074409   -1.004114   -2.058795
  H     -3.302323   -1.185746   -1.852421
  H     -5.377758   -0.779800   -0.582880
  H     -3.090181    1.065296    2.558512
  H     -1.009766    0.664842    1.293839
  H     -6.458803   -0.261685    1.598243
  H     -6.065771    1.464459    1.618330
  H     -5.507165    0.425141    2.937174
