53
  Isotropic shielding for P: 213.820 ppm
  C     -0.858737   -3.747674   -3.048073
  C     -2.070789   -3.302808   -2.210045
  C     -2.013707   -1.832430   -1.751263
  C     -0.865279   -1.541275   -0.774626
  N     -0.878117   -0.146589   -0.280893
  C     -1.911339    0.074835    0.743152
  P     -2.604743    1.768790    0.593236
  O     -1.607280    2.873666    0.794424
  O     -3.755113    1.877601    1.737112
  C     -4.858498    0.911889    1.863743
  C     -5.868764    1.482757    2.844195
  C     -3.445771    1.839451   -1.014099
  C      0.448702    0.315847    0.168704
  C      1.341187    0.708876   -1.029153
  C      2.701746    1.220091   -0.598498
  O      3.127433    2.343030   -0.852491
  O      3.407087    0.307712    0.104624
  Si     4.997647    0.583116    0.745801
  C      4.935649    2.013026    1.955464
  C      5.350011   -1.039369    1.612268
  C      6.183583    0.876277   -0.675511
  H     -0.983492   -4.779520   -3.402852
  H      0.074449   -3.706677   -2.471318
  H     -0.735887   -3.101248   -3.929082
  H     -2.167796   -3.953939   -1.326824
  H     -2.987377   -3.447398   -2.800607
  H     -2.972410   -1.572391   -1.280383
  H     -1.905251   -1.173275   -2.626173
  H      0.091383   -1.701007   -1.283519
  H     -0.897668   -2.257479    0.071951
  H     -2.741461   -0.623701    0.586664
  H     -1.549072   -0.078988    1.777218
  H     -4.446938   -0.039289    2.224167
  H     -5.311843    0.749568    0.877638
  H     -6.695437    0.771335    2.972087
  H     -5.406398    1.655371    3.824200
  H     -6.280477    2.430043    2.474126
  H     -4.177855    1.030480   -1.116810
  H     -3.953309    2.807460   -1.100128
  H     -2.698051    1.746156   -1.808360
  H      0.954668   -0.451264    0.782698
  H      0.301141    1.200071    0.797013
  H      1.501380   -0.163150   -1.678212
  H      0.846476    1.490014   -1.614638
  H      4.729563    2.962301    1.447297
  H      5.900765    2.102120    2.474398
  H      4.158893    1.849099    2.714861
  H      6.347751   -1.014659    2.072110
  H      5.322781   -1.878759    0.904411
  H      4.614704   -1.231722    2.405113
  H      6.125714    0.057800   -1.406025
  H      7.214736    0.916764   -0.296247
  H      5.971114    1.819262   -1.193041
