38
  Isotropic shielding for P: 192.105 ppm
  C     -2.729447    1.113880   -2.193104
  C     -3.553588    0.263647   -1.238264
  O     -2.735929   -0.154939   -0.078151
  C     -2.689761    0.672424    0.978417
  O     -3.296448    1.724239    1.093653
  C     -1.780995    0.154250    2.094874
  N     -1.226362   -1.190700    1.860010
  C     -1.881017   -2.250410    2.439677
  C     -1.514384   -3.548828    2.196785
  C     -0.438727   -3.790559    1.314244
  C      0.216735   -2.730543    0.727143
  C     -0.152296   -1.379467    0.986232
  N      0.480905   -0.385783    0.369660
  P      1.257217    0.937038    0.805234
  S      1.808540    1.172110    2.684886
  C      2.572755    1.188509   -0.419999
  C      2.653223    0.370896   -1.557295
  C      3.672454    0.581170   -2.492677
  C      4.608366    1.603173   -2.296353
  C      4.526336    2.419033   -1.159473
  C      3.511474    2.214207   -0.222101
  Cl    -0.014933    2.631131    0.221825
  H     -3.336231    1.343347   -3.079269
  H     -1.831371    0.575124   -2.518592
  H     -2.425853    2.056763   -1.725642
  H     -3.857452   -0.684316   -1.691173
  H     -4.434476    0.793707   -0.863961
  H     -0.976198    0.875240    2.258321
  H     -2.371124    0.123427    3.014950
  H     -2.703100   -1.986534    3.097375
  H     -2.052315   -4.357587    2.681558
  H     -0.123827   -4.810334    1.101544
  H      1.049553   -2.882788    0.047102
  H      1.927063   -0.424510   -1.701238
  H      3.736093   -0.056939   -3.372578
  H      5.401796    1.763326   -3.024561
  H      5.253975    3.213352   -1.002109
  H      3.449444    2.844445    0.662648
