37
  Isotropic shielding for P: 249.873 ppm
  C     -4.684464    0.727651    0.035574
  C     -3.865387    1.967765   -0.289883
  O     -2.424324    1.661143   -0.413395
  P     -1.488251    1.481903    0.878603
  O     -1.731486    2.436298    1.999386
  C      0.180775    1.637948    0.152543
  S      0.306252    1.427547   -1.687151
  O     -0.181593    0.038695   -2.050204
  C      2.206718    1.363246   -1.756792
  C      2.752425    0.160805   -1.065783
  C      3.251762    0.241580    0.246566
  C      3.681096   -0.900829    0.926580
  C      3.602704   -2.136782    0.281868
  C      3.124204   -2.250006   -1.025017
  C      2.702348   -1.097805   -1.691861
  Cl     4.123356   -3.592649    1.139798
  O     -1.648690   -0.018318    1.422413
  C     -1.578150   -1.224522    0.564479
  C     -0.365078   -2.054508    0.950483
  H     -5.750476    0.992266    0.020999
  H     -4.442054    0.336180    1.030499
  H     -4.513911   -0.060678   -0.707590
  H     -3.985005    2.748230    0.470403
  H     -4.129663    2.380192   -1.268405
  H      0.530685    2.660139    0.345257
  H      0.847840    0.928393    0.652396
  H      2.392220    1.356604   -2.836317
  H      2.541875    2.313962   -1.328554
  H      3.310319    1.208733    0.742982
  H      4.066923   -0.830797    1.940372
  H      3.079078   -3.220717   -1.512132
  H      2.327377   -1.178068   -2.709344
  H     -1.536784   -0.920923   -0.485261
  H     -2.515175   -1.760442    0.749626
  H     -0.395540   -2.325735    2.013214
  H     -0.359223   -2.979513    0.358028
  H      0.567398   -1.516990    0.747123
