21
  Isotropic shielding for P: 240.794 ppm
  C      0.695347   -1.887265   -0.180070
  N      0.314150   -0.488071   -0.382620
  C     -1.070967   -0.263150   -0.802327
  P     -2.020948    0.157186    0.709918
  O     -2.212820   -0.981749    1.659199
  O     -3.396177    0.870907    0.229535
  O     -1.262051    1.451305    1.303809
  C      1.344889    0.349806   -0.965481
  C      2.237672    1.055060    0.059244
  O      3.375055    1.430212   -0.158312
  O      1.605731    1.272145    1.254896
  H      1.652795   -1.935136    0.353022
  H      0.798356   -2.437530   -1.135496
  H     -0.059683   -2.388585    0.434344
  H     -1.144631    0.582613   -1.496575
  H     -1.519272   -1.141037   -1.293154
  H     -4.175046    0.306319    0.402342
  H     -0.283662    1.316196    1.368461
  H      0.891432    1.157769   -1.558135
  H      2.016295   -0.200768   -1.645187
  H      2.213434    1.773977    1.842591
