29
  Isotropic shielding for P: 60.865 ppm
  C      4.513040    0.001098    0.422815
  C      3.366235   -0.273604   -0.564495
  C      2.243462    0.778450   -0.473108
  P      0.975131    0.533079   -1.819522
  O      0.325167   -0.953740   -1.447491
  C     -0.253420   -1.267592   -0.134986
  C     -1.677171   -0.771855   -0.022740
  C     -1.975573    0.610698   -0.012330
  C     -0.884258    1.653366   -0.107563
  O     -0.212514    1.626939   -1.413738
  C     -3.311170    1.020730    0.082065
  C     -4.351067    0.086194    0.175118
  C     -4.056149   -1.278844    0.163955
  C     -2.723368   -1.698690    0.060825
  H      5.298215   -0.762628    0.339706
  H      4.971259    0.981242    0.230662
  H      4.147096   -0.001067    1.459113
  H      3.763827   -0.300052   -1.590851
  H      2.945834   -1.270645   -0.370596
  H      1.812896    0.786894    0.536255
  H      2.649289    1.786086   -0.655620
  H      0.378804   -0.849933    0.659148
  H     -0.222542   -2.358858   -0.056805
  H     -0.143176    1.531099    0.692954
  H     -1.311820    2.657504   -0.023799
  H     -3.539411    2.086224    0.085272
  H     -5.382725    0.426357    0.248955
  H     -4.855209   -2.015617    0.228237
  H     -2.490581   -2.763043    0.045663
