38
  Isotropic shielding for P: 226.269 ppm
  O      0.650471   -2.535737    0.882124
  C      0.492305   -1.318253    0.866374
  N      1.436510   -0.327815    0.553005
  C      2.808786   -0.597499    0.248237
  C      3.321818   -0.242238   -1.004057
  C      4.663773   -0.508996   -1.293284
  C      5.477782   -1.139327   -0.343572
  C      4.950633   -1.498009    0.903565
  C      3.614075   -1.221366    1.207533
  C      0.856534    0.959545    0.530640
  O      1.420411    2.004844    0.223426
  N     -0.444634    0.784972    0.995291
  N     -0.657082   -0.622387    1.205297
  C     -2.028272   -1.085080    0.929814
  C     -2.975744   -0.216713    1.709273
  C     -2.776686    1.097079    1.556605
  C     -1.672346    1.554012    0.581782
  C     -2.100627    1.079379   -0.845253
  P     -2.299439   -0.761054   -0.909999
  O     -1.281103   -1.449009   -1.784313
  C     -4.031659   -1.156951   -1.269710
  C     -1.386224    3.055115    0.602935
  Cl    -3.775659    2.284203    2.355193
  H      2.675974    0.233071   -1.738036
  H      5.069944   -0.232302   -2.264509
  H      6.520180   -1.351126   -0.574963
  H      5.580881   -1.986888    1.644185
  H      3.195429   -1.483592    2.176466
  H     -2.094104   -2.147045    1.172656
  H     -3.759018   -0.651424    2.321950
  H     -3.030574    1.584859   -1.127859
  H     -1.323942    1.344467   -1.572439
  H     -4.698007   -0.632169   -0.576152
  H     -4.174895   -2.240061   -1.179506
  H     -4.254072   -0.843486   -2.297098
  H     -2.303203    3.591460    0.340984
  H     -0.611724    3.298278   -0.126288
  H     -1.056494    3.377343    1.596107
