42
  Isotropic shielding for P: 213.666 ppm
  C     -2.360357   -0.590729    2.483369
  C     -1.108761   -0.187355    1.750336
  N     -0.106833    0.255714    2.470677
  C      1.088462    0.565758    1.902015
  N      2.153719    0.987532    2.570018
  C      3.157688    1.144541    1.619300
  C      2.684637    0.801937    0.325622
  N      1.347030    0.427246    0.516372
  P      0.209248    0.078424   -0.694901
  S     -0.164559    1.528886   -1.937543
  N     -1.093526   -0.335340    0.369759
  C     -2.286196   -0.856395   -0.350188
  C     -3.422280    0.117238   -0.391861
  C     -3.521359    1.479754   -0.393828
  C     -4.925551    1.789173   -0.442456
  C     -5.588322    0.596400   -0.469915
  O     -4.683381   -0.448507   -0.433700
  N      0.728107   -1.319036   -1.399991
  C      0.722025   -1.571797   -2.848806
  C      1.046542   -2.493825   -0.566150
  C      3.485001    0.861495   -0.814173
  C      4.806907    1.284654   -0.630315
  C      5.297440    1.630419    0.646598
  C      4.485883    1.564480    1.782748
  H     -3.227418   -0.009804    2.147504
  H     -2.589309   -1.651341    2.313764
  H     -2.205652   -0.426796    3.551408
  H     -2.614276   -1.793886    0.112078
  H     -1.962750   -1.113816   -1.367342
  H     -2.694181    2.176179   -0.362917
  H     -5.376923    2.774134   -0.455259
  H     -6.631387    0.312397   -0.512174
  H     -0.022272   -2.341998   -3.097432
  H      1.715547   -1.922254   -3.158632
  H      0.480651   -0.652693   -3.385781
  H      1.120894   -2.214753    0.487848
  H      2.011171   -2.909022   -0.884960
  H      0.269822   -3.264099   -0.675302
  H      3.107737    0.596596   -1.798020
  H      5.468849    1.347381   -1.492013
  H      6.332003    1.954422    0.746366
  H      4.865829    1.828592    2.767974
