46
  Isotropic shielding for P: 256.240 ppm
  C      3.479986    4.133902    0.977943
  C      2.266945    3.568414    0.982634
  C      1.979303    2.124576    0.669293
  C      1.074241    1.972096   -0.573592
  C      0.777922    0.508449   -0.957232
  C      0.025428   -0.300523    0.127026
  S     -0.110263   -2.063969   -0.373668
  O     -0.878479   -2.161947   -1.615520
  O     -0.500098   -2.879987    0.781478
  C      1.650461   -2.503271   -0.720500
  N      1.903097   -3.057301   -1.899504
  C      3.189198   -3.425421   -2.091039
  C      4.166695   -3.212281   -1.118416
  C      3.764255   -2.608178    0.075818
  N      2.482326   -2.252098    0.289071
  P     -1.618954    0.422447    0.567568
  O     -1.478909    1.541965    1.543243
  O     -2.593158   -0.760185    1.037197
  C     -2.645263   -1.188966    2.453049
  C     -3.623997   -2.344060    2.542837
  O     -2.187075    0.770433   -0.881495
  C     -3.490304    1.453031   -1.039638
  C     -3.660533    1.778296   -2.511572
  H      3.620253    5.190044    1.206151
  H      4.376440    3.555306    0.747690
  H      1.392468    4.184181    1.215001
  H      1.477994    1.669315    1.537291
  H      2.920311    1.577642    0.511225
  H      1.572978    2.436905   -1.435504
  H      0.138249    2.523293   -0.416680
  H      0.195778    0.483280   -1.884143
  H      1.734236    0.009290   -1.159425
  H      0.596567   -0.347302    1.061803
  H      3.427288   -3.891984   -3.046437
  H      5.200922   -3.502260   -1.283808
  H      4.471060   -2.404519    0.879590
  H     -1.637020   -1.490560    2.757975
  H     -2.966198   -0.329675    3.051911
  H     -3.288260   -3.188294    1.929253
  H     -4.623767   -2.036567    2.211264
  H     -3.693577   -2.677881    3.586636
  H     -3.480082    2.357568   -0.420188
  H     -4.271334    0.774338   -0.677070
  H     -2.864437    2.448582   -2.858382
  H     -4.626000    2.279396   -2.660741
  H     -3.646895    0.864378   -3.118190
