31
  Isotropic shielding for P: 258.613 ppm
  C      4.397855   -0.679261    0.631775
  C      3.152023   -1.514503    0.407401
  O      2.318456   -0.800048   -0.586689
  C      1.150097   -1.371680   -0.903499
  O      0.718527   -2.422830   -0.455691
  C      0.339808   -0.528666   -1.884938
  P     -0.982425    0.461756   -1.008765
  O     -1.494631    1.583004   -1.844140
  O     -0.336632    0.882098    0.396326
  C      0.165676    2.252262    0.653278
  C     -0.882202    3.062771    1.395855
  O     -1.979023   -0.720148   -0.629434
  C     -3.167917   -0.474027    0.225133
  C     -3.852136   -1.807812    0.453547
  F      1.146294    0.400912   -2.579376
  H      4.967175   -0.560283   -0.298333
  H      4.142440    0.313174    1.022962
  H      5.038688   -1.184886    1.365706
  H      2.555394   -1.631048    1.319027
  H      3.379877   -2.506553    0.001697
  H     -0.137240   -1.189696   -2.618364
  H      0.439657    2.714022   -0.301079
  H      1.070056    2.101895    1.251065
  H     -1.779119    3.200797    0.780419
  H     -0.470637    4.052316    1.637327
  H     -1.165552    2.568083    2.333165
  H     -3.816385    0.236097   -0.300739
  H     -2.821931   -0.025555    1.163323
  H     -3.182366   -2.508961    0.966325
  H     -4.738827   -1.652178    1.082238
  H     -4.174899   -2.251250   -0.496426
