33
  Isotropic shielding for P: 163.508 ppm
  C     -2.473392   -1.532221    0.189513
  N     -1.029939   -1.342069   -0.043967
  P     -0.319006   -0.175808    1.099891
  C      1.237952    0.109395    0.203405
  C      2.468157    0.495257    0.743571
  C      2.785026    0.787354    2.177197
  N      3.448683    0.617465   -0.233841
  C      2.825300    0.303016   -1.362248
  N      1.492059   -0.012554   -1.174363
  C      0.809891   -0.363607   -2.339453
  C      1.610978   -0.313582   -3.432964
  S      3.263697    0.171657   -3.047930
  N     -1.197249    1.257288    0.821287
  C     -1.393683    1.864026   -0.500798
  C     -2.205209    1.655265    1.813425
  C     -0.323986   -2.637858   -0.047405
  H     -3.000767   -0.576701    0.107549
  H     -2.869964   -2.208033   -0.580062
  H     -2.700924   -1.973093    1.180406
  H      3.696854    0.259336    2.486730
  H      2.959131    1.862367    2.329748
  H      1.961072    0.481495    2.830991
  H     -0.233286   -0.644368   -2.279576
  H      1.340296   -0.534813   -4.457502
  H     -1.523207    2.950101   -0.387243
  H     -0.521451    1.689727   -1.134910
  H     -2.286668    1.466250   -1.013049
  H     -2.172302    2.744877    1.964254
  H     -1.997952    1.161927    2.769486
  H     -3.228499    1.386028    1.498619
  H      0.742070   -2.494337   -0.255731
  H     -0.746470   -3.272788   -0.837930
  H     -0.417211   -3.180993    0.912998
