42
  Isotropic shielding for P: 232.559 ppm
  C      2.993536    2.149322   -1.966359
  C      1.586321    1.809603   -1.502678
  O      1.431076    0.346992   -1.471055
  P      0.877700   -0.432427   -0.163083
  O      1.031312   -1.901739   -0.400120
  C     -0.823063    0.170070    0.141331
  Si    -2.115511   -0.414229   -1.176852
  C     -3.555330    0.792746   -1.007040
  C     -2.716184   -2.173125   -0.861602
  C     -1.395663   -0.301682   -2.917562
  N     -1.388110   -0.014404    1.500912
  C     -1.087948    1.088250    2.426168
  C     -1.140253   -1.322001    2.123727
  O      1.706525    0.151755    1.097172
  C      3.119121   -0.231083    1.294784
  C      3.235132   -1.311429    2.358898
  H      3.194147    1.713872   -2.953384
  H      3.101647    3.239856   -2.041061
  H      3.739925    1.774001   -1.255556
  H      1.388245    2.221441   -0.505948
  H      0.826696    2.188934   -2.196979
  H     -0.770602    1.254585   -0.036791
  H     -3.244063    1.814924   -1.263114
  H     -3.941182    0.799366    0.020461
  H     -4.377012    0.509516   -1.679573
  H     -1.892918   -2.898117   -0.880445
  H     -3.428295   -2.449531   -1.652777
  H     -3.235309   -2.260982    0.100758
  H     -0.578322   -1.017491   -3.068237
  H     -1.010303    0.703726   -3.131165
  H     -2.184089   -0.525687   -3.650449
  H     -1.359994    2.042819    1.960008
  H     -0.023519    1.131364    2.721588
  H     -1.692882    0.961351    3.333585
  H     -0.097819   -1.444817    2.472384
  H     -1.801310   -1.429218    2.993365
  H     -1.360434   -2.127365    1.419606
  H      3.545100   -0.558539    0.338719
  H      3.622398    0.692840    1.599645
  H      2.733042   -2.231919    2.039863
  H      4.296359   -1.535993    2.534714
  H      2.791927   -0.975655    3.304550
