34
  Isotropic shielding for P: 237.732 ppm
  I     -5.692293   -1.845343    1.359552
  C     -3.919975   -1.047256    0.529000
  C     -2.883074   -1.798244    0.142278
  P     -1.629917   -0.712887   -0.524289
  O     -1.132203   -0.887058   -1.920702
  O     -2.474670    0.658507   -0.316090
  C     -3.789833    0.466982    0.353085
  C     -3.725530    1.199329    1.697885
  C     -4.845307    1.047052   -0.592984
  O     -0.462934   -0.726991    0.584392
  C      0.852150   -0.107861    0.319219
  C      1.853315   -1.136215   -0.220249
  C      3.230386   -0.515346   -0.359038
  C      3.572296    0.228073   -1.502108
  C      4.830770    0.830582   -1.615996
  C      5.769712    0.699042   -0.584733
  C      5.440163   -0.038012    0.559513
  C      4.179497   -0.636963    0.669906
  H     -2.804185   -2.878629    0.195504
  H     -4.679658    1.104150    2.227634
  H     -2.927993    0.782007    2.322715
  H     -3.526993    2.262224    1.519875
  H     -5.842478    0.971185   -0.146513
  H     -4.839755    0.510045   -1.548156
  H     -4.621650    2.104636   -0.773003
  H      1.175344    0.283005    1.289464
  H      0.730331    0.728739   -0.378392
  H      1.497160   -1.502505   -1.190718
  H      1.891631   -1.986273    0.473159
  H      2.849004    0.329882   -2.311140
  H      5.080658    1.398702   -2.511202
  H      6.750798    1.163416   -0.673946
  H      6.165395   -0.149425    1.364625
  H      3.929936   -1.212351    1.561455
