58
  Isotropic shielding for P: 249.039 ppm
  C     -2.914102    1.344693   -2.651160
  C     -1.506745    0.720686   -2.762047
  C     -0.692163    0.778881   -1.499494
  N      0.298380    1.634879   -1.450970
  N      0.879973    1.568123   -0.148452
  P      0.389679    0.181514    0.744852
  O      1.335414   -0.966366    0.885721
  N     -0.884635   -0.010621   -0.367344
  C     -1.930295   -1.023275   -0.039201
  C     -2.270251   -2.008220   -1.166012
  C     -3.064743   -3.200837   -0.572944
  C     -4.054835   -2.761916    0.545992
  C     -4.442131   -1.278609    0.401640
  C     -3.202834   -0.367459    0.564099
  C     -0.271693    0.725665    2.322892
  C     -0.042346   -0.055427    3.466920
  C     -0.559832    0.350985    4.700501
  C     -1.297712    1.537009    4.792917
  C     -1.523842    2.318283    3.650840
  C     -1.015940    1.913521    2.415251
  S      2.346255    2.366876    0.119695
  O      2.475467    2.364092    1.573380
  O      2.284507    3.617112   -0.623089
  C      3.615395    1.333940   -0.569109
  C      4.301196    0.446733    0.270772
  C      5.284491   -0.376330   -0.274054
  C      5.591624   -0.334672   -1.646870
  C      4.880239    0.559569   -2.465585
  C      3.894963    1.397762   -1.938789
  C      6.677437   -1.217371   -2.214501
  H     -2.856452    2.361540   -2.243052
  H     -3.365599    1.399428   -3.649225
  H     -3.581726    0.756330   -2.014536
  H     -0.927185    1.276669   -3.508233
  H     -1.575186   -0.314655   -3.113460
  H     -1.460907   -1.627951    0.750271
  H     -1.351285   -2.362047   -1.649262
  H     -2.876190   -1.514594   -1.933065
  H     -2.361861   -3.942912   -0.170052
  H     -3.612818   -3.691576   -1.387853
  H     -4.950287   -3.396492    0.523269
  H     -3.592764   -2.911766    1.533467
  H     -5.200529   -1.001967    1.145904
  H     -4.898268   -1.116740   -0.586184
  H     -3.377865    0.604771    0.090319
  H     -3.018895   -0.169062    1.627189
  H      0.538373   -0.970917    3.386795
  H     -0.383789   -0.254898    5.587623
  H     -1.695961    1.854815    5.755204
  H     -2.095728    3.241316    3.725763
  H     -1.191444    2.516881    1.527478
  H      4.067338    0.403655    1.329988
  H      5.823824   -1.063543    0.376815
  H      5.103560    0.604427   -3.530448
  H      3.358549    2.091742   -2.580074
  H      6.597081   -2.241018   -1.826363
  H      6.635247   -1.250450   -3.308840
  H      7.669653   -0.840215   -1.925596
