50
  Isotropic shielding for P: 300.600 ppm
  O      0.130995    0.615288   -4.699490
  C      0.025682    0.285070   -3.532203
  N     -0.789675    0.858928   -2.584402
  P     -0.788165    0.316640   -0.973618
  C      0.486903   -1.061761   -1.617695
  O      0.765631   -0.751377   -3.026611
  C      1.721508   -0.849780   -0.793898
  C      1.604832    0.256199    0.057712
  O      0.419473    0.938208    0.022810
  C      2.672329    0.649398    0.898104
  C      3.861634   -0.118583    0.823025
  C      4.002041   -1.212882   -0.029461
  C      2.911339   -1.571886   -0.842424
  C      5.291406   -1.999668   -0.091392
  C      2.538789    1.810278    1.793955
  O      1.556031    2.530534    1.895108
  C      3.768472    2.180241    2.717749
  F      4.112294    1.148978    3.549230
  F      4.873562    2.509323    1.980314
  F      3.472437    3.244671    3.497850
  C      0.001974   -2.522218   -1.645372
  F     -0.144165   -3.040702   -0.397020
  F     -1.179987   -2.662910   -2.311614
  F      0.900515   -3.332745   -2.301438
  O     -1.738934   -0.806940   -0.309527
  C     -3.070377   -0.314594    0.163650
  C     -2.783207    1.195447    0.482894
  O     -1.814482    1.558637   -0.563087
  C     -2.141010    1.416037    1.860949
  C     -3.996708    2.108159    0.309298
  C     -4.044322   -0.527512   -0.998876
  C     -3.453099   -1.165910    1.369305
  H     -1.360803    1.647986   -2.875331
  H      4.709386    0.147316    1.444887
  H      3.005914   -2.418329   -1.518552
  H      6.034036   -1.598158    0.606579
  H      5.717993   -1.971127   -1.103447
  H      5.117805   -3.055309    0.157904
  H     -1.765304    2.443779    1.914065
  H     -2.884687    1.278377    2.653950
  H     -1.306269    0.732576    2.041837
  H     -4.369315    2.092003   -0.719120
  H     -3.719858    3.137649    0.565287
  H     -4.802807    1.793055    0.982946
  H     -3.788225    0.095767   -1.862430
  H     -5.067540   -0.289953   -0.686975
  H     -4.013950   -1.579766   -1.302983
  H     -3.635014   -2.199520    1.052904
  H     -2.668231   -1.163286    2.130770
  H     -4.376649   -0.775126    1.813584
