43
  Isotropic shielding for P: 226.666 ppm
  O      1.342283   -1.447085    0.192334
  P      0.809389   -0.444950   -0.974982
  O      0.786461   -1.022368   -2.355567
  C     -0.875085   -0.072761   -0.284503
  C     -1.805402   -1.255108   -0.516627
  C     -2.468827   -1.408925   -1.739863
  C     -3.293137   -2.519223   -1.931186
  N     -3.495372   -3.468635   -0.994374
  C     -2.853891   -3.308328    0.180900
  C     -2.008759   -2.232668    0.463273
  N     -0.744864    0.376883    1.091519
  C     -1.825945    0.936197    1.782156
  C     -1.745432    1.064750    3.186949
  C     -2.782323    1.656987    3.906757
  C     -3.927246    2.135943    3.251196
  C     -4.012775    2.005384    1.860703
  C     -2.981206    1.409107    1.126127
  C      1.794651    1.094900   -0.824230
  C      3.256502    0.822554   -1.091236
  C      3.763804    0.849148   -2.401254
  C      5.108253    0.554625   -2.649340
  C      5.963890    0.223104   -1.590719
  C      5.466439    0.192857   -0.282232
  C      4.121449    0.490022   -0.034817
  H      2.259209   -1.763134    0.062668
  H     -1.215580    0.765106   -0.910554
  H     -2.350822   -0.672772   -2.532847
  H     -3.820005   -2.652747   -2.877308
  H     -3.024902   -4.079202    0.933970
  H     -1.526237   -2.162470    1.435114
  H     -0.111499   -0.171775    1.666453
  H     -0.859226    0.695320    3.703141
  H     -2.696848    1.743084    4.989400
  H     -4.735883    2.596356    3.815448
  H     -4.895562    2.364574    1.332915
  H     -3.084415    1.313909    0.048596
  H      1.371801    1.798039   -1.553247
  H      1.631617    1.495165    0.182883
  H      3.100795    1.104258   -3.226686
  H      5.488525    0.585290   -3.669383
  H      7.010827   -0.005067   -1.783997
  H      6.125663   -0.057975    0.547476
  H      3.739585    0.471337    0.985377
