40
  Isotropic shielding for P: 242.295 ppm
  C      6.070410   -1.769735    0.124167
  C      5.068597   -0.886843    0.046249
  C      4.264015   -0.623449   -1.208618
  C      2.837371   -1.161474   -1.041076
  O      2.522689   -2.267044   -1.467589
  C      1.860681   -0.257262   -0.306491
  C      0.517860   -0.922467    0.010333
  P     -0.594157    0.195961    0.936948
  O     -0.006922    0.688643    2.240687
  C     -0.995653    1.571814   -0.192066
  C     -1.020723    2.872847    0.336332
  C     -1.336855    3.961005   -0.484069
  C     -1.626838    3.756568   -1.838235
  C     -1.599676    2.461113   -2.371246
  C     -1.286478    1.371915   -1.552744
  C     -2.146482   -0.728410    1.187362
  C     -2.740845   -1.500984    0.174000
  C     -3.942436   -2.172937    0.417514
  C     -4.560145   -2.077814    1.671468
  C     -3.971918   -1.310385    2.683673
  C     -2.768825   -0.637912    2.443352
  H      6.386627   -2.354051   -0.740811
  H      6.613432   -1.928407    1.055057
  H      4.777348   -0.317794    0.931851
  H      4.721186   -1.125673   -2.068892
  H      4.215674    0.458708   -1.399887
  H      1.725600    0.635781   -0.938102
  H      2.350536    0.109077    0.607539
  H      0.658410   -1.807806    0.644989
  H      0.022917   -1.260194   -0.907384
  H     -0.787140    3.027280    1.387576
  H     -1.353837    4.966611   -0.066880
  H     -1.870573    4.603317   -2.477937
  H     -1.819415    2.298851   -3.425191
  H     -1.267381    0.373091   -1.983239
  H     -2.274254   -1.585999   -0.804966
  H     -4.395081   -2.772184   -0.370818
  H     -5.495625   -2.602719    1.858499
  H     -4.447496   -1.236545    3.660398
  H     -2.304595   -0.044491    3.228249
