46
  Isotropic shielding for P: 243.921 ppm
  Cl     4.078975    4.167360   -1.762333
  C      3.819626    2.421249   -1.243330
  C      2.355463    2.222188   -0.826376
  N      2.071767    0.874225   -0.337556
  C      1.523535   -0.088988   -1.181811
  C      1.809115   -0.051859   -2.569471
  C      1.343398   -1.033182   -3.438847
  C      0.575448   -2.103230   -2.959997
  C      0.219332   -2.117735   -1.613998
  C      0.633566   -1.109758   -0.718897
  P     -0.147275   -1.131889    0.926174
  O      0.621266   -1.830627    2.028007
  C     -0.554372    0.598475    1.335445
  C     -0.902351    1.544556    0.358099
  C     -1.240365    2.847395    0.731889
  C     -1.238778    3.214030    2.084679
  C     -0.895980    2.273447    3.062585
  C     -0.551964    0.969612    2.688683
  C     -1.780027   -1.917865    0.677369
  C     -2.097045   -3.045736    1.448315
  C     -3.348703   -3.659735    1.317648
  C     -4.289020   -3.147515    0.417408
  C     -3.976398   -2.018741   -0.353575
  C     -2.728252   -1.405780   -0.224358
  C      2.611131    0.562169    0.989529
  H      4.515347    2.252560   -0.419380
  H      4.104546    1.808772   -2.100733
  H      2.115599    2.931815   -0.021334
  H      1.693734    2.446837   -1.668924
  H      2.442804    0.736366   -2.964183
  H      1.607318   -0.975646   -4.494082
  H      0.236529   -2.891918   -3.628228
  H     -0.434257   -2.907548   -1.251899
  H     -0.895107    1.273130   -0.694773
  H     -1.499745    3.578630   -0.031951
  H     -1.500446    4.230830    2.373493
  H     -0.889822    2.554489    4.114556
  H     -0.271242    0.239422    3.445011
  H     -1.361841   -3.438015    2.147222
  H     -3.586535   -4.536213    1.918416
  H     -5.262920   -3.623714    0.315256
  H     -4.706052   -1.617925   -1.055382
  H     -2.494540   -0.534993   -0.832914
  H      2.146317    1.191750    1.760008
  H      3.697661    0.732617    1.013107
  H      2.430657   -0.483316    1.241437
