43
  Isotropic shielding for P: 218.394 ppm
  C     -4.797723    2.598998   -0.275378
  C     -3.385186    2.196098   -0.742483
  P     -3.062602    0.408458   -0.522534
  O     -4.108750   -0.476939   -1.161543
  C     -2.779426    0.096497    1.276841
  C     -1.328263   -0.421267    1.496045
  C     -0.315764    0.707742    1.124022
  C     -0.322202    0.974660   -0.398935
  C     -1.341909    0.050372   -1.128297
  C     -1.075793   -1.402552   -0.750126
  C     -1.063816   -1.599338    0.579901
  Cl    -0.761387   -3.162944    1.329922
  C     -0.879646   -2.414811   -1.834002
  C      1.093361    0.640608   -0.866130
  O      1.523505    0.692353   -2.007944
  N      1.840824    0.235551    0.249198
  C      1.107224    0.266434    1.445211
  O      1.553241   -0.046466    2.538404
  C      3.201423   -0.218505    0.167417
  C      4.228533    0.577396    0.681274
  C      5.548223    0.120184    0.603875
  C      5.829849   -1.117691    0.012173
  C      4.790559   -1.904246   -0.501307
  C      3.467755   -1.457907   -0.422450
  H     -4.934395    2.404795    0.796107
  H     -5.568370    2.045359   -0.824167
  H     -4.957192    3.670611   -0.447425
  H     -2.619587    2.756642   -0.190283
  H     -3.248202    2.412894   -1.811331
  H     -3.500453   -0.661386    1.603624
  H     -2.952398    1.010955    1.857096
  H     -1.190623   -0.697916    2.544583
  H     -0.545896    1.605676    1.710102
  H     -0.515306    2.025402   -0.638800
  H     -1.296220    0.201174   -2.211314
  H     -0.727229   -3.420851   -1.432325
  H     -0.012284   -2.144958   -2.453835
  H     -1.755604   -2.427277   -2.498625
  H      3.993204    1.539480    1.131347
  H      6.354924    0.732569    1.002407
  H      6.858260   -1.469293   -0.048701
  H      5.008006   -2.867061   -0.959950
  H      2.647440   -2.059397   -0.808058
