38
  Isotropic shielding for P: 245.674 ppm
  N     -0.085113   -2.817825    1.008239
  C      0.557947   -2.138976    0.304955
  C      1.415168   -1.393358   -0.526633
  C      2.638311   -1.942029   -0.932987
  N      3.163890   -3.153355   -0.599921
  S      3.518003   -0.802150   -1.917935
  C      2.255230    0.424776   -1.778694
  C      1.208412   -0.036391   -1.022191
  P     -0.267744    0.951214   -0.649966
  O     -0.504401    2.103962   -1.599687
  C     -0.078266    1.505388    1.071222
  C      0.951688    1.041768    1.905404
  C      1.070898    1.528314    3.211594
  C      0.163368    2.478577    3.693176
  C     -0.863220    2.948951    2.863721
  C     -0.982442    2.468359    1.557310
  C     -1.626197   -0.254671   -0.697961
  C     -2.528618   -0.429968    0.361122
  C     -3.574162   -1.351687    0.244890
  C     -3.720410   -2.104557   -0.925735
  C     -2.823253   -1.930396   -1.988342
  C     -1.781746   -1.007923   -1.876649
  C      2.494184    1.744365   -2.451798
  H      3.938748   -3.520171   -1.142763
  H      2.536314   -3.856850   -0.220438
  H      1.670413    0.313179    1.539742
  H      1.876148    1.168060    3.849632
  H      0.258442    2.856536    4.709843
  H     -1.567269    3.692810    3.232737
  H     -1.773292    2.846124    0.911771
  H     -2.407958    0.134109    1.282361
  H     -4.268227   -1.487874    1.072443
  H     -4.529375   -2.828373   -1.010450
  H     -2.933034   -2.516253   -2.899433
  H     -1.082013   -0.880899   -2.701513
  H      2.666218    1.613164   -3.529235
  H      3.383999    2.237751   -2.035897
  H      1.629155    2.395993   -2.312138
