45
  Isotropic shielding for P: 179.719 ppm
  S     -0.423812   -1.532296    3.074715
  P      0.105694   -0.691355    1.374976
  O      0.310440   -1.796917    0.161271
  C      1.719007   -1.939772   -0.200632
  C      2.534347   -1.266309    0.927909
  O      1.670607   -0.158176    1.366992
  C      3.887244   -0.763905    0.499840
  C      5.030783   -1.495520    0.853409
  C      6.298045   -1.083837    0.424544
  C      6.432386    0.072844   -0.351826
  C      5.294251    0.813247   -0.699430
  C      4.027650    0.394706   -0.281487
  N     -0.901503    0.482057    0.932361
  C     -0.954521    1.145777   -0.221590
  C      0.014599    1.190688   -1.265092
  C     -0.185344    1.943318   -2.403332
  C     -1.369063    2.696117   -2.559177
  C     -2.306902    2.649068   -1.555832
  N     -2.114454    1.899515   -0.430184
  C     -3.188314    1.836919    0.593357
  C     -3.852368    0.473831    0.657569
  C     -4.230320   -0.052009    1.900434
  C     -4.867286   -1.294501    1.982498
  C     -5.124446   -2.029774    0.818693
  C     -4.746366   -1.510093   -0.425471
  C     -4.117876   -0.262247   -0.505742
  H      1.885529   -1.441157   -1.163391
  H      1.951783   -3.005922   -0.285698
  H      2.644695   -1.963504    1.769677
  H      4.926550   -2.388803    1.468435
  H      7.178087   -1.660743    0.704279
  H      7.417815    0.399748   -0.679917
  H      5.393679    1.717645   -1.297717
  H      3.149467    0.976690   -0.550433
  H      0.928608    0.625480   -1.136390
  H      0.576837    1.958436   -3.180355
  H     -1.552691    3.302470   -3.440572
  H     -3.245476    3.192432   -1.600495
  H     -2.752289    2.089116    1.563896
  H     -3.912498    2.614128    0.326257
  H     -4.008182    0.506789    2.808801
  H     -5.149388   -1.694349    2.955341
  H     -5.611015   -3.001860    0.881216
  H     -4.940437   -2.076065   -1.335450
  H     -3.823651    0.127998   -1.478762
