54
  Isotropic shielding for P: 206.302 ppm
  O      1.939627   -2.475167    0.142019
  P      1.495112   -1.592428   -1.160091
  O      1.047468   -2.419532   -2.335043
  C      0.235433   -0.396099   -0.597880
  C     -1.162123   -1.026449   -0.369976
  C     -1.125578   -2.062473    0.745350
  C     -0.818884   -1.696585    2.068672
  C     -0.771574   -2.655861    3.084438
  C     -1.027401   -4.003363    2.795896
  C     -1.332550   -4.380983    1.483775
  C     -1.382100   -3.415647    0.468801
  C     -2.233623    0.057470   -0.089834
  C     -2.546253    0.956818   -1.307259
  C     -3.628977    1.966703   -0.993476
  C     -3.304488    3.219442   -0.445376
  C     -4.304783    4.139231   -0.109700
  C     -5.652638    3.819010   -0.317667
  C     -5.989474    2.573973   -0.864060
  C     -4.984558    1.657900   -1.197147
  C      3.029073   -0.639483   -1.494922
  N      3.373052    0.326231   -0.451390
  C      4.019324    1.569546   -0.951799
  C      5.538679    1.533331   -0.795784
  O      5.922592    1.420362    0.603327
  C      4.911490    0.781327    1.426460
  C      4.136353   -0.285177    0.664236
  H      1.194764   -2.991415    0.514341
  H      0.189285    0.366955   -1.386449
  H      0.602429    0.096380    0.310391
  H     -1.451696   -1.547009   -1.293507
  H     -0.607055   -0.655410    2.306692
  H     -0.531061   -2.352948    4.102599
  H     -0.986213   -4.750742    3.586600
  H     -1.530752   -5.425260    1.246671
  H     -1.614851   -3.714721   -0.552626
  H     -3.159987   -0.446632    0.220500
  H     -1.915941    0.684735    0.755566
  H     -1.638588    1.487304   -1.623736
  H     -2.861385    0.320240   -2.146545
  H     -2.257069    3.475537   -0.283861
  H     -4.032528    5.106763    0.310510
  H     -6.432492    4.534090   -0.060027
  H     -7.034528    2.317376   -1.033761
  H     -5.252993    0.691257   -1.624100
  H      3.832018   -1.372711   -1.713338
  H      2.809339   -0.110211   -2.430673
  H      3.757305    1.712757   -2.005982
  H      3.623045    2.433798   -0.398547
  H      5.960662    0.685498   -1.360769
  H      5.992053    2.459647   -1.172447
  H      5.444345    0.326593    2.269906
  H      4.220016    1.541949    1.825959
  H      3.450713   -0.799861    1.348846
  H      4.847771   -1.045956    0.286320
