63
  Isotropic shielding for P: 238.287 ppm
  C     -9.093943   -0.778348   -0.041408
  C     -7.968836   -0.040002   -0.784913
  C     -6.600132   -0.283556   -0.129206
  C     -5.379541    0.263460   -0.899763
  P     -5.340022    2.092484   -1.179313
  O     -4.010381    2.627007   -1.595605
  O     -5.930322    2.650056    0.215053
  O     -6.536389    2.442572   -2.219848
  N     -4.140555   -0.126333   -0.234496
  C     -3.043104   -0.595243   -0.908805
  O     -3.074487   -0.789163   -2.142434
  C     -1.829217   -0.880212   -0.093355
  C     -0.802772   -1.659808   -0.660228
  C      0.355557   -1.969201    0.038095
  C      0.557261   -1.508229    1.367809
  C     -0.462677   -0.687652    1.922775
  C     -1.621279   -0.395773    1.211683
  N      1.675429   -1.857431    2.108000
  C      2.867804   -2.492910    1.508172
  C      3.939356   -1.494964    1.107749
  C      5.151243   -1.425384    1.819644
  C      6.124231   -0.477344    1.515931
  C      5.908081    0.448403    0.476302
  C      4.684557    0.394295   -0.243597
  C      3.727052   -0.574186    0.078298
  C      4.400115    1.417990   -1.281416
  O      3.285654    1.552903   -1.826435
  N      5.442498    2.262726   -1.558014
  C      6.838640    1.973539   -1.191844
  N      6.826002    1.443007    0.177974
  C      7.518317    1.028729   -2.199787
  C      1.906457   -1.244566    3.425770
  C      2.291994    0.174936    3.372156
  C      2.594563    1.345488    3.306899
  H     -9.158444   -0.446008    1.004432
  H     -8.920292   -1.863601   -0.038061
  H    -10.067598   -0.592957   -0.513751
  H     -7.933726   -0.374569   -1.832577
  H     -8.192093    1.033789   -0.808488
  H     -6.436179   -1.367271   -0.034974
  H     -6.596129    0.127528    0.890186
  H     -5.349545   -0.168363   -1.908678
  H     -5.836032    3.619217    0.316743
  H     -6.219773    2.470447   -3.144905
  H     -4.100234   -0.011194    0.772369
  H     -0.927951   -2.030715   -1.675009
  H      1.106454   -2.574439   -0.458187
  H     -0.351694   -0.262084    2.913865
  H     -2.351526    0.253547    1.692027
  H      3.277104   -3.185271    2.254743
  H      2.551238   -3.100916    0.657791
  H      5.332728   -2.130756    2.630643
  H      7.058029   -0.443284    2.075839
  H      2.796319   -0.575739   -0.483851
  H      5.289834    2.934458   -2.306744
  H      7.373140    2.930422   -1.171867
  H      7.751851    1.321701    0.582084
  H      7.495967    1.471639   -3.203862
  H      8.565911    0.868540   -1.913604
  H      7.004320    0.059916   -2.229193
  H      2.700309   -1.819099    3.918708
  H      1.009374   -1.361140    4.048903
  H      2.867182    2.378504    3.242674
