56
  Isotropic shielding for P: 200.513 ppm
  C      2.467079   -3.020636    2.420094
  O      3.092628   -2.157308    1.416397
  C      2.495075   -2.128377    0.209530
  O      1.506887   -2.774430   -0.098629
  C      3.279692   -1.239601   -0.758260
  N      2.375155   -0.621344   -1.734831
  C      2.488418   -0.919336   -3.064888
  C      1.637368   -0.372591   -3.991854
  C      0.625249    0.506375   -3.537939
  C      0.501654    0.802358   -2.199598
  C      1.390250    0.243719   -1.227209
  N      1.426996    0.421197    0.083519
  P      0.317639    1.153449    1.052866
  S      0.694790    0.707107    2.969163
  N     -1.221158    0.707926    0.484875
  C     -1.462876   -0.766933    0.389859
  C     -2.199086   -1.118966   -0.930869
  C     -2.956253   -2.468062   -0.835882
  C     -2.207423   -3.456614    0.075909
  C     -2.132422   -2.921616    1.534134
  C     -2.199333   -1.373827    1.600355
  C     -2.391384    1.515158    0.873113
  C      0.411830    2.967422    0.822325
  C     -0.205664    3.833596    1.742435
  C     -0.106775    5.218371    1.589467
  C      0.626586    5.757643    0.523890
  C      1.261294    4.903184   -0.383558
  C      1.153828    3.515069   -0.236655
  H      3.090501   -2.917466    3.310045
  H      1.447646   -2.675211    2.617006
  H      2.456232   -4.057247    2.068505
  H      3.819389   -0.468315   -0.203560
  H      3.997619   -1.862951   -1.302110
  H      3.287588   -1.605887   -3.326761
  H      1.751772   -0.621731   -5.042098
  H     -0.065362    0.950856   -4.252816
  H     -0.284634    1.456530   -1.842742
  H     -0.471706   -1.231380    0.356124
  H     -2.905232   -0.317074   -1.183911
  H     -1.461675   -1.156142   -1.741743
  H     -3.087405   -2.890381   -1.841545
  H     -3.966777   -2.302450   -0.433293
  H     -2.694434   -4.441107    0.060421
  H     -1.191920   -3.603486   -0.319477
  H     -2.956652   -3.339512    2.128857
  H     -1.199555   -3.266613    2.001709
  H     -1.746795   -1.014006    2.531256
  H     -3.247405   -1.044471    1.598711
  H     -3.268924    1.149587    0.329230
  H     -2.610713    1.468169    1.951627
  H     -2.236434    2.560355    0.592923
  H     -0.752236    3.421871    2.587595
  H     -0.594888    5.876960    2.306207
  H      0.710134    6.837220    0.409060
  H      1.845549    5.313550   -1.205741
  H      1.666372    2.867496   -0.941335
