59
  Isotropic shielding for P: 156.816 ppm
  C     -7.212244    2.650483   -0.748434
  C     -6.101955    2.813806    0.277316
  O     -5.081791    1.750781    0.163037
  P     -5.308235    0.257528    0.708801
  S     -6.379594    0.045702    2.344246
  C     -3.560146   -0.330032    0.929178
  C     -2.766477   -0.359050   -0.379457
  C     -1.306062   -0.828321   -0.209929
  C     -0.445288    0.094519    0.670717
  C      1.008632   -0.384355    0.842833
  C      1.821811   -0.306955   -0.459205
  N      3.227731   -0.729085   -0.254627
  C      3.542666   -2.090374   -0.478717
  O      2.689715   -2.910656   -0.843495
  C      4.933859   -2.400178   -0.237752
  F      5.319407   -3.694938   -0.432955
  C      5.827847   -1.477865    0.185846
  N      5.439415   -0.179277    0.390424
  C      4.131547    0.250990    0.178895
  O      3.800306    1.427528    0.362605
  C      6.430589    0.869838    0.848780
  C      6.886021    1.786103   -0.314871
  C      8.421551    1.828495   -0.157201
  C      8.718269    0.468285    0.471580
  O      7.582642    0.232761    1.374561
  O     -3.601004   -1.661996    1.481306
  O     -5.902183   -0.485664   -0.599190
  C     -6.426267   -1.863861   -0.551828
  C     -7.191725   -2.111242   -1.839251
  H     -6.804156    2.607242   -1.765657
  H     -7.887210    3.514771   -0.681885
  H     -7.797358    1.742500   -0.561872
  H     -5.532787    3.734865    0.118523
  H     -6.488658    2.801991    1.303185
  H     -3.108319    0.372690    1.647089
  H     -2.781635    0.651163   -0.811056
  H     -3.281818   -1.021019   -1.087997
  H     -0.868305   -0.900154   -1.215185
  H     -1.295071   -1.844445    0.208779
  H     -0.447499    1.112595    0.248829
  H     -0.893554    0.173412    1.670847
  H      1.016866   -1.420230    1.211863
  H      1.507380    0.233424    1.601588
  H      1.411606   -0.966307   -1.226467
  H      1.842549    0.717963   -0.839781
  H      6.863333   -1.719797    0.398746
  H      5.925110    1.411333    1.653417
  H      6.418435    2.771853   -0.250248
  H      6.603536    1.332708   -1.272304
  H      8.721260    2.634049    0.524565
  H      8.936477    1.968719   -1.113946
  H      9.619729    0.434753    1.090279
  H      8.759238   -0.332034   -0.282702
  H     -4.135471   -1.624694    2.301308
  H     -7.069537   -1.954906    0.331347
  H     -5.573854   -2.544821   -0.444437
  H     -7.579445   -3.138681   -1.836583
  H     -8.039539   -1.420839   -1.929762
  H     -6.540339   -1.990873   -2.713895
