66
  Isotropic shielding for P: 287.153 ppm
  C      6.779210   -1.539461   -2.345195
  C      5.316642   -1.425684   -2.810542
  C      4.387850   -0.703693   -1.814213
  C      4.711861    0.788460   -1.611194
  C      3.778577    1.497025   -0.608781
  C      2.324772    1.627000   -1.096343
  C      1.372354    2.320717   -0.103313
  C      1.175450    1.525013    1.200316
  C      0.031975    2.016757    2.108736
  C     -1.375382    2.070889    1.474353
  P     -2.077405    0.453874    0.911195
  O     -1.918535    0.955264   -0.856013
  C     -1.123814    0.127438   -1.567909
  C     -0.611679   -0.960189   -0.817980
  C     -1.018799   -0.986026    0.529864
  C     -0.566840   -1.999851    1.360254
  C      0.312608   -2.975681    0.822794
  C      0.727526   -2.941112   -0.502681
  C      0.269706   -1.920256   -1.380259
  C      0.620178   -1.762417   -2.752031
  C      0.102342   -0.696379   -3.473422
  C     -0.774868    0.266835   -2.901158
  O     -2.227643   -0.085172    2.666851
  C     -3.513814   -0.191589    3.065681
  C     -4.459306    0.062195    2.038500
  C     -3.896171    0.396333    0.791235
  C     -4.726477    0.658646   -0.287094
  C     -6.131403    0.586553   -0.094614
  C     -6.688446    0.265717    1.137046
  C     -5.860168   -0.010536    2.260164
  C     -6.297190   -0.346439    3.574550
  C     -5.359068   -0.586160    4.568808
  C     -3.955944   -0.515731    4.338689
  H      6.841241   -2.057860   -1.377133
  H      7.246734   -0.553490   -2.225304
  H      7.381045   -2.106171   -3.068581
  H      4.920553   -2.436502   -2.991958
  H      5.279623   -0.902721   -3.779899
  H      4.434722   -1.216306   -0.838480
  H      3.352382   -0.807913   -2.165512
  H      5.748830    0.893397   -1.260657
  H      4.661012    1.304180   -2.585119
  H      3.807590    0.948695    0.345302
  H      4.172210    2.504387   -0.397400
  H      2.321491    2.183068   -2.047446
  H      1.918641    0.632184   -1.323625
  H      0.404135    2.458731   -0.602560
  H      1.746217    3.330465    0.133904
  H      2.101520    1.553787    1.791263
  H      1.016257    0.469234    0.948629
  H     -0.005161    1.388999    3.008383
  H      0.256984    3.038528    2.451973
  H     -1.400804    2.747852    0.616665
  H     -2.092488    2.438324    2.219640
  H     -0.860450   -2.043451    2.403731
  H      0.675168   -3.768129    1.475676
  H      1.411894   -3.701025   -0.878733
  H      1.296337   -2.474031   -3.222024
  H      0.379674   -0.579771   -4.520406
  H     -1.151438    1.097411   -3.494556
  H     -4.319174    0.919859   -1.258599
  H     -6.786323    0.793841   -0.939468
  H     -7.771420    0.224298    1.250316
  H     -7.362452   -0.409591    3.790044
  H     -5.701757   -0.839844    5.571385
  H     -3.250793   -0.711274    5.144048
