60
  Isotropic shielding for P: 212.690 ppm
  C      1.748668   -3.534531   -2.627509
  O      1.181926   -2.557778   -1.699156
  C      2.074814   -1.822704   -0.994954
  O      3.288332   -1.924336   -1.105365
  C      1.395462   -0.871929   -0.065789
  C      0.062819   -0.846839    0.124444
  C     -0.431335    0.185440    1.039707
  N     -1.635428    0.452759    1.420776
  P     -3.004633   -0.407435    0.930686
  S     -3.175149   -2.203356    1.754578
  C     -4.352407    0.721328    1.391952
  C     -4.176892    1.726220    2.355336
  C     -5.260098    2.530094    2.728616
  C     -6.516298    2.336431    2.142794
  C     -6.691619    1.334439    1.178329
  C     -5.614618    0.527659    0.804475
  C     -3.003430   -0.425601   -0.895924
  C     -3.237150   -1.607628   -1.609781
  C     -3.193150   -1.599611   -3.008396
  C     -2.913557   -0.412056   -3.694052
  C     -2.683016    0.772570   -2.980801
  C     -2.730358    0.769217   -1.585119
  S      0.923783    1.146915    1.638435
  C      2.228132    0.170361    0.670226
  C      3.158819   -0.395817    1.743693
  C      3.128210   -1.747156    2.112386
  C      3.938044   -2.219402    3.152069
  C      4.783246   -1.345103    3.842070
  C      4.807179    0.010710    3.489616
  C      3.999293    0.480425    2.452510
  C      2.905018    1.077926   -0.376306
  C      4.288374    1.034475   -0.595546
  C      4.873031    1.814158   -1.600239
  C      4.081888    2.636529   -2.408365
  C      2.695962    2.668301   -2.208767
  C      2.114357    1.893896   -1.202533
  H      0.885813   -4.015915   -3.090895
  H      2.361649   -3.024348   -3.377593
  H      2.355518   -4.262213   -2.078970
  H     -0.620224   -1.531688   -0.363433
  H     -3.198658    1.879845    2.802637
  H     -5.119954    3.309957    3.475454
  H     -7.356411    2.965159    2.433403
  H     -7.666193    1.183536    0.717107
  H     -5.755771   -0.249213    0.054945
  H     -3.442367   -2.528406   -1.067603
  H     -3.374872   -2.520241   -3.560352
  H     -2.875195   -0.407299   -4.782166
  H     -2.465475    1.697615   -3.511986
  H     -2.549585    1.690882   -1.035163
  H      2.469503   -2.444872    1.602730
  H      3.903545   -3.274045    3.420496
  H      5.413063   -1.713159    4.650187
  H      5.451943    0.704933    4.026061
  H      4.017910    1.537995    2.196732
  H      4.916071    0.385718    0.006141
  H      5.950629    1.771846   -1.750566
  H      4.538247    3.244273   -3.187969
  H      2.065581    3.297994   -2.834442
  H      1.036913    1.932874   -1.058755
