65
  Isotropic shielding for P: 227.178 ppm
  C      2.790969   -2.150465   -2.816283
  N      1.471063   -1.753241   -2.327589
  N      0.507812   -2.783342   -2.444198
  C     -0.343595   -2.678169   -1.475760
  C     -0.072252   -1.491652   -0.568241
  C      1.418721   -1.255914   -0.905684
  N      1.945384    0.085124   -0.753847
  C      3.311927    0.175392   -0.188993
  C      3.882304    1.589006   -0.463289
  C      5.039002    1.966984    0.500347
  C      5.809339    0.716632    0.961091
  C      4.886887   -0.233974    1.772885
  C      3.405212   -0.142108    1.318662
  C     -1.093589   -0.365915   -0.979466
  C     -2.428319   -0.968084   -1.535633
  C     -2.739473   -2.367180   -0.969966
  C     -1.656014   -3.393380   -1.407507
  P     -1.373304    0.809342    0.414906
  O     -0.074626    1.269208    1.053945
  C     -2.353951    2.199574   -0.233028
  C     -2.434275    2.494758   -1.603713
  C     -3.122965    3.631445   -2.040737
  C     -3.732956    4.483509   -1.113430
  C     -3.650543    4.199636    0.256104
  C     -2.964570    3.064728    0.694270
  C     -2.438276   -0.048583    1.614025
  C     -1.813213   -0.758768    2.653848
  C     -2.578131   -1.499141    3.560149
  C     -3.972463   -1.530131    3.438140
  C     -4.601340   -0.813784    2.411911
  C     -3.838911   -0.075835    1.502744
  H      3.273844   -2.901207   -2.161851
  H      3.432540   -1.264237   -2.867502
  H      2.688380   -2.568719   -3.823451
  H     -0.194240   -1.751239    0.488550
  H      1.996860   -1.984051   -0.298788
  H      1.314803    0.642487   -0.167041
  H      3.929511   -0.559244   -0.723698
  H      4.221279    1.635294   -1.507907
  H      3.065727    2.319009   -0.364081
  H      4.633367    2.479405    1.385730
  H      5.715364    2.681629    0.012000
  H      6.682667    1.000656    1.564003
  H      6.199399    0.191836    0.075862
  H      4.952677    0.009391    2.842827
  H      5.242919   -1.268167    1.663362
  H      2.883146    0.651880    1.873311
  H      2.882274   -1.080681    1.546669
  H     -0.624740    0.236400   -1.767414
  H     -2.342606   -1.033791   -2.629221
  H     -3.266831   -0.290377   -1.341363
  H     -2.783134   -2.322468    0.124330
  H     -3.727454   -2.697382   -1.313218
  H     -1.617114   -4.219954   -0.681500
  H     -1.889781   -3.826059   -2.389035
  H     -1.964509    1.846325   -2.338667
  H     -3.182751    3.848982   -3.105778
  H     -4.270313    5.366480   -1.455609
  H     -4.121787    4.860722    0.981447
  H     -2.906594    2.849908    1.759909
  H     -0.730491   -0.725117    2.754311
  H     -2.086522   -2.048204    4.361510
  H     -4.568420   -2.105528    4.144745
  H     -5.686100   -0.828275    2.320601
  H     -4.337420    0.478530    0.711591
