56
  Isotropic shielding for P: 211.268 ppm
  C      1.111486    2.463281   -3.670900
  C      0.615399    2.863180   -2.295704
  O      0.092439    3.958827   -2.082493
  C      0.841120    1.846044   -1.225060
  C      0.191751    1.785169   -0.042318
  P      0.686055    0.536100    1.223582
  S      1.484684    1.393201    2.833471
  C     -0.871802   -0.361108    1.598177
  C     -1.508069   -1.107022    0.401538
  C     -2.857672   -1.680604    0.782293
  C     -2.984684   -3.024002    1.169227
  C     -4.225417   -3.543789    1.558596
  C     -5.359567   -2.722668    1.566331
  C     -5.243406   -1.379929    1.182421
  C     -4.001906   -0.864552    0.794977
  C      1.792979   -0.699338    0.425710
  C      3.280152   -0.289009    0.339846
  C      4.102944   -1.383249   -0.308036
  C      4.642264   -2.425276    0.464111
  C      5.371703   -3.458109   -0.136107
  C      5.571797   -3.463341   -1.522641
  C      5.038897   -2.428688   -2.302088
  C      4.309482   -1.398373   -1.697210
  C     -0.984805    2.617541    0.318138
  C     -2.180339    2.447742   -0.405473
  C     -3.324984    3.169649   -0.064197
  C     -3.293222    4.076057    1.003464
  C     -2.107058    4.252916    1.724946
  C     -0.960158    3.525302    1.391247
  H      0.895503    3.248344   -4.401149
  H      0.638762    1.519561   -3.980108
  H      2.194325    2.273896   -3.632644
  H      1.602847    1.107899   -1.465655
  H     -1.562664    0.388350    2.003561
  H     -0.630089   -1.059325    2.410257
  H     -1.624438   -0.419230   -0.444946
  H     -0.842652   -1.914676    0.074383
  H     -2.104778   -3.667484    1.162382
  H     -4.306188   -4.589612    1.852282
  H     -6.325855   -3.125479    1.866076
  H     -6.121046   -0.734704    1.182346
  H     -3.918030    0.180545    0.498998
  H      1.387044   -0.937280   -0.565461
  H      1.691831   -1.603159    1.042480
  H      3.647996   -0.087904    1.352674
  H      3.384551    0.641096   -0.231685
  H      4.491457   -2.423781    1.543816
  H      5.787273   -4.255947    0.478134
  H      6.141730   -4.264414   -1.990907
  H      5.193673   -2.422263   -3.380293
  H      3.897449   -0.594169   -2.306901
  H     -2.207400    1.745142   -1.235526
  H     -4.243156    3.022451   -0.630709
  H     -4.185872    4.639741    1.269738
  H     -2.071393    4.961417    2.551193
  H     -0.040840    3.665335    1.951817
