59
  Isotropic shielding for P: 219.951 ppm
  O      3.152848    1.531143   -2.091727
  C      2.456860    0.383719   -1.559277
  P      0.671851    0.540218   -2.122105
  O      0.661354    1.245974   -3.453217
  O     -0.058687    1.336404   -0.906477
  C     -1.499380    1.092125   -0.790213
  C     -2.134826    2.174444    0.038824
  C     -3.494791    2.459373   -0.152309
  C     -4.147195    3.386040    0.667665
  C     -3.439997    4.045919    1.679914
  C     -2.077444    3.776138    1.862081
  C     -1.427425    2.843268    1.048547
  C     -1.731120   -0.364116   -0.204216
  N     -0.762792   -1.353237   -0.726932
  C     -0.247541   -1.095751   -2.073794
  C      0.608250   -2.211164   -2.643314
  C      1.116997   -3.243223   -1.842479
  C      1.943791   -4.228330   -2.397215
  C      2.270694   -4.194121   -3.756497
  C      1.757487   -3.170145   -4.564147
  C      0.931124   -2.188734   -4.011729
  C     -1.739187   -0.380654    1.310923
  C     -2.959903   -0.455385    1.996812
  C     -3.000110   -0.390370    3.393491
  C     -1.812702   -0.256164    4.123320
  C     -0.589329   -0.187865    3.446147
  C     -0.554217   -0.246012    2.049926
  C      2.664525    0.292265   -0.069256
  C      2.931441   -0.951666    0.521886
  C      3.110242   -1.056970    1.906241
  C      3.037115    0.085084    2.710801
  C      2.778092    1.331176    2.124183
  C      2.588928    1.435001    0.744072
  H      2.732021    1.744322   -2.953174
  H      2.822150   -0.540268   -2.034706
  H     -1.937773    1.117348   -1.796312
  H     -4.045914    1.950296   -0.942635
  H     -5.203896    3.597341    0.511102
  H     -3.944727    4.770013    2.317567
  H     -1.519512    4.291144    2.642824
  H     -0.373117    2.629712    1.199501
  H     -2.734033   -0.643776   -0.557840
  H      0.002438   -1.473947   -0.064578
  H     -1.100961   -0.933858   -2.749650
  H      0.869476   -3.291333   -0.785608
  H      2.331382   -5.023286   -1.761851
  H      2.914668   -4.959996   -4.185606
  H      1.996846   -3.138800   -5.625969
  H      0.534160   -1.395646   -4.643262
  H     -3.885089   -0.555323    1.430911
  H     -3.956682   -0.447734    3.910894
  H     -1.840802   -0.206828    5.210811
  H      0.340091   -0.079320    4.001860
  H      0.401408   -0.157421    1.542354
  H      3.001934   -1.839353   -0.104277
  H      3.313534   -2.029178    2.352242
  H      3.178249    0.006426    3.787340
  H      2.715354    2.222937    2.745778
  H      2.383644    2.402142    0.292550
