60
  Isotropic shielding for P: 245.367 ppm
  C      0.688666   -3.760082   -3.236450
  O      0.045339   -3.114091   -2.132598
  C     -0.356577   -1.719580   -2.472671
  C     -1.071165   -1.051262   -1.357650
  P     -0.184860   -0.222223   -0.153699
  C     -1.233951    0.989403    0.713635
  C     -2.073402    0.565359    1.756897
  C     -2.964117    1.458392    2.356843
  C     -3.032663    2.799757    1.946792
  C     -2.178896    3.218238    0.911474
  C     -1.293769    2.328591    0.300393
  C     -3.973091    3.773177    2.618893
  C      0.557690   -1.180123    1.231812
  C      0.718843   -2.564987    1.089502
  C      1.286358   -3.319935    2.120861
  C      1.698248   -2.717083    3.320633
  C      1.534920   -1.326069    3.453336
  C      0.973294   -0.566079    2.426163
  C      2.271578   -3.541920    4.450061
  C      1.220911    0.662859   -0.909325
  C      1.001440    1.385816   -2.095349
  C      2.040863    2.098304   -2.694398
  C      3.331176    2.106263   -2.136721
  C      3.543554    1.377875   -0.954568
  C      2.506648    0.665421   -0.346856
  C      4.464563    2.849230   -2.805041
  C     -2.521908   -1.359532   -1.176617
  O     -3.422725   -0.709816   -2.164881
  C     -3.500980    0.709218   -1.992660
  H      0.016123   -3.835650   -4.109775
  H      1.598589   -3.216596   -3.548369
  H      0.968174   -4.769346   -2.912013
  H     -1.008943   -1.792395   -3.360990
  H      0.561332   -1.192572   -2.774825
  H     -2.035383   -0.464665    2.104238
  H     -3.615994    1.107290    3.156425
  H     -2.209829    4.255072    0.577017
  H     -0.653187    2.684134   -0.502452
  H     -4.829844    3.255010    3.066020
  H     -4.346024    4.521663    1.908684
  H     -3.457928    4.316817    3.425226
  H      0.402337   -3.044582    0.164220
  H      1.409830   -4.395647    1.993357
  H      1.852043   -0.835163    4.373526
  H      0.859985    0.508541    2.557076
  H      1.473026   -3.878018    5.128709
  H      2.778143   -4.438120    4.071546
  H      2.984445   -2.960430    5.047573
  H      0.013824    1.378469   -2.551136
  H      1.849278    2.656622   -3.610482
  H      4.535307    1.366200   -0.502833
  H      2.707461    0.106897    0.562993
  H      4.089908    3.662816   -3.437401
  H      5.045259    2.170641   -3.447859
  H      5.157513    3.268186   -2.064810
  H     -2.739866   -2.424816   -1.340817
  H     -2.888087   -1.093398   -0.174307
  H     -4.166145    1.092862   -2.775486
  H     -3.914201    0.970849   -1.002871
  H     -2.513231    1.184414   -2.088191
