41
-1744.82520749; 31P isotropic shielding: 238.375090 ppm
  F      -3.564872     -0.695336     -0.471419
  C      -3.459599      0.194533      0.560633
  C      -2.006114      0.475046      0.933819
  O      -1.308338      1.059945     -0.163145
  P      -0.204166      0.163404     -1.021707
  N       0.196841     -1.135448     -0.293149
  Si      1.553515     -2.083841      0.126214
  C       0.978869     -3.534628      1.185209
  C       2.405020     -2.737670     -1.433545
  C       2.824864     -1.083238      1.123396
  C       3.406706      0.177103      0.427587
  Si      2.258342      1.665715      0.193788
  C       1.082175      1.407913     -1.295062
  C       3.307571      3.180958     -0.227497
  C       1.259294      1.996350      1.758873
  C      -1.061994     -0.091562     -2.609102
  F      -4.116419     -0.341162      1.635215
  F      -4.130967      1.321886      0.188871
  H      -1.537295     -0.469975      1.239318
  H      -2.001820      1.185493      1.769187
  H       1.814710     -4.188838      1.469842
  H       0.499580     -3.180851      2.108588
  H       0.242909     -4.142940      0.642097
  H       1.700292     -3.320917     -2.042007
  H       2.777880     -1.914280     -2.059325
  H       3.260191     -3.385807     -1.194920
  H       2.359579     -0.801038      2.080783
  H       3.648065     -1.767515      1.389356
  H       4.263840      0.560083      1.007684
  H       3.826571     -0.088068     -0.556449
  H       0.609735      2.360631     -1.574750
  H       1.681195      1.075401     -2.156216
  H       2.682054      4.069782     -0.387829
  H       3.895824      3.018232     -1.141307
  H       4.011801      3.410287      0.584020
  H       0.553894      2.825088      1.614517
  H       0.686135      1.113331      2.063953
  H       1.928154      2.262839      2.589020
  H      -1.897640     -0.780641     -2.450418
  H      -0.360568     -0.538942     -3.323587
  H      -1.440411      0.855876     -3.010538
>
41
-1744.82620080; 31P isotropic shielding: 237.644363 ppm
  F      -4.077345      1.498235     -0.063533
  C      -3.503023      0.338890      0.368355
  C      -2.063537      0.540936      0.834974
  O      -1.276613      1.112044     -0.207717
  P      -0.156763      0.190767     -1.015547
  N       0.178896     -1.119194     -0.270690
  Si      1.531444     -2.076289      0.148196
  C       1.511094     -2.429909      2.004076
  C       1.483075     -3.714584     -0.790248
  C       3.154155     -1.193387     -0.311550
  C       3.492903      0.114648      0.455439
  Si      2.279541      1.576187      0.341231
  C       1.172218      1.407996     -1.212825
  C       3.255456      3.183491      0.144577
  C       1.213391      1.697367      1.894066
  C      -0.945976     -0.033534     -2.643510
  F      -3.591844     -0.560044     -0.658177
  F      -4.262693     -0.138892      1.401081
  H      -1.657678     -0.429424      1.150809
  H      -2.077180      1.235876      1.683145
  H       1.585357     -1.506078      2.592938
  H       0.576399     -2.931370      2.290889
  H       2.344465     -3.083258      2.299080
  H       2.316184     -4.373342     -0.506794
  H       0.545312     -4.249676     -0.587063
  H       1.539754     -3.548267     -1.875179
  H       3.979051     -1.913519     -0.181238
  H       3.119237     -0.991802     -1.394919
  H       3.621308     -0.110142      1.526046
  H       4.473369      0.492846      0.122030
  H       0.730592      2.379530     -1.475443
  H       1.794724      1.090679     -2.062138
  H       2.589595      4.056855      0.113476
  H       3.849704      3.180327     -0.779698
  H       3.950030      3.324566      0.984591
  H       0.471521      2.502377      1.810758
  H       0.681228      0.760295      2.092441
  H       1.847658      1.913724      2.765230
  H      -0.221552     -0.486112     -3.331334
  H      -1.289463      0.924694     -3.050779
  H      -1.799797     -0.709305     -2.530246
>
41
-1744.82414767; 31P isotropic shielding: 237.268819 ppm
  F      -4.183966     -0.490734      1.406475
  C      -3.478754      0.149874      0.424182
  C      -2.049361      0.402756      0.897753
  O      -1.310723      1.120124     -0.088054
  P      -0.178735      0.336040     -1.017561
  N       0.183628     -1.056075     -0.458500
  Si      1.546703     -2.036612     -0.141485
  C       1.535304     -2.585534      1.666736
  C       1.508295     -3.569781     -1.243757
  C       3.157354     -1.092163     -0.510161
  C       3.494121      0.125656      0.393873
  Si      2.255996      1.567329      0.487499
  C       1.130296      1.590691     -1.061499
  C       3.206611      3.201351      0.500033
  C       1.202595      1.464404      2.050197
  C      -0.978772      0.321183     -2.655025
  F      -4.142605      1.303011      0.126032
  F      -3.519381     -0.637789     -0.692322
  H      -1.579690     -0.565901      1.114021
  H      -2.096234      1.010346      1.809256
  H       0.601192     -3.113888      1.902583
  H       2.368846     -3.268186      1.884880
  H       1.615510     -1.731513      2.352099
  H       0.575350     -4.129406     -1.091115
  H       1.556957     -3.292686     -2.306104
  H       2.347436     -4.247534     -1.032687
  H       3.990151     -1.813919     -0.468865
  H       3.110373     -0.771546     -1.564085
  H       3.658765     -0.218710      1.427242
  H       4.457858      0.559369      0.079859
  H       0.669664      2.581295     -1.182606
  H       1.743566      1.404084     -1.955042
  H       3.913838      3.234816      1.340621
  H       2.529193      4.060387      0.600644
  H       3.784894      3.335134     -0.424637
  H       1.837985      1.582123      2.939127
  H       0.443953      2.257587      2.072387
  H       0.690868      0.499015      2.129666
  H      -1.344026      1.319683     -2.922749
  H      -1.818283     -0.380903     -2.631021
  H      -0.252370     -0.016079     -3.404190
>
41
-1744.82406537; 31P isotropic shielding: 237.623086 ppm
  F      -4.192305     -0.484546      1.378775
  C      -3.482294      0.156134      0.399992
  C      -2.054627      0.406960      0.879753
  O      -1.310848      1.123648     -0.102696
  P      -0.175389      0.338329     -1.026907
  N       0.182539     -1.054340     -0.466344
  Si      1.542731     -2.036672     -0.142604
  C       1.521838     -2.585731      1.665479
  C       1.507698     -3.569664     -1.245246
  C       3.156285     -1.094311     -0.503622
  C       3.490386      0.123069      0.401986
  Si      2.253870      1.566457      0.489703
  C       1.135369      1.591401     -1.064520
  C       3.206739      3.199107      0.506559
  C       1.192773      1.465349      2.047310
  C      -0.967589      0.324371     -2.668154
  F      -4.143617      1.310294      0.100175
  F      -3.519203     -0.630444     -0.717390
  H      -1.587106     -0.562358      1.097697
  H      -2.104609      1.014284      1.791269
  H       1.600472     -1.731950      2.351319
  H       0.585666     -3.112373      1.896929
  H       2.353072     -3.269984      1.887378
  H       1.561208     -3.292327     -2.307296
  H       2.345305     -4.248234     -1.030740
  H       0.573598     -4.128482     -1.096793
  H       3.987990     -1.817094     -0.458608
  H       3.114442     -0.773581     -1.557727
  H       3.649549     -0.221540      1.436138
  H       4.456207      0.555470      0.092618
  H       0.676363      2.582536     -1.187425
  H       1.752530      1.404369     -1.955287
  H       3.789412      3.332011     -0.415479
  H       3.910178      3.231654      1.350351
  H       2.530075      4.059101      0.603993
  H       0.435134      2.259594      2.065465
  H       0.679316      0.500706      2.124588
  H       1.823901      1.582483      2.939346
  H      -0.237999     -0.014048     -3.413697
  H      -1.330240      1.323276     -2.937895
  H      -1.808123     -0.376624     -2.648093
>
41
-1744.82407769; 31P isotropic shielding: 237.619260 ppm
  F      -3.940207     -1.036880      1.292079
  C      -3.083664     -0.050186      0.890886
  C      -2.668353     -0.277304     -0.561620
  O      -1.819808      0.768332     -1.025397
  P      -0.165308      0.541247     -1.062582
  N       0.246318     -0.945157     -1.008431
  Si      1.051971     -2.051063      0.019611
  C      -0.179531     -3.094369      1.002779
  C       2.101987     -3.198141     -1.052442
  C       2.207661     -1.151277      1.235956
  C       3.088773     -0.063625      0.553111
  Si      2.349901      1.676303      0.528918
  C       0.459621      1.631111      0.245416
  C       3.183745      2.721417     -0.806919
  C       2.594956      2.501672      2.210990
  C       0.173411      1.359283     -2.650682
  F      -2.008693     -0.071314      1.742634
  F      -3.711984      1.144612      1.074816
  H      -3.578492     -0.278054     -1.173543
  H      -2.169825     -1.253187     -0.630563
  H       0.336819     -3.845613      1.617362
  H      -0.786582     -2.473433      1.674417
  H      -0.863460     -3.632103      0.331051
  H       2.871414     -2.640352     -1.603636
  H       2.606974     -3.967718     -0.451891
  H       1.472907     -3.707510     -1.795356
  H       1.615127     -0.722396      2.059719
  H       2.846260     -1.914423      1.708596
  H       4.060919      0.027152      1.065193
  H       3.333512     -0.356997     -0.479416
  H      -0.006404      1.278416      1.175268
  H       0.085811      2.651150      0.073718
  H       4.252835      2.842615     -0.583056
  H       2.743624      3.726242     -0.868308
  H       3.109987      2.260858     -1.800372
  H       2.162894      1.895823      3.019013
  H       3.663101      2.636417      2.430185
  H       2.118691      3.491105      2.246053
  H       1.255289      1.427713     -2.802933
  H      -0.264156      2.363749     -2.678843
  H      -0.260844      0.748481     -3.449580
>
41
-1744.82441083; 31P isotropic shielding: 238.542527 ppm
  F      -4.237699     -0.414234      1.183443
  C      -3.492625      0.222228      0.228285
  C      -2.076417      0.454387      0.750060
  O      -1.295593      1.163920     -0.208558
  P      -0.140877      0.366431     -1.098231
  N       0.183093     -1.031154     -0.530257
  Si      1.519024     -2.027017     -0.152352
  C       1.423091     -2.575929      1.653482
  C       1.508799     -3.560575     -1.254691
  C       3.155300     -1.102382     -0.450589
  C       3.466365      0.110296      0.469712
  Si      2.250255      1.573447      0.497130
  C       1.185635      1.603106     -1.094283
  C       3.226033      3.192292      0.531270
  C       1.133989      1.500949      2.017705
  C      -0.882712      0.363319     -2.762891
  F      -4.131505      1.385861     -0.084242
  F      -3.507214     -0.558521     -0.893412
  H      -1.627236     -0.521074      0.978882
  H      -2.146117      1.060630      1.660974
  H       1.472930     -1.723223      2.343369
  H       0.478614     -3.103642      1.845661
  H       2.244540     -3.260541      1.908592
  H       0.563422     -4.108515     -1.141059
  H       1.605401     -3.285059     -2.314153
  H       2.329961     -4.248403     -1.008321
  H       3.976711     -1.834210     -0.373741
  H       3.157924     -0.780147     -1.504987
  H       3.566471     -0.235390      1.510826
  H       4.453795      0.524939      0.208475
  H       0.743914      2.599658     -1.235532
  H       1.830585      1.404856     -1.962686
  H       3.841392      3.307356     -0.371767
  H       3.901036      3.223405      1.398050
  H       2.559244      4.062951      0.597176
  H       0.608657      0.541843      2.086473
  H       1.735274      1.619973      2.929935
  H       0.383965      2.302381      2.002828
  H      -1.732899     -0.326337     -2.768096
  H      -0.135697      0.014335     -3.485979
  H      -1.223730      1.366790     -3.043501
>
41
-1744.82414256; 31P isotropic shielding: 237.780347 ppm
  F      -3.846477     -1.364766      1.013425
  C      -3.084047     -0.293681      0.637947
  C      -2.611426     -0.467990     -0.803693
  O      -1.848142      0.655597     -1.228846
  P      -0.179009      0.573486     -1.259556
  N       0.387633     -0.859663     -1.150299
  Si      1.095788     -1.887619      0.023866
  C      -0.083628     -3.304527      0.443535
  C       2.692988     -2.611309     -0.678304
  C       1.484549     -0.962363      1.639229
  C       2.547175      0.168847      1.570722
  Si      2.217468      1.656663      0.432296
  C       0.357055      1.772306     -0.004937
  C       3.260179      1.529825     -1.138267
  C       2.668938      3.254974      1.335613
  C       0.090076      1.348781     -2.882275
  F      -2.033117     -0.211363      1.514768
  F      -3.834640      0.829968      0.810276
  H      -3.500550     -0.543975     -1.441564
  H      -2.027429     -1.395449     -0.866861
  H      -0.982424     -2.941096      0.959676
  H      -0.404908     -3.827307     -0.468079
  H       0.395623     -4.044570      1.099961
  H       3.417959     -1.824108     -0.924589
  H       3.172239     -3.298577      0.033256
  H       2.489437     -3.170565     -1.601757
  H       0.536583     -0.562502      2.029320
  H       1.806150     -1.714049      2.379568
  H       2.713694      0.577229      2.580997
  H       3.517984     -0.253720      1.267583
  H      -0.228092      1.575942      0.903243
  H       0.098637      2.787240     -0.338715
  H       4.326842      1.516515     -0.873719
  H       3.101416      2.385654     -1.808604
  H       3.044290      0.609688     -1.694785
  H       2.047718      3.394427      2.231032
  H       3.719107      3.239383      1.659195
  H       2.532256      4.134578      0.691507
  H      -0.235690      0.641082     -3.652593
  H       1.153888      1.562783     -3.022530
  H      -0.487993      2.275633     -2.970939
>
41
-1744.82382875; 31P isotropic shielding: 235.086611 ppm
  F      -4.561117     -1.503970     -0.032238
  C      -3.775239     -0.383646     -0.006997
  C      -2.436059     -0.708105      0.651221
  O      -1.629786      0.463284      0.762306
  P      -0.271826      0.641341     -0.192813
  N       0.329195     -0.685482     -0.716066
  Si      1.425638     -1.866538     -0.130373
  C       0.949461     -2.452373      1.610201
  C       1.409784     -3.343802     -1.301689
  C       3.190721     -1.167133     -0.069294
  C       3.424597      0.036101      0.884158
  Si      2.609217      1.688818      0.446660
  C       0.749635      1.667448      0.898638
  C       2.839596      2.085961     -1.383683
  C       3.391902      3.048783      1.500652
  C      -0.847458      1.713901     -1.543263
  F      -4.461613      0.586607      0.659275
  F      -3.627137      0.042594     -1.298204
  H      -1.934567     -1.484394      0.058081
  H      -2.641728     -1.089915      1.658873
  H       0.930199     -1.619868      2.327406
  H      -0.050145     -2.909183      1.611196
  H       1.654536     -3.203544      1.993977
  H       0.405609     -3.785674     -1.360568
  H       1.695312     -3.037048     -2.317125
  H       2.105156     -4.129914     -0.975954
  H       3.867249     -1.991793      0.211120
  H       3.475198     -0.890897     -1.096563
  H       3.125735     -0.228089      1.911700
  H       4.504931      0.252115      0.950609
  H       0.651594      1.254746      1.912747
  H       0.344005      2.688750      0.931365
  H       3.909157      2.144645     -1.628864
  H       2.388688      3.052473     -1.647204
  H       2.393705      1.313154     -2.021619
  H       4.467608      3.136366      1.294881
  H       2.933618      4.026945      1.299944
  H       3.274925      2.839966      2.573072
  H      -1.469748      1.119413     -2.219091
  H       0.016150      2.094873     -2.098561
  H      -1.433399      2.552583     -1.150811
>
41
-1744.82492712; 31P isotropic shielding: 231.921021 ppm
  F      -3.837415      1.543936      0.437047
  C      -3.332085      0.287866      0.602245
  C      -1.834716      0.303394      0.906007
  O      -1.117749      0.947683     -0.144716
  P      -0.130052      0.047420     -1.145447
  N       0.227395     -1.346524     -0.578949
  Si      1.634637     -2.114906      0.024870
  C       1.092197     -3.594596      1.064339
  C       2.705595     -2.723704     -1.415070
  C       2.708972     -0.959359      1.116698
  C       2.062789      0.388950      1.536536
  Si      2.071279      1.767059      0.237839
  C       1.212297      1.234744     -1.390680
  C       3.855310      2.210212     -0.206115
  C       1.167381      3.283110      0.906957
  C      -1.105147     -0.045573     -2.680002
  F      -3.623199     -0.416972     -0.530409
  F      -4.007305     -0.296869      1.637851
  H      -1.488000     -0.729204      1.045135
  H      -1.691992      0.870734      1.834770
  H       0.492436     -3.270410      1.926938
  H       0.469284     -4.276163      0.468899
  H       1.948848     -4.165658      1.448987
  H       2.151218     -3.419626     -2.059156
  H       3.041284     -1.884992     -2.042586
  H       3.605339     -3.244586     -1.055076
  H       2.977754     -1.532947      2.017973
  H       3.663688     -0.778169      0.598533
  H       1.031561      0.228867      1.885062
  H       2.598416      0.807807      2.406122
  H       0.828514      2.132739     -1.896321
  H       1.935301      0.762753     -2.070684
  H       4.398542      2.586294      0.672057
  H       3.893198      2.990920     -0.978445
  H       4.404574      1.338978     -0.587775
  H       1.603492      3.629302      1.853901
  H       1.216940      4.119813      0.195885
  H       0.107467      3.058459      1.079084
  H      -1.959364     -0.710251     -2.514326
  H      -0.475439     -0.472744     -3.469751
  H      -1.467447      0.942514     -2.986331
>
41
-1744.82359204; 31P isotropic shielding: 233.531122 ppm
  F      -3.898551     -0.982832      1.349120
  C      -3.249833     -0.113654      0.515115
  C      -1.752670     -0.131329      0.814884
  O      -1.063219      0.816209      0.004527
  P      -0.074697      0.292665     -1.237777
  N       0.411651     -1.166573     -1.113354
  Si      1.650508     -2.073774     -0.357475
  C       0.893592     -3.145583      1.006394
  C       2.487726     -3.187173     -1.629823
  C       2.966015     -0.957107      0.446309
  C       2.369548      0.169200      1.340845
  Si      2.080155      1.827216      0.480153
  C       1.165234      1.613361     -1.190595
  C       3.745408      2.625754      0.079454
  C       1.066061      2.970836      1.584559
  C      -1.099735      0.550685     -2.718794
  F      -3.801260      1.119984      0.694950
  F      -3.523867     -0.493854     -0.769112
  H      -1.375658     -1.148946      0.649480
  H      -1.620128      0.144124      1.868824
  H       1.634684     -3.832193      1.439249
  H       0.492733     -2.534472      1.827200
  H       0.067267     -3.750911      0.609150
  H       3.291012     -3.787576     -1.180022
  H       1.762526     -3.877072     -2.082369
  H       2.926428     -2.588888     -2.440379
  H       3.624942     -1.607145      1.043937
  H       3.614864     -0.535733     -0.338080
  H       1.428398     -0.159803      1.808434
  H       3.044211      0.390591      2.184468
  H       0.691786      2.570562     -1.453814
  H       1.890045      1.379532     -1.982853
  H       4.372215      1.964244     -0.533702
  H       4.302215      2.853404      0.998883
  H       3.614606      3.566531     -0.472811
  H       1.547913      3.100514      2.563477
  H       0.957565      3.967123      1.134051
  H       0.059272      2.567954      1.748202
  H      -1.565726      1.542493     -2.704261
  H      -1.877454     -0.218676     -2.750925
  H      -0.467580      0.454512     -3.609417
>
41
-1744.82546628; 31P isotropic shielding: 237.689452 ppm
  F      -3.881691     -0.973777      1.412294
  C      -3.243908     -0.107151      0.567166
  C      -1.742956     -0.124674      0.846693
  O      -1.064647      0.819658      0.023055
  P      -0.090567      0.290482     -1.228671
  N       0.392562     -1.170094     -1.105873
  Si      1.641349     -2.076319     -0.365076
  C       0.902227     -3.149429      1.007181
  C       2.465214     -3.187845     -1.647786
  C       2.964805     -0.957953      0.422809
  C       2.378020      0.168802      1.323231
  Si      2.084471      1.825950      0.462638
  C       1.153026      1.608595     -1.198103
  C       3.747573      2.619445      0.043992
  C       1.085036      2.975357      1.574329
  C      -1.131927      0.547761     -2.698167
  F      -3.792556      1.127179      0.751019
  F      -3.535194     -0.490826     -0.712152
  H      -1.368856     -1.143034      0.679425
  H      -1.595568      0.154624      1.897637
  H       0.074824     -3.759310      0.619250
  H       1.650781     -3.831777      1.433893
  H       0.506644     -2.538884      1.830950
  H       3.272177     -3.789978     -1.206935
  H       1.734726     -3.876286     -2.094050
  H       2.896630     -2.589059     -2.461834
  H       3.632258     -1.606539      1.012385
  H       3.602763     -0.537073     -0.370738
  H       1.439879     -0.158687      1.797803
  H       3.059731      0.388601      2.161453
  H       0.678452      2.565687     -1.459757
  H       1.869266      1.371218     -1.997053
  H       4.312790      2.849902      0.957552
  H       3.613254      3.558263     -0.510794
  H       4.367982      1.954673     -0.572093
  H       0.974995      3.970877      1.122483
  H       0.078633      2.576365      1.749475
  H       1.577318      3.106010      2.547896
  H      -0.510688      0.446617     -3.595897
  H      -1.594559      1.541083     -2.681159
  H      -1.912368     -0.219252     -2.718571
>
41
-1744.82544438; 31P isotropic shielding: 237.527346 ppm
  F      -3.866529     -0.930796      1.495421
  C      -3.234857     -0.072828      0.636800
  C      -1.730408     -0.098988      0.896206
  O      -1.056314      0.837391      0.060457
  P      -0.111186      0.298591     -1.209268
  N       0.354662     -1.168574     -1.095844
  Si      1.612472     -2.084549     -0.382448
  C       0.892526     -3.162759      0.995788
  C       2.408766     -3.193177     -1.684801
  C       2.956411     -0.979209      0.388961
  C       2.393581      0.149596      1.302257
  Si      2.106337      1.810753      0.447635
  C       1.148509      1.601917     -1.199051
  C       3.772205      2.585262      0.005152
  C       1.138466      2.973782      1.573148
  C      -1.176112      0.571660     -2.658878
  F      -3.773053      1.166085      0.821297
  F      -3.546306     -0.461412     -0.636300
  H      -1.365739     -1.120626      0.728180
  H      -1.567391      0.183703      1.943916
  H       0.516492     -2.556346      1.831671
  H       0.054303     -3.764932      0.619221
  H       1.645362     -3.852577      1.402565
  H       1.667579     -3.876046     -2.121908
  H       2.829305     -2.592610     -2.503268
  H       3.220308     -3.801161     -1.260621
  H       3.627455     -1.635550      0.965705
  H       3.585837     -0.560569     -0.412564
  H       1.458516     -0.169688      1.788333
  H       3.088910      0.358972      2.131839
  H       0.681278      2.563898     -1.455928
  H       1.850072      1.354472     -2.007904
  H       3.640366      3.526050     -0.546907
  H       4.376454      1.914207     -0.620068
  H       4.352680      2.808616      0.910899
  H       1.035611      3.970326      1.121801
  H       0.129449      2.589713      1.765496
  H       1.648381      3.098502      2.538437
  H      -1.963275     -0.188599     -2.669611
  H      -0.571900      0.470816     -3.568213
  H      -1.629822      1.568784     -2.627806
>
41
-1744.82540175; 31P isotropic shielding: 237.293536 ppm
  F      -3.836731     -0.937414      1.620729
  C      -3.227217     -0.083655      0.742162
  C      -1.716998     -0.105482      0.966484
  O      -1.064362      0.829706      0.112483
  P      -0.147030      0.289311     -1.176683
  N       0.327604     -1.175377     -1.069929
  Si      1.602121     -2.088627     -0.383087
  C       0.914032     -3.167819      1.010580
  C       2.372947     -3.196382     -1.701575
  C       2.959921     -0.978972      0.356978
  C       2.413358      0.152901      1.276236
  Si      2.105571      1.810337      0.421421
  C       1.107428      1.597002     -1.200497
  C       3.760901      2.582086     -0.064450
  C       1.166267      2.977915      1.566496
  C      -1.246153      0.552259     -2.602667
  F      -3.763441      1.155243      0.931148
  F      -3.567325     -0.481299     -0.520837
  H      -1.354047     -1.126869      0.792913
  H      -1.530081      0.180103      2.009389
  H       0.072842     -3.775809      0.650191
  H       1.678299     -3.852373      1.404708
  H       0.549455     -2.562248      1.852119
  H       1.623739     -3.878581     -2.125833
  H       2.778822     -2.595048     -2.526879
  H       3.191921     -3.805168     -1.293002
  H       3.643467     -1.631586      0.923147
  H       3.572253     -0.562720     -0.458840
  H       1.489753     -0.166146      1.783960
  H       3.125597      0.368545      2.089854
  H       0.630842      2.557360     -1.445989
  H       1.789285      1.351206     -2.026473
  H       4.351160      1.905839     -0.697415
  H       4.361504      2.812904      0.826212
  H       3.616621      3.518244     -0.621209
  H       0.158899      2.599746      1.778387
  H       1.695881      3.099247      2.521529
  H       1.060425      3.975282      1.117577
  H      -1.706034      1.546273     -2.564264
  H      -2.028083     -0.213388     -2.592774
  H      -0.662212      0.452151     -3.525202
>
41
-1744.82536904; 31P isotropic shielding: 237.513463 ppm
  F      -3.393142     -0.902340     -0.540607
  C      -3.643512      0.066814      0.391901
  C      -2.362700      0.600966      1.028895
  O      -1.553680      1.272879      0.062946
  P      -0.227669      0.519378     -0.586413
  N       0.221992     -0.660865      0.304409
  Si      1.335454     -1.955941      0.295283
  C       0.940106     -3.123391      1.721900
  C       1.265523     -2.917923     -1.336123
  C       3.095834     -1.271796      0.506675
  C       3.409758     -0.019589     -0.359207
  Si      2.594672      1.619979      0.152312
  C       0.927052      1.916826     -0.743050
  C       3.723573      3.040896     -0.383753
  C       2.296979      1.703301      2.011547
  C      -0.764228      0.103163     -2.282479
  F      -4.443707     -0.486016      1.353741
  F      -4.361775      1.044546     -0.230919
  H      -1.818341     -0.237640      1.482660
  H      -2.648317      1.328243      1.798099
  H      -0.056668     -3.569037      1.599276
  H       1.668484     -3.943800      1.789140
  H       0.949887     -2.585313      2.679700
  H       1.909599     -3.808239     -1.304193
  H       0.241604     -3.252881     -1.551098
  H       1.598540     -2.302977     -2.184149
  H       3.255704     -1.037835      1.570166
  H       3.813042     -2.075081      0.270163
  H       4.495192      0.176033     -0.349392
  H       3.169687     -0.214189     -1.418016
  H       0.450968      2.813220     -0.323273
  H       1.106700      2.120978     -1.807678
  H       4.686258      2.998647      0.144464
  H       3.269459      4.018569     -0.171330
  H       3.935274      2.998835     -1.461483
  H       3.230371      1.560076      2.573049
  H       1.886140      2.682287      2.295399
  H       1.585670      0.930658      2.325938
  H      -1.220579      0.973425     -2.769067
  H      -1.489672     -0.714736     -2.240337
  H       0.106869     -0.222731     -2.863393
>
41
-1744.82256731; 31P isotropic shielding: 234.794647 ppm
  F      -4.384752      0.718469     -0.815905
  C      -3.677161     -0.152590     -0.041091
  C      -2.579658      0.539308      0.764224
  O      -1.683328      1.246529     -0.093855
  P      -0.214523      0.587037     -0.487321
  N       0.170599     -0.538917      0.502173
  Si      1.234339     -1.877466      0.534795
  C       0.956017     -2.847564      2.127389
  C       0.955369     -3.029599     -0.944334
  C       3.035976     -1.266175      0.472334
  C       3.279017     -0.054261     -0.472386
  Si      2.638136      1.633737      0.130306
  C       0.869098      2.042423     -0.493557
  C       3.764111      2.989271     -0.557384
  C       2.610513      1.707922      2.013226
  C      -0.422290      0.123514     -2.242746
  F      -3.176849     -1.115538     -0.874569
  F      -4.559999     -0.761888      0.807983
  H      -2.044323     -0.219744      1.349648
  H      -3.058100      1.266664      1.430550
  H       1.083832     -2.200060      3.005596
  H      -0.060974     -3.261990      2.162996
  H       1.662159     -3.684882      2.219635
  H      -0.098875     -3.330371     -1.015189
  H       1.229545     -2.552099     -1.895166
  H       1.558605     -3.944126     -0.851456
  H       3.358730     -1.010327      1.492476
  H       3.675289     -2.109929      0.164794
  H       4.361957      0.082790     -0.629806
  H       2.874191     -0.259816     -1.477108
  H       0.437235      2.799086      0.175356
  H       0.895830      2.480077     -1.500488
  H       3.821356      2.942688     -1.654093
  H       4.786527      2.887467     -0.167735
  H       3.401294      3.990006     -0.285036
  H       2.355609      2.718922      2.360480
  H       1.866106      1.011270      2.417363
  H       3.589327      1.447275      2.438438
  H      -1.052799     -0.767671     -2.309926
  H       0.560864     -0.100745     -2.673546
  H      -0.884801      0.943104     -2.805266
>
41
-1744.82181301; 31P isotropic shielding: 233.562637 ppm
  F      -3.224813     -1.077951     -0.817153
  C      -3.671794     -0.138113      0.071765
  C      -2.528732      0.497429      0.860464
  O      -1.662174      1.238169      0.000545
  P      -0.225472      0.582826     -0.503262
  N       0.199120     -0.586983      0.415860
  Si      1.284381     -1.907397      0.379019
  C       0.990047     -2.988605      1.895320
  C       1.054596     -2.954845     -1.183613
  C       3.073606     -1.261042      0.398735
  C       3.316628     -0.000890     -0.480282
  Si      2.614267      1.643027      0.172951
  C       0.865431      2.035511     -0.510701
  C       3.731118      3.052464     -0.414886
  C       2.516174      1.637043      2.054890
  C      -0.536920      0.188121     -2.260184
  F      -4.535738     -0.762116      0.929296
  F      -4.387185      0.778078     -0.641069
  H      -1.979384     -0.297656      1.381614
  H      -2.965754      1.194997      1.584596
  H      -0.021564     -3.417244      1.881870
  H       1.706071     -3.821064      1.945832
  H       1.091363     -2.400502      2.817733
  H       1.326495     -2.399670     -2.092069
  H       1.680828     -3.857979     -1.151651
  H       0.009609     -3.276372     -1.291054
  H       3.359864     -1.047178      1.439371
  H       3.740291     -2.075851      0.071780
  H       4.400375      0.168160     -0.595500
  H       2.948586     -0.168662     -1.506189
  H       0.414401      2.815768      0.117045
  H       0.929649      2.440422     -1.529690
  H       3.833259      3.050819     -1.509328
  H       4.739560      2.960028      0.011788
  H       3.332162      4.032531     -0.118943
  H       3.487328      1.386889      2.503465
  H       2.218737      2.624227      2.435138
  H       1.780324      0.901271      2.400573
  H      -1.180438     -0.694027     -2.323892
  H       0.417718     -0.030237     -2.753665
  H      -1.020521      1.032606     -2.765221
>
41
-1744.82201112; 31P isotropic shielding: 233.992561 ppm
  F      -3.479035     -0.133220     -1.303981
  C      -3.777070     -0.056810      0.028802
  C      -2.540019     -0.228688      0.907493
  O      -1.611389      0.831486      0.685606
  P      -0.204145      0.550835     -0.162639
  N       0.148248     -0.948792     -0.308093
  Si      1.318845     -1.999907      0.368242
  C       1.006727     -2.292741      2.214903
  C       1.222047     -3.651741     -0.536424
  C       3.089851     -1.287201      0.169821
  C       3.218543     -0.034297     -0.741979
  Si      2.747419      1.619155      0.044732
  C       0.964067      1.591728      0.748338
  C       2.875801      2.999364     -1.238416
  C       3.893056      1.994793      1.498078
  C      -0.543946      1.371398     -1.749779
  F      -4.682303     -1.045560      0.304007
  F      -4.398842      1.139625      0.232234
  H      -2.087710     -1.204324      0.685017
  H      -2.864557     -0.195347      1.954730
  H       0.031127     -2.769861      2.383103
  H       1.775245     -2.942735      2.658015
  H       1.014900     -1.345393      2.772997
  H       1.946019     -4.376576     -0.137973
  H       0.218839     -4.090198     -0.445169
  H       1.429345     -3.520139     -1.607434
  H       3.509712     -1.076985      1.165809
  H       3.715657     -2.097140     -0.237412
  H       4.263205      0.085853     -1.076883
  H       2.629723     -0.171718     -1.661398
  H       0.993875      1.181325      1.767745
  H       0.572003      2.615738      0.827098
  H       3.901598      3.075643     -1.624475
  H       2.611878      3.973476     -0.804012
  H       2.213416      2.826642     -2.096349
  H       4.936031      2.083062      1.164099
  H       3.617887      2.938486      1.988837
  H       3.852066      1.201456      2.256199
  H      -0.866166      2.407851     -1.596598
  H      -1.336464      0.817324     -2.262360
  H       0.357714      1.354332     -2.371231
>
41
-1744.82205334; 31P isotropic shielding: 234.956878 ppm
  F      -3.897538      1.519188     -0.076049
  C      -3.197994      0.565478      0.603695
  C      -2.687775     -0.546761     -0.309479
  O      -1.858299     -0.011602     -1.339800
  P      -0.207747     -0.118590     -1.224146
  N       0.206860     -1.174176     -0.173038
  Si      1.577361     -2.104649      0.246927
  C       1.109342     -3.315812      1.613699
  C       2.229797     -3.075683     -1.245204
  C       2.975769     -0.970715      0.858661
  C       3.133487      0.353175      0.058301
  Si      1.802171      1.681598      0.349771
  C       0.362959      1.580751     -0.911945
  C       2.589143      3.384349      0.102962
  C       1.083668      1.544280      2.084676
  C       0.187465     -0.466899     -2.971909
  F      -4.028752      0.043948      1.556120
  F      -2.176365      1.205187      1.251630
  H      -3.555834     -1.023065     -0.780604
  H      -2.138239     -1.276417      0.299848
  H       0.708198     -2.782459      2.486300
  H       0.339720     -4.020499      1.269749
  H       1.976867     -3.902610      1.947079
  H       1.434236     -3.680586     -1.701603
  H       2.628324     -2.408670     -2.022504
  H       3.041060     -3.757058     -0.951555
  H       2.807329     -0.742012      1.921433
  H       3.919140     -1.540280      0.825470
  H       4.092108      0.832148      0.318657
  H       3.208106      0.145921     -1.022336
  H      -0.478215      2.166241     -0.519125
  H       0.653361      2.043393     -1.865415
  H       3.377831      3.564812      0.846463
  H       1.847601      4.189107      0.200578
  H       3.046509      3.471053     -0.892844
  H       0.386740      2.368493      2.287165
  H       0.535390      0.603120      2.206028
  H       1.876121      1.581151      2.844790
  H       1.269525     -0.375869     -3.122271
  H      -0.330634      0.236269     -3.634572
  H      -0.120995     -1.490649     -3.208304
>
41
-1744.82185160; 31P isotropic shielding: 234.937119 ppm
  F      -3.933261      0.940565      0.605198
  C      -3.148440     -0.172533      0.642718
  C      -2.582691     -0.536695     -0.728767
  O      -1.829524      0.539788     -1.275546
  P      -0.160655      0.505091     -1.236102
  N       0.425520     -0.906440     -1.040274
  Si      1.255058     -1.946788      0.032518
  C       0.131095     -2.526931      1.440621
  C       1.848293     -3.456800     -0.931414
  C       2.778401     -1.098783      0.787975
  C       2.529801      0.232430      1.547497
  Si      2.127758      1.765877      0.511547
  C       0.292776      1.772600     -0.019717
  C       3.253000      1.856761     -1.002451
  C       2.375624      3.309830      1.573262
  C       0.143585      1.222910     -2.879483
  F      -3.911313     -1.202429      1.119029
  F      -2.160918      0.065846      1.562473
  H      -3.430130     -0.740456     -1.394894
  H      -1.967734     -1.440166     -0.624115
  H      -0.219738     -1.689933      2.057469
  H      -0.757750     -3.043207      1.051597
  H       0.657315     -3.232730      2.099246
  H       2.516608     -3.159500     -1.751157
  H       2.393464     -4.162391     -0.288745
  H       0.998474     -3.993371     -1.375377
  H       3.247499     -1.827673      1.470116
  H       3.513307     -0.940183     -0.016547
  H       1.733132      0.104876      2.298328
  H       3.427799      0.501109      2.130175
  H      -0.314348      1.588326      0.876952
  H       0.002355      2.761560     -0.403246
  H       3.037226      2.745161     -1.611712
  H       3.151810      0.970651     -1.641083
  H       4.304864      1.919485     -0.690632
  H       3.417543      3.391311      1.912430
  H       2.134395      4.224432      1.014230
  H       1.736050      3.287254      2.466451
  H      -0.128569      0.474682     -3.631951
  H       1.205109      1.467354     -2.986570
  H      -0.458692      2.126409     -3.028450
>
41
-1744.82513731; 31P isotropic shielding: 238.901995 ppm
  F      -3.940663     -1.269361      0.929888
  C      -3.177689     -0.203160      0.541854
  C      -2.577097     -0.468225     -0.837264
  O      -1.805046      0.641887     -1.281360
  P      -0.137823      0.585656     -1.211440
  N       0.426480     -0.845602     -1.119430
  Si      1.236725     -1.961758     -0.110024
  C       0.104502     -2.603145      1.264609
  C       1.804007     -3.422453     -1.161702
  C       2.773103     -1.184435      0.692188
  C       2.536150      0.077667      1.564907
  Si      2.130436      1.696776      0.671912
  C       0.303501      1.744546      0.113261
  C       3.280344      1.940404     -0.806090
  C       2.345599      3.132159      1.882819
  C       0.209721      1.432677     -2.782968
  F      -2.214507     -0.018171      1.498790
  F      -3.973207      0.903088      0.559755
  H      -3.407232     -0.616205     -1.539015
  H      -1.968828     -1.380692     -0.784736
  H      -0.237319     -1.795550      1.924266
  H      -0.789738     -3.088762      0.849479
  H       0.622994     -3.347501      1.885807
  H       0.945958     -3.912297     -1.642248
  H       2.483823     -3.090076     -1.958147
  H       2.329692     -4.177327     -0.560301
  H       3.252054     -1.967846      1.303169
  H       3.494760     -0.957570     -0.107920
  H       1.747746     -0.111485      2.311258
  H       3.441545      0.294742      2.157723
  H      -0.316914      1.487827      0.982548
  H       0.020018      2.763234     -0.189353
  H       3.199402      1.119562     -1.529453
  H       4.325863      1.979522     -0.469898
  H       3.069472      2.881556     -1.332318
  H       3.381191      3.190180      2.245163
  H       2.101583      4.095017      1.413426
  H       1.692755      3.013703      2.758589
  H      -0.047824      0.751524     -3.601285
  H       1.274919      1.677186     -2.842316
  H      -0.383157      2.350308     -2.870544
