52
-1421.13549507; 31P isotropic shielding: 264.687666 ppm
  C       2.821163      0.907046      1.981457
  C       3.618358      0.445109      0.756975
  C       4.568480     -0.738300      1.018191
  C       3.866457     -2.003923      1.568247
  C       2.717138     -2.459292      0.696086
  O       1.603089     -2.724883      1.109601
  P      -0.576549      0.317276      0.439368
  O       1.989321      2.810356      0.722182
  C       1.956081      2.126037      1.728941
  C       0.206598     -0.308719     -1.109285
  C       1.087217      0.547562     -1.800671
  C       1.800229      0.088982     -2.910291
  C       1.659665     -1.236206     -3.340874
  C       0.791664     -2.093294     -2.656933
  C       0.067140     -1.633340     -1.551990
  C      -1.482543      1.806336     -0.160732
  C      -1.783262      2.797207      0.787943
  C      -2.491162      3.945815      0.423603
  C      -2.896389      4.125189     -0.903180
  C      -2.593519      3.148998     -1.859302
  C      -1.893788      1.996523     -1.490570
  C      -1.940335     -0.894925      0.721160
  C      -3.245115     -0.735344      0.226981
  C      -4.226608     -1.694619      0.495027
  C      -3.915470     -2.829031      1.252598
  C      -2.618338     -2.995125      1.750250
  C      -1.639990     -2.029320      1.497293
  H       2.154234      0.121053      2.365644
  H       3.488287      1.165284      2.825680
  H       2.910379      0.177078     -0.036574
  H       4.195153      1.292277      0.363616
  H       5.357473     -0.445795      1.726516
  H       5.077373     -0.990828      0.076344
  H       3.492037     -1.861316      2.589270
  H       4.597250     -2.830588      1.596652
  H       2.943624     -2.542145     -0.396045
  H       1.273421      2.391583      2.572881
  H       1.220457      1.573984     -1.465252
  H       2.471575      0.767076     -3.435514
  H       2.218567     -1.594663     -4.203981
  H       0.671016     -3.124872     -2.985202
  H      -0.599511     -2.313286     -1.029485
  H      -1.455254      2.668281      1.818892
  H      -2.715069      4.705321      1.171145
  H      -3.438607      5.024090     -1.192498
  H      -2.904165      3.284266     -2.894492
  H      -1.662425      1.243703     -2.240493
  H      -3.498984      0.140667     -0.364461
  H      -5.235499     -1.556164      0.108339
  H      -4.680791     -3.575961      1.458217
  H      -2.367600     -3.873714      2.342850
  H      -0.633575     -2.164549      1.887278
>
52
-1421.13566149; 31P isotropic shielding: 264.842061 ppm
  C       2.955997      0.990906      1.779593
  C       3.713075      0.484956      0.546905
  C       4.679309     -0.682344      0.820626
  C       4.009050     -1.923139      1.460514
  C       2.822677     -2.418159      0.662747
  O       1.724768     -2.651967      1.134555
  P      -0.504985      0.346004      0.414367
  O       2.075228      2.843436      0.479396
  C       2.076132      2.195637      1.510657
  C       0.229330     -0.330665     -1.137077
  C       0.091139     -1.673957     -1.520368
  C       0.777701     -2.169764     -2.634014
  C       1.606036     -1.330412     -3.385933
  C       1.745375      0.012727     -3.014381
  C       1.070413      0.507459     -1.896453
  C      -1.450051      1.801437     -0.208027
  C      -1.907155      1.939688     -1.529185
  C      -2.634715      3.069419     -1.914085
  C      -2.919788      4.074461     -0.982795
  C      -2.468676      3.947037      0.335154
  C      -1.733312      2.821154      0.715340
  C      -1.843207     -0.869912      0.788341
  C      -3.159452     -0.755108      0.312332
  C      -4.121159     -1.712355      0.649919
  C      -3.778894     -2.799951      1.461294
  C      -2.469965     -2.921808      1.940457
  C      -1.510829     -1.957875      1.616058
  H       2.307597      0.217696      2.217831
  H       3.650881      1.284488      2.589143
  H       2.980666      0.183568     -0.211796
  H       4.271834      1.318671      0.101832
  H       5.497575     -0.355325      1.478828
  H       5.147266     -0.977861     -0.129917
  H       3.681372     -1.733637      2.489834
  H       4.743928     -2.745853      1.492188
  H       3.003937     -2.561149     -0.431558
  H       1.417290      2.488249      2.364239
  H      -0.544465     -2.340173     -0.944256
  H       0.658348     -3.215207     -2.915773
  H       2.135084     -1.716512     -4.255918
  H       2.386184      0.677032     -3.592721
  H       1.203601      1.548066     -1.608141
  H      -1.689622      1.164155     -2.259787
  H      -2.981089      3.164460     -2.942392
  H      -3.483961      4.955383     -1.284977
  H      -2.678628      4.729281      1.063036
  H      -1.369800      2.732485      1.738601
  H      -3.437335      0.084906     -0.319365
  H      -5.139239     -1.608804      0.276608
  H      -4.528995     -3.544845      1.722856
  H      -2.195105     -3.763537      2.574639
  H      -0.494764     -2.059140      1.991229
>
52
-1421.13549035; 31P isotropic shielding: 264.955717 ppm
  C       2.416191     -1.562754      2.345300
  C       3.585697     -0.571034      2.436402
  C       3.367136      0.752287      1.656180
  C       2.894787      1.949288      2.499064
  C       1.476350      1.949949      3.019476
  O       0.662901      1.052183      2.902567
  P       0.072476      0.003936     -0.340914
  O       3.059930     -2.154061      0.079459
  C       2.250182     -2.212854      0.990237
  C       0.081578     -0.284923     -2.161721
  C      -0.813525      0.324164     -3.056523
  C      -0.748262      0.042489     -4.424369
  C       0.206834     -0.856694     -4.912963
  C       1.103664     -1.465860     -4.028442
  C       1.049288     -1.175949     -2.661443
  C      -0.834163      1.602840     -0.204498
  C      -0.072363      2.775388     -0.359380
  C      -0.670610      4.034485     -0.274271
  C      -2.041704      4.141288     -0.010604
  C      -2.805601      2.982084      0.157549
  C      -2.207611      1.721144      0.056854
  C      -1.174734     -1.221299      0.244683
  C      -1.752639     -2.193468     -0.587613
  C      -2.621538     -3.155636     -0.059877
  C      -2.931267     -3.155347      1.303220
  C      -2.361523     -2.187571      2.140393
  C      -1.483406     -1.234799      1.619950
  H       2.549449     -2.395648      3.060589
  H       1.460466     -1.094549      2.614659
  H       3.787717     -0.350195      3.494886
  H       4.482834     -1.066976      2.044839
  H       2.659234      0.588205      0.834737
  H       4.316512      1.046595      1.189436
  H       3.002315      2.891435      1.931863
  H       3.543615      2.098054      3.382957
  H       1.192889      2.890987      3.555904
  H       1.309328     -2.802277      0.872336
  H      -1.561882      1.020472     -2.684548
  H      -1.446091      0.522819     -5.109147
  H       0.255402     -1.075978     -5.978556
  H       1.854567     -2.160203     -4.402705
  H       1.762185     -1.639405     -1.980371
  H       0.996936      2.696675     -0.556415
  H      -0.069844      4.933075     -0.408763
  H      -2.509512      5.121536      0.065494
  H      -3.872585      3.057358      0.363369
  H      -2.813065      0.827263      0.185674
  H      -1.526344     -2.201365     -1.650729
  H      -3.060916     -3.902791     -0.719607
  H      -3.609609     -3.902771      1.711674
  H      -2.596859     -2.178694      3.203911
  H      -1.038609     -0.492599      2.278997
>
52
-1421.13373072; 31P isotropic shielding: 271.800799 ppm
  C       2.655117     -1.098556      0.813943
  C       2.548684     -2.114945      1.957969
  C       2.915549     -1.579679      3.357410
  C       1.921657     -0.549322      3.938939
  C       1.995470      0.828120      3.317324
  O       1.038460      1.532456      3.052005
  P      -0.284630      0.887436     -0.453714
  O       5.075542     -0.993412      1.013079
  C       4.046010     -0.607445      0.489793
  C      -0.072333      0.343707     -2.209133
  C       1.240623      0.163334     -2.675843
  C       1.484017     -0.271286     -3.982913
  C       0.412201     -0.515972     -4.847228
  C      -0.900031     -0.323809     -4.398034
  C      -1.140728      0.101146     -3.088532
  C      -1.890849      1.793670     -0.549707
  C      -1.825351      3.160452     -0.873816
  C      -2.989895      3.921616     -0.998824
  C      -4.239847      3.329718     -0.783206
  C      -4.315417      1.974214     -0.446127
  C      -3.149468      1.209610     -0.332976
  C      -0.789823     -0.685204      0.371316
  C      -0.762819     -1.942237     -0.252817
  C      -1.084754     -3.100791      0.464467
  C      -1.450973     -3.017618      1.810976
  C      -1.479135     -1.767418      2.441825
  C      -1.137753     -0.613612      1.733912
  H       2.261456     -1.535134     -0.120643
  H       2.016894     -0.212855      0.961938
  H       1.523676     -2.508530      1.975084
  H       3.211425     -2.961635      1.731725
  H       3.927199     -1.152393      3.338628
  H       2.958748     -2.432010      4.049184
  H       2.174773     -0.394072      5.003682
  H       0.885647     -0.906973      3.899480
  H       3.036960      1.199826      3.131954
  H       4.082326      0.170580     -0.316046
  H       2.077743      0.377032     -2.012608
  H       2.507817     -0.407370     -4.328230
  H       0.597653     -0.845780     -5.868183
  H      -1.737934     -0.504992     -5.069894
  H      -2.163801      0.249244     -2.750111
  H      -0.853287      3.629153     -1.025102
  H      -2.921840      4.978397     -1.252679
  H      -5.148394      3.923415     -0.870117
  H      -5.284600      1.508102     -0.273221
  H      -3.221081      0.156327     -0.072533
  H      -0.495606     -2.021688     -1.303666
  H      -1.056826     -4.068211     -0.035224
  H      -1.708459     -3.918104      2.366153
  H      -1.759340     -1.692353      3.491740
  H      -1.124673      0.347549      2.243902
>
52
-1421.13299950; 31P isotropic shielding: 265.193886 ppm
  C       1.202764     -0.096264      3.788223
  C       2.445637     -1.013296      3.720381
  C       2.765999     -1.551683      2.312815
  C       3.218356     -0.474909      1.306497
  C       3.364095     -1.025577     -0.096878
  O       4.298503     -0.807010     -0.843931
  P       0.044864      0.387827     -0.570716
  O       0.657596      1.960433      2.614607
  C       1.437689      1.312036      3.287969
  C      -0.113089     -0.677483     -2.068262
  C      -1.221043     -1.497733     -2.345140
  C      -1.262080     -2.265299     -3.512206
  C      -0.197700     -2.221992     -4.421001
  C       0.910662     -1.411942     -4.154446
  C       0.954114     -0.649832     -2.982703
  C      -1.025059      1.837546     -0.976630
  C      -1.973222      1.847389     -2.012390
  C      -2.740562      2.989778     -2.259866
  C      -2.575238      4.134286     -1.472172
  C      -1.629131      4.134834     -0.441577
  C      -0.849940      2.998988     -0.201549
  C      -0.978672     -0.529920      0.661777
  C      -1.915507      0.111746      1.487225
  C      -2.559352     -0.588208      2.512790
  C      -2.278376     -1.940326      2.733674
  C      -1.348306     -2.591797      1.914219
  C      -0.702940     -1.891639      0.892659
  H       0.337856     -0.530479      3.275188
  H       0.924336      0.023738      4.850922
  H       3.319856     -0.476182      4.122503
  H       2.279088     -1.867874      4.390005
  H       1.876061     -2.062509      1.919344
  H       3.553793     -2.314675      2.399471
  H       4.159924      0.003242      1.605856
  H       2.447367      0.306947      1.220991
  H       2.513578     -1.671219     -0.431295
  H       2.409484      1.765329      3.615481
  H      -2.051213     -1.540693     -1.643607
  H      -2.126507     -2.896563     -3.713991
  H      -0.230283     -2.822739     -5.328577
  H       1.746919     -1.380952     -4.850941
  H       1.828143     -0.035366     -2.771130
  H      -2.110119      0.966192     -2.633909
  H      -3.469787      2.984598     -3.068991
  H      -3.174806      5.022475     -1.665668
  H      -1.488784      5.023691      0.171855
  H      -0.110973      3.007556      0.596740
  H      -2.139759      1.163609      1.334661
  H      -3.284000     -0.072302      3.141255
  H      -2.781358     -2.483637      3.531843
  H      -1.126337     -3.646821      2.069600
  H       0.011762     -2.413019      0.258023
>
52
-1421.13310014; 31P isotropic shielding: 264.091361 ppm
  C       1.188082      0.008636      3.477913
  C       2.396433      0.457409      2.648386
  C       3.528193     -0.586651      2.597469
  C       3.190946     -1.858608      1.797619
  C       3.165466     -1.659671      0.291739
  O       2.567646     -2.376987     -0.488279
  P       0.248018      0.280834     -0.606675
  O       0.154571      2.184259      3.185470
  C       0.120291      1.062515      3.659366
  C       0.006177     -0.682602     -2.157496
  C      -1.135827     -1.453139     -2.431734
  C      -1.250862     -2.144530     -3.640926
  C      -0.227699     -2.071031     -4.593248
  C       0.914179     -1.307831     -4.328395
  C       1.031699     -0.625124     -3.114786
  C      -0.736763      1.810934     -0.913468
  C      -1.615545      1.977203     -1.996123
  C      -2.311720      3.178626     -2.164715
  C      -2.147344      4.224051     -1.249607
  C      -1.272957      4.067152     -0.168310
  C      -0.561602      2.874941     -0.008613
  C      -0.821212     -0.646100      0.582047
  C      -1.853487     -0.043828      1.317871
  C      -2.545926     -0.765584      2.297818
  C      -2.222399     -2.100978      2.553519
  C      -1.200957     -2.714326      1.816097
  C      -0.502542     -1.994813      0.844150
  H       0.686132     -0.872494      3.047100
  H       1.492215     -0.309228      4.492437
  H       2.064749      0.701507      1.630034
  H       2.787936      1.391825      3.072849
  H       3.812229     -0.871467      3.621505
  H       4.422810     -0.121693      2.154772
  H       2.245332     -2.321455      2.107880
  H       3.973324     -2.618454      1.972973
  H       3.788267     -0.809181     -0.084885
  H      -0.742596      0.742267      4.292086
  H      -1.935710     -1.515291     -1.697295
  H      -2.140629     -2.740252     -3.840530
  H      -0.317120     -2.612575     -5.533705
  H       1.718780     -1.255774     -5.060269
  H       1.931503     -0.050237     -2.900724
  H      -1.755673      1.171267     -2.711992
  H      -2.986837      3.295442     -3.011562
  H      -2.693494      5.156920     -1.381334
  H      -1.136988      4.874523      0.549517
  H       0.117849      2.766285      0.834523
  H      -2.118740      0.993309      1.131956
  H      -3.344545     -0.280063      2.857237
  H      -2.764004     -2.662310      3.313114
  H      -0.946527     -3.757696      1.998685
  H       0.291380     -2.482829      0.282340
>
52
-1421.13646854; 31P isotropic shielding: 264.747202 ppm
  C       2.845367      0.977195      1.732572
  C       3.809175      0.804812      0.541451
  C       4.519110     -0.561313      0.489340
  C       3.579300     -1.761432      0.228891
  C       2.791614     -2.210673      1.439765
  O       1.623099     -2.552635      1.434908
  P      -0.586902      0.149209      0.398889
  O       1.853945      3.030721      2.570262
  C       2.050038      2.263368      1.647462
  C       0.169840     -0.550912     -1.132775
  C       0.074948     -1.910216     -1.470061
  C       0.787897     -2.426183     -2.557212
  C       1.609117     -1.595146     -3.325689
  C       1.708534     -0.236533     -3.001017
  C       0.999229      0.277678     -1.913467
  C      -1.423351      1.658604     -0.251537
  C      -1.928300      1.780395     -1.558387
  C      -2.560067      2.957211     -1.968199
  C      -2.698054      4.028933     -1.077273
  C      -2.196175      3.920247      0.223345
  C      -1.558445      2.743960      0.630920
  C      -1.990976     -1.003392      0.724654
  C      -3.297586     -0.804661      0.250238
  C      -4.310835     -1.716854      0.561680
  C      -4.030600     -2.842025      1.344358
  C      -2.732275     -3.045441      1.824606
  C      -1.720930     -2.126910      1.528389
  H       2.087835      0.178345      1.720216
  H       3.366362      0.938930      2.697974
  H       3.252846      0.947629     -0.395620
  H       4.571855      1.596705      0.578500
  H       5.077494     -0.728873      1.424535
  H       5.269490     -0.532976     -0.312236
  H       4.204323     -2.632119     -0.040372
  H       2.898151     -1.580920     -0.609732
  H       3.383784     -2.245728      2.391329
  H       1.621803      2.476156      0.635794
  H      -0.552706     -2.572043     -0.880100
  H       0.699367     -3.483550     -2.802899
  H       2.161992     -1.998809     -4.172267
  H       2.337682      0.423979     -3.596300
  H       1.079758      1.337739     -1.678362
  H      -1.821006      0.954601     -2.258267
  H      -2.946831      3.038395     -2.983225
  H      -3.188145      4.946443     -1.399268
  H      -2.289586      4.753146      0.918282
  H      -1.152039      2.671586      1.638754
  H      -3.530617      0.066261     -0.356908
  H      -5.320834     -1.547481      0.190626
  H      -4.820992     -3.551274      1.585303
  H      -2.506731     -3.914565      2.440897
  H      -0.715971     -2.285685      1.913534
>
52
-1421.13280629; 31P isotropic shielding: 264.171187 ppm
  C       4.164808     -0.350403     -1.253605
  C       4.722790      0.841519     -2.049528
  C       4.338779      2.242444     -1.524924
  C       2.848353      2.622489     -1.604137
  C       1.985911      2.199627     -0.438747
  O       2.368051      1.530410      0.508660
  P      -0.389850     -1.073535      0.473956
  O       2.111473     -0.347963     -2.547204
  C       2.763033     -0.788167     -1.613619
  C      -0.998919      0.489628     -0.295678
  C      -0.842562      0.616748     -1.688354
  C      -1.251065      1.779123     -2.346794
  C      -1.803597      2.841496     -1.621124
  C      -1.951467      2.727923     -0.234366
  C      -1.557191      1.557517      0.424164
  C      -0.607038     -0.727950      2.274299
  C       0.379305      0.063043      2.895074
  C       0.294034      0.359595      4.257318
  C      -0.762249     -0.146461      5.025101
  C      -1.737217     -0.944006      4.418279
  C      -1.664073     -1.229696      3.049941
  C      -1.796181     -2.221522      0.135126
  C      -3.076505     -1.803105     -0.262086
  C      -4.090057     -2.739165     -0.491708
  C      -3.841214     -4.105028     -0.318857
  C      -2.568804     -4.532825      0.077429
  C      -1.553155     -3.597599      0.292611
  H       4.794065     -1.247230     -1.403068
  H       4.181083     -0.163800     -0.169351
  H       5.819753      0.775981     -2.042387
  H       4.409525      0.745739     -3.099052
  H       4.907118      2.979316     -2.109462
  H       4.673660      2.345166     -0.482381
  H       2.370614      2.221487     -2.512991
  H       2.726553      3.717589     -1.679870
  H       0.934982      2.559177     -0.483120
  H       2.334393     -1.580847     -0.958641
  H      -0.374065     -0.185623     -2.254276
  H      -1.122737      1.861001     -3.425127
  H      -2.111510      3.752660     -2.131801
  H      -2.379196      3.550066      0.338062
  H      -1.679602      1.480119      1.501327
  H       1.202042      0.459876      2.302197
  H       1.059042      0.980165      4.722226
  H      -0.822141      0.076741      6.089282
  H      -2.561828     -1.342440      5.008098
  H      -2.433635     -1.844202      2.589323
  H      -3.282835     -0.743534     -0.392644
  H      -5.077508     -2.400029     -0.802194
  H      -4.631576     -4.832344     -0.497561
  H      -2.365018     -5.594599      0.208355
  H      -0.559673     -3.935772      0.586733
>
52
-1421.13776905; 31P isotropic shielding: 266.101538 ppm
  C       3.256406     -0.680663      1.068594
  C       3.039709     -1.889408      2.022352
  C       2.641100     -1.528143      3.465962
  C       1.268605     -0.828944      3.599913
  C       1.285284      0.657820      3.305866
  O       0.425803      1.246819      2.673917
  P      -0.049438      0.485261     -0.738321
  O       4.376117      1.138771      2.208097
  C       4.443217      0.134638      1.522196
  C      -0.240710     -0.120093     -2.475196
  C       0.534353      0.522164     -3.456780
  C       0.432569      0.158375     -4.802510
  C      -0.437674     -0.867994     -5.185932
  C      -1.206525     -1.521963     -4.216742
  C      -1.111845     -1.148778     -2.872479
  C      -1.411954      1.729735     -0.628329
  C      -1.298258      2.725509      0.357866
  C      -2.297137      3.693284      0.505312
  C      -3.410884      3.689578     -0.340758
  C      -3.524370      2.709301     -1.333224
  C      -2.533047      1.733961     -1.474857
  C      -0.730826     -0.932620      0.225955
  C      -0.091222     -2.181774      0.115852
  C      -0.501064     -3.268814      0.890556
  C      -1.550240     -3.121811      1.806672
  C      -2.184401     -1.881663      1.932039
  C      -1.779686     -0.795781      1.148163
  H       3.457653     -1.066842      0.058419
  H       2.365354     -0.045528      1.015561
  H       2.261154     -2.525660      1.583209
  H       3.959411     -2.494073      2.050673
  H       3.416042     -0.901249      3.932373
  H       2.612775     -2.460145      4.046921
  H       0.951501     -0.902681      4.655747
  H       0.494096     -1.315631      2.996673
  H       2.148543      1.214695      3.740615
  H       5.443911     -0.274556      1.225340
  H       1.222263      1.313930     -3.160631
  H       1.038014      0.669418     -5.549635
  H      -0.512936     -1.159461     -6.232343
  H      -1.886544     -2.321425     -4.508285
  H      -1.718494     -1.660859     -2.129324
  H      -0.437515      2.729224      1.022068
  H      -2.199763      4.454663      1.277939
  H      -4.184111      4.448735     -0.231848
  H      -4.386680      2.702804     -1.998702
  H      -2.632924      0.978988     -2.250867
  H       0.727952     -2.307622     -0.591519
  H      -0.001733     -4.230804      0.781195
  H      -1.869472     -3.966701      2.414714
  H      -3.000077     -1.755728      2.642727
  H      -2.278003      0.163042      1.260398
>
52
-1421.13217109; 31P isotropic shielding: 263.908986 ppm
  C       3.372993      0.282382      1.271272
  C       2.861954     -1.101449      1.695168
  C       2.841590     -1.358094      3.213654
  C       1.991129     -0.342596      4.016749
  C       0.566231     -0.255869      3.515309
  O       0.017343      0.780174      3.186321
  P      -0.018689      0.307722     -0.394233
  O       3.620384      1.525563     -0.799410
  C       3.348655      0.479932     -0.239655
  C      -0.014838     -0.239011     -2.154580
  C      -0.930802     -1.153194     -2.702049
  C      -0.863444     -1.501503     -4.054422
  C       0.115761     -0.935835     -4.878987
  C       1.031203     -0.023152     -4.343384
  C       0.971814      0.318257     -2.988975
  C      -1.201259      1.722557     -0.418837
  C      -2.114950      1.953335     -1.460047
  C      -2.974851      3.054862     -1.415568
  C      -2.936851      3.934755     -0.328208
  C      -2.028547      3.712268      0.712400
  C      -1.158373      2.619244      0.663864
  C      -0.983867     -1.021726      0.441659
  C      -2.112240     -0.760415      1.234132
  C      -2.713208     -1.782792      1.976009
  C      -2.203187     -3.084324      1.932268
  C      -1.082581     -3.358663      1.138204
  C      -0.474816     -2.335151      0.408397
  H       2.780872      1.094927      1.711865
  H       4.412108      0.442087      1.605178
  H       1.848299     -1.235952      1.296027
  H       3.480936     -1.877343      1.219368
  H       3.864970     -1.343858      3.616247
  H       2.452968     -2.371503      3.392365
  H       2.427966      0.663023      4.002370
  H       1.949073     -0.675162      5.067822
  H       0.017279     -1.227456      3.449287
  H       3.089213     -0.429840     -0.836470
  H      -1.698751     -1.593449     -2.070124
  H      -1.579687     -2.211703     -4.465664
  H       0.167106     -1.207988     -5.932087
  H       1.798720      0.418188     -4.977367
  H       1.696832      1.019940     -2.578232
  H      -2.153103      1.277660     -2.310981
  H      -3.675767      3.224999     -2.231763
  H      -3.607091      4.792405     -0.295690
  H      -1.989764      4.394999      1.559928
  H      -0.453829      2.451863      1.475295
  H      -2.515426      0.246992      1.284080
  H      -3.585746     -1.559133      2.588250
  H      -2.674587     -3.878824      2.508391
  H      -0.680150     -4.369655      1.090001
  H       0.397505     -2.561498     -0.203445
>
52
-1421.13278260; 31P isotropic shielding: 268.207763 ppm
  C       2.439413      1.792688      1.712707
  C       3.489156      0.854265      1.104856
  C       3.938723     -0.266733      2.062479
  C       2.888747     -1.374310      2.270274
  C       2.715149     -2.278921      1.062670
  O       1.717886     -2.930961      0.820842
  P      -0.335298     -0.182601      0.318539
  O       2.232937      2.976411     -0.392480
  C       1.960818      2.893147      0.792092
  C       0.186006     -0.669973     -1.380056
  C      -0.335302     -1.791961     -2.042845
  C       0.170191     -2.181033     -3.287871
  C       1.198023     -1.451671     -3.892520
  C       1.721928     -0.328718     -3.240526
  C       1.228684      0.054107     -1.991232
  C      -1.074420      1.489466      0.070222
  C      -1.274352      2.102832     -1.175694
  C      -1.790186      3.400460     -1.254419
  C      -2.125877      4.099801     -0.090932
  C      -1.941582      3.493720      1.157585
  C      -1.410460      2.204622      1.234907
  C      -1.829721     -1.225440      0.600023
  C      -3.128546     -0.831502      0.239307
  C      -4.217220     -1.673476      0.485701
  C      -4.020036     -2.921829      1.086740
  C      -2.728218     -3.323093      1.445153
  C      -1.639329     -2.477605      1.212081
  H       1.533789      1.238132      2.014434
  H       2.811408      2.270661      2.635859
  H       3.093450      0.416850      0.178951
  H       4.362188      1.449857      0.804582
  H       4.211730      0.164286      3.036844
  H       4.857988     -0.726834      1.667804
  H       1.902563     -0.984387      2.552046
  H       3.210166     -2.038609      3.092081
  H       3.606656     -2.344257      0.386659
  H       1.302839      3.655048      1.274445
  H      -1.135092     -2.368879     -1.586600
  H      -0.244435     -3.056450     -3.785932
  H       1.589065     -1.754624     -4.862547
  H       2.519822      0.251250     -3.702333
  H       1.647616      0.932495     -1.504161
  H      -1.019585      1.570056     -2.088015
  H      -1.930428      3.865098     -2.229326
  H      -2.525541      5.110496     -0.154977
  H      -2.202058      4.029085      2.069619
  H      -1.256460      1.743060      2.210723
  H      -3.290316      0.134168     -0.233973
  H      -5.220261     -1.355617      0.203961
  H      -4.869014     -3.576925      1.276387
  H      -2.567199     -4.293519      1.912646
  H      -0.633805     -2.791132      1.487017
>
52
-1421.13598563; 31P isotropic shielding: 264.117129 ppm
  C       2.811965      2.034616      1.120166
  C       3.303140      0.649289      1.595722
  C       3.264869      0.475014      3.126673
  C       1.846373      0.366251      3.716759
  C       1.157305     -0.949069      3.403746
  O      -0.045104     -1.100658      3.301469
  P      -0.058541     -0.768319     -0.219951
  O       3.380890      3.122005     -0.973500
  C       2.902713      2.171067     -0.383938
  C      -0.075007     -0.898585     -2.064049
  C      -1.247743     -0.999966     -2.830400
  C      -1.179448     -1.069422     -4.224430
  C       0.061056     -1.032543     -4.872799
  C       1.235154     -0.936399     -4.119718
  C       1.165347     -0.879849     -2.723759
  C      -0.489921      1.008798      0.030084
  C      -0.882041      1.433967      1.315612
  C      -1.062856      2.791443      1.589652
  C      -0.842538      3.751817      0.593547
  C      -0.459032      3.338983     -0.684854
  C      -0.291603      1.978427     -0.966877
  C      -1.620901     -1.630277      0.243488
  C      -2.881805     -1.014033      0.290416
  C      -4.018870     -1.751028      0.635425
  C      -3.911355     -3.113856      0.932682
  C      -2.658926     -3.736057      0.890443
  C      -1.522296     -2.996169      0.556364
  H       1.754171      2.171995      1.392022
  H       3.386195      2.848853      1.581897
  H       2.698395     -0.134977      1.115580
  H       4.337941      0.501949      1.252792
  H       3.791751      1.313441      3.603969
  H       3.828118     -0.431642      3.397280
  H       1.191823      1.193578      3.416439
  H       1.910863      0.405286      4.819014
  H       1.846261     -1.827063      3.302336
  H       2.498267      1.298329     -0.952832
  H      -2.216498     -1.029537     -2.337289
  H      -2.096495     -1.150815     -4.806393
  H       0.111626     -1.084823     -5.959192
  H       2.203839     -0.913336     -4.616469
  H       2.082297     -0.822209     -2.138347
  H      -1.040358      0.700961      2.103650
  H      -1.373113      3.100600      2.587136
  H      -0.971281      4.810226      0.813158
  H      -0.284054      4.074206     -1.468406
  H       0.001659      1.676649     -1.969070
  H      -2.977463      0.045389      0.064489
  H      -4.990405     -1.259838      0.670717
  H      -4.797429     -3.685588      1.203962
  H      -2.565402     -4.794009      1.130871
  H      -0.545634     -3.478673      0.545311
>
52
-1421.13361256; 31P isotropic shielding: 263.160714 ppm
  C       1.389833      0.092975      3.585374
  C       2.565978     -0.499880      2.804823
  C       3.103252      0.468393      1.737748
  C       4.252398     -0.120528      0.908931
  C       3.861597     -1.185281     -0.094301
  O       2.723253     -1.512541     -0.372329
  P       0.005449      0.703454     -0.715891
  O       1.210371     -1.923535      4.923753
  C       0.798502     -0.813943      4.639284
  C      -0.120284     -0.439485     -2.157411
  C      -1.061890     -1.475680     -2.268824
  C      -1.095451     -2.284863     -3.408369
  C      -0.192313     -2.066057     -4.454643
  C       0.750274     -1.037276     -4.352938
  C       0.788996     -0.236362     -3.208573
  C      -1.269773      1.980413     -1.122030
  C      -2.345295      1.771482     -2.000046
  C      -3.271411      2.790361     -2.242452
  C      -3.140740      4.029799     -1.605291
  C      -2.071704      4.250108     -0.730477
  C      -1.138281      3.234583     -0.500356
  C      -0.843476     -0.250460      0.618830
  C      -1.893420      0.284901      1.383877
  C      -2.415315     -0.423419      2.472749
  C      -1.901474     -1.678929      2.809735
  C      -0.858865     -2.223268      2.049303
  C      -0.329859     -1.515447      0.969086
  H       1.673923      1.031714      4.096176
  H       0.566872      0.379684      2.911043
  H       3.368954     -0.772380      3.505801
  H       2.240137     -1.433805      2.332840
  H       3.458117      1.389164      2.225248
  H       2.292149      0.762610      1.057935
  H       5.045926     -0.547813      1.547287
  H       4.764232      0.663448      0.320994
  H       4.727250     -1.670339     -0.613651
  H      -0.082867     -0.381926      5.177031
  H      -1.766342     -1.656872     -1.460376
  H      -1.829498     -3.086438     -3.479576
  H      -0.218505     -2.698605     -5.340563
  H       1.462180     -0.866428     -5.159151
  H       1.536759      0.551535     -3.123485
  H      -2.457547      0.812473     -2.500030
  H      -4.098881      2.615890     -2.928980
  H      -3.863654      4.821488     -1.795682
  H      -1.957912      5.214304     -0.237050
  H      -0.295876      3.414357      0.167438
  H      -2.310783      1.256024      1.129093
  H      -3.230503      0.007285      3.052872
  H      -2.303290     -2.228446      3.659040
  H      -0.442633     -3.193665      2.313344
  H       0.494640     -1.936671      0.400141
>
52
-1421.13683900; 31P isotropic shielding: 262.427082 ppm
  C       1.315731     -0.098807      3.397214
  C       2.503049      0.338677      2.531204
  C       3.596234     -0.738530      2.398565
  C       3.181464     -1.980852      1.588680
  C       3.080747     -1.748982      0.090507
  O       2.429820     -2.440619     -0.670098
  P       0.202658      0.281926     -0.646143
  O       0.351345      2.120794      3.227164
  C       0.300923      0.986890      3.669838
  C      -0.181917     -0.639037     -2.193974
  C      -1.388854     -1.323648     -2.414339
  C      -1.616615     -1.987971     -3.622455
  C      -0.642007     -1.973431     -4.627245
  C       0.563673     -1.296535     -4.416229
  C       0.793232     -0.640170     -3.203883
  C      -0.715811      1.866279     -0.866048
  C      -1.615998      2.114645     -1.914899
  C      -2.253704      3.355113     -2.022317
  C      -2.009279      4.358626     -1.078933
  C      -1.112673      4.120187     -0.031184
  C      -0.459160      2.888983      0.066878
  C      -0.841101     -0.616787      0.586220
  C      -0.565768     -1.982068      0.808646
  C      -1.241668     -2.690713      1.804052
  C      -2.197157     -2.050305      2.604183
  C      -2.477879     -0.698328      2.387898
  C      -1.807443      0.013253      1.385369
  H       0.760299     -0.940128      2.952794
  H       1.652414     -0.471586      4.382153
  H       2.138256      0.628331      1.536618
  H       2.943136      1.244911      2.969029
  H       3.920326     -1.057190      3.400533
  H       4.482703     -0.290149      1.923533
  H       2.241118     -2.426121      1.938508
  H       3.950462     -2.765241      1.705213
  H       3.697967     -0.901942     -0.302276
  H      -0.537044      0.679068      4.341048
  H      -2.150413     -1.338421     -1.637882
  H      -2.555705     -2.516666     -3.780524
  H      -0.819007     -2.494211     -5.567041
  H       1.330151     -1.291152     -5.189653
  H       1.741275     -0.132749     -3.032155
  H      -1.819434      1.342231     -2.652142
  H      -2.946250      3.534939     -2.843661
  H      -2.510140      5.321952     -1.162581
  H      -0.913622      4.894142      0.708418
  H       0.239369      2.719498      0.884151
  H       0.177234     -2.490920      0.197705
  H      -1.021356     -3.746704      1.955766
  H      -2.721342     -2.603133      3.382006
  H      -3.225850     -0.191633      2.996376
  H      -2.038788      1.063585      1.230892
>
52
-1421.13638934; 31P isotropic shielding: 264.943176 ppm
  C       2.662043      2.184837      1.205484
  C       3.167459      0.768420      1.502005
  C       3.203308      0.431376      3.004561
  C       1.817404      0.293500      3.663011
  C       1.070504     -0.971005      3.275884
  O      -0.138583     -1.099478      3.316184
  P      -0.046117     -0.695866     -0.192090
  O       3.137966      1.878954     -1.153577
  C       2.741244      2.590712     -0.247970
  C       0.057890     -0.830244     -2.029448
  C      -0.999222     -1.262001     -2.846885
  C      -0.832975     -1.347452     -4.232942
  C       0.386541     -0.993321     -4.820366
  C       1.445473     -0.563088     -4.013109
  C       1.287569     -0.494924     -2.626091
  C      -0.540004      1.068446      0.045185
  C      -0.383532      2.047562     -0.948466
  C      -0.650313      3.394084     -0.672381
  C      -1.083363      3.783005      0.598265
  C      -1.253875      2.811386      1.593382
  C      -0.980492      1.468733      1.323826
  C      -1.612046     -1.585157      0.194310
  C      -2.889660     -1.010931      0.092170
  C      -4.030346     -1.761956      0.390017
  C      -3.908866     -3.098150      0.788339
  C      -2.640514     -3.678574      0.893829
  C      -1.500944     -2.923135      0.606041
  H       1.614415      2.331077      1.513784
  H       3.230969      2.942304      1.775870
  H       2.539970      0.041660      0.968500
  H       4.177954      0.660751      1.085011
  H       3.780998      1.198745      3.541046
  H       3.751874     -0.512916      3.145086
  H       1.166145      1.157637      3.479350
  H       1.939874      0.230440      4.759147
  H       1.721182     -1.832246      2.978615
  H       2.406910      3.635927     -0.455501
  H      -1.952679     -1.537039     -2.402920
  H      -1.659803     -1.688289     -4.854830
  H       0.512460     -1.057769     -5.900123
  H       2.399272     -0.286990     -4.460021
  H       2.119226     -0.162913     -2.007585
  H      -0.047273      1.763249     -1.941842
  H      -0.523073      4.137622     -1.458119
  H      -1.293821      4.829841      0.810975
  H      -1.600960      3.100256      2.584768
  H      -1.112859      0.726628      2.108520
  H      -2.994403      0.026501     -0.217406
  H      -5.015276     -1.303914      0.309127
  H      -4.798072     -3.681293      1.022812
  H      -2.538070     -4.714388      1.213722
  H      -0.513209     -3.369915      0.710546
>
52
-1421.13645248; 31P isotropic shielding: 264.487423 ppm
  C       3.127764      0.516744      1.088077
  C       3.925575      1.093624      2.261859
  C       3.091094      1.946726      3.236282
  C       2.020820      1.160693      4.033050
  C       0.791302      0.807729      3.226806
  O       0.292649     -0.302726      3.163885
  P      -0.085017     -0.659715     -0.582057
  O       5.179526     -0.215444      0.017210
  C       3.964549     -0.138214      0.010910
  C      -0.301012     -0.450525     -2.403240
  C       0.493815     -1.254039     -3.238974
  C       0.372888     -1.178490     -4.629644
  C      -0.536800     -0.284374     -5.204395
  C      -1.326739      0.527360     -4.381956
  C      -1.212726      0.442653     -2.991260
  C      -0.741986      0.944191      0.052219
  C      -0.037658      2.116656     -0.284320
  C      -0.419128      3.356701      0.231476
  C      -1.504785      3.445026      1.112059
  C      -2.206779      2.285709      1.457608
  C      -1.832562      1.045188      0.928796
  C      -1.433545     -1.845901     -0.159452
  C      -2.442010     -2.235817     -1.055638
  C      -3.414662     -3.163356     -0.668002
  C      -3.397399     -3.705734      0.621161
  C      -2.395892     -3.322132      1.520531
  C      -1.413158     -2.408280      1.130769
  H       2.384894     -0.234361      1.397882
  H       2.524431      1.295585      0.590205
  H       4.411332      0.273851      2.810695
  H       4.744020      1.708139      1.862805
  H       2.602688      2.767818      2.687308
  H       3.770612      2.422550      3.956381
  H       1.660388      1.804687      4.854788
  H       2.435655      0.248464      4.482017
  H       0.331504      1.662337      2.676124
  H       3.368360     -0.568222     -0.831290
  H       1.211719     -1.942533     -2.794051
  H       0.994542     -1.809326     -5.263119
  H      -0.626441     -0.216512     -6.287379
  H      -2.036669      1.224885     -4.824468
  H      -1.834526      1.072530     -2.359403
  H       0.805947      2.059310     -0.971562
  H       0.131811      4.253039     -0.049986
  H      -1.800279      4.409001      1.522781
  H      -3.054009      2.344260      2.139525
  H      -2.386022      0.153448      1.208954
  H      -2.468968     -1.820182     -2.059729
  H      -4.188378     -3.459448     -1.375168
  H      -4.156060     -4.426895      0.921396
  H      -2.372970     -3.741350      2.525366
  H      -0.638201     -2.114429      1.835365
>
52
-1421.13415777; 31P isotropic shielding: 262.929030 ppm
  C       2.568065      0.796517      2.006863
  C       3.400050      0.225242      3.159425
  C       2.988030     -1.194509      3.592488
  C       3.193188     -2.284131      2.509888
  C       2.104686     -2.310292      1.459995
  O       2.292806     -2.293794      0.255829
  P      -0.113477      0.585504     -0.682565
  O       3.565990      2.984725      2.332859
  C       2.800114      2.263362      1.719830
  C      -0.196195     -0.281711     -2.308545
  C      -1.215530     -0.080151     -3.252850
  C      -1.191064     -0.757942     -4.476453
  C      -0.154781     -1.651173     -4.767231
  C       0.864325     -1.858528     -3.830356
  C       0.851932     -1.170287     -2.614462
  C      -1.473000      1.825196     -0.826507
  C      -2.823045      1.549513     -0.551374
  C      -3.795534      2.542145     -0.704271
  C      -3.433804      3.821632     -1.141429
  C      -2.092588      4.106548     -1.419718
  C      -1.119670      3.116335     -1.255358
  C      -0.863881     -0.647882      0.468781
  C      -1.099305     -0.240721      1.796505
  C      -1.591433     -1.137741      2.746635
  C      -1.840990     -2.469083      2.390050
  C      -1.604198     -2.885218      1.075986
  C      -1.124317     -1.981691      0.120926
  H       2.730801      0.264595      1.056682
  H       1.487138      0.677776      2.193365
  H       4.463466      0.230881      2.879535
  H       3.316922      0.898744      4.023240
  H       1.932987     -1.196210      3.910249
  H       3.574338     -1.474730      4.478073
  H       3.154137     -3.272196      3.001297
  H       4.171483     -2.191911      2.019941
  H       1.066982     -2.361611      1.865936
  H       2.194825      2.662435      0.869229
  H      -2.029539      0.607634     -3.038125
  H      -1.985965     -0.588638     -5.201632
  H      -0.138558     -2.178663     -5.719718
  H       1.675868     -2.551106     -4.048649
  H       1.646065     -1.339322     -1.890216
  H      -3.114324      0.556455     -0.217072
  H      -4.838220      2.314893     -0.486349
  H      -4.192419      4.593664     -1.259547
  H      -1.802719      5.101218     -1.754842
  H      -0.074282      3.344650     -1.461466
  H      -0.913656      0.793786      2.084863
  H      -1.777123     -0.799526      3.765085
  H      -2.217586     -3.173306      3.129988
  H      -1.797666     -3.917580      0.787874
  H      -0.944928     -2.321098     -0.895283
>
52
-1421.13423879; 31P isotropic shielding: 263.334280 ppm
  C       3.434710      0.183930      0.062786
  C       3.360353      0.705592      1.500599
  C       3.624790     -0.363161      2.577977
  C       2.518264     -1.438346      2.694441
  C       2.564378     -2.500962      1.619617
  O       1.598049     -2.953282      1.033298
  P      -0.330914      0.011623      0.287054
  O       2.760480      2.356460     -0.773146
  C       3.101617      1.209234     -0.999785
  C       0.148832     -0.186558     -1.486630
  C       0.046670      0.836274     -2.441591
  C       0.532933      0.648156     -3.740553
  C       1.121028     -0.565939     -4.105929
  C       1.219651     -1.596313     -3.161378
  C       0.744775     -1.407509     -1.862436
  C      -1.246563      1.614378      0.271937
  C      -0.478842      2.793360      0.334303
  C      -1.099128      4.045305      0.340283
  C      -2.495537      4.138695      0.311210
  C      -3.265831      2.972149      0.267199
  C      -2.646498      1.717841      0.242401
  C      -1.688560     -1.224674      0.442765
  C      -2.456637     -1.681160     -0.640928
  C      -3.482769     -2.609184     -0.441843
  C      -3.758337     -3.088887      0.843808
  C      -2.998406     -2.640899      1.929582
  C      -1.965844     -1.721033      1.726818
  H       4.434448     -0.220886     -0.175854
  H       2.740847     -0.652466     -0.112224
  H       4.083085      1.524556      1.619829
  H       2.368862      1.146546      1.665297
  H       3.716486      0.137767      3.551143
  H       4.595593     -0.854305      2.397855
  H       1.516994     -0.990959      2.710512
  H       2.660813     -1.983500      3.644995
  H       3.592495     -2.890406      1.395256
  H       3.178661      0.837105     -2.048619
  H      -0.405713      1.787076     -2.173668
  H       0.448933      1.455487     -4.466687
  H       1.498599     -0.710912     -5.116864
  H       1.671196     -2.548667     -3.436293
  H       0.834484     -2.211958     -1.134370
  H       0.608060      2.734627      0.360212
  H      -0.490157      4.947436      0.375364
  H      -2.979474      5.114059      0.326810
  H      -4.353060      3.036335      0.247437
  H      -3.256644      0.819148      0.201786
  H      -2.250037     -1.311451     -1.642719
  H      -4.069552     -2.956879     -1.291080
  H      -4.556698     -3.813297      0.997229
  H      -3.201571     -3.016800      2.931249
  H      -1.364316     -1.387148      2.571247
>
52
-1421.13591292; 31P isotropic shielding: 266.512892 ppm
  C       1.056387     -0.245393      3.842906
  C       2.346201     -1.096617      3.792657
  C       2.751887     -1.555545      2.379020
  C       3.179472     -0.411903      1.437206
  C       3.392250     -0.888228      0.015168
  O       4.332733     -0.586140     -0.694111
  P       0.077664      0.389108     -0.571816
  O       0.459767      1.836423      2.741072
  C       1.241688      1.195115      3.419150
  C       0.032397     -0.610181     -2.121642
  C      -1.030697     -1.455413     -2.486108
  C      -0.989367     -2.171508     -3.685069
  C       0.114267     -2.051581     -4.538731
  C       1.178731     -1.216534     -4.184816
  C       1.139410     -0.505225     -2.981238
  C      -1.040255      1.807850     -0.953392
  C      -1.930076      1.835451     -2.039365
  C      -2.733623      2.956630     -2.268684
  C      -2.663569      4.061079     -1.412692
  C      -1.776369      4.043697     -0.331029
  C      -0.960549      2.930337     -0.108360
  C      -0.947588     -0.636881      0.570268
  C      -1.952075     -0.086589      1.382213
  C      -2.602084     -0.869352      2.342005
  C      -2.259820     -2.214901      2.509960
  C      -1.261462     -2.775602      1.703710
  C      -0.610391     -1.992791      0.748019
  H       0.238631     -0.695455      3.269483
  H       0.723301     -0.190267      4.895138
  H       3.173936     -0.534534      4.254568
  H       2.195670     -1.986578      4.418509
  H       1.908307     -2.097202      1.928614
  H       3.578449     -2.276173      2.466029
  H       4.086781      0.097044      1.787134
  H       2.373391      0.334525      1.364488
  H       2.587436     -1.562665     -0.371134
  H       2.174151      1.678784      3.811163
  H      -1.889940     -1.558400     -1.827004
  H      -1.819670     -2.822753     -3.955125
  H       0.146362     -2.612510     -5.471480
  H       2.045229     -1.126192     -4.837780
  H       1.979702      0.128352     -2.700846
  H      -1.992203      0.985707     -2.714256
  H      -3.416360      2.966192     -3.117352
  H      -3.290765      4.932926     -1.592461
  H      -1.709598      4.901998      0.336001
  H      -0.266274      2.926507      0.729147
  H      -2.226276      0.958605      1.270194
  H      -3.379600     -0.422954      2.960392
  H      -2.767802     -2.822879      3.256669
  H      -0.990620     -3.824449      1.817869
  H       0.157834     -2.444537      0.122537
>
52
-1421.13281118; 31P isotropic shielding: 264.150623 ppm
  C       2.851245      1.042679      1.850641
  C       3.630631      0.584262      0.613435
  C       4.626207     -0.563026      0.865221
  C       3.991154     -1.828614      1.495090
  C       2.791946     -2.319655      0.715465
  O       1.694299     -2.525265      1.201209
  P      -0.594558      0.308123      0.429646
  O       1.910502      2.880543      0.571138
  C       1.937605      2.225350      1.597204
  C       0.167451     -0.364858     -1.110265
  C       0.044421     -1.708462     -1.497479
  C       0.750779     -2.197644     -2.601711
  C       1.584575     -1.351697     -3.340090
  C       1.708687     -0.008172     -2.964884
  C       1.013291      0.480113     -1.856435
  C      -1.539899      1.754021     -0.214904
  C      -1.990225      1.872944     -1.540368
  C      -2.717445      2.995821     -1.945174
  C      -3.008523      4.013655     -1.029634
  C      -2.564214      3.905564      0.292267
  C      -1.829439      2.786065      0.692469
  C      -1.929885     -0.916039      0.788314
  C      -3.247819     -0.796336      0.318476
  C      -4.208504     -1.756944      0.649969
  C      -3.863768     -2.853033      1.448417
  C      -2.552890     -2.979739      1.921303
  C      -1.594846     -2.012646      1.603792
  H       2.221505      0.241973      2.266810
  H       3.530393      1.338932      2.672296
  H       2.910479      0.280439     -0.155621
  H       4.169161      1.442050      0.189542
  H       5.441244     -0.224961      1.521904
  H       5.093684     -0.834182     -0.092594
  H       3.684187     -1.661567      2.534605
  H       4.740349     -2.638381      1.492886
  H       2.959499     -2.480465     -0.378560
  H       1.275787      2.491333      2.457520
  H      -0.596407     -2.379494     -0.932515
  H       0.642953     -3.243467     -2.886940
  H       2.128965     -1.733126     -4.202623
  H       2.352690      0.661683     -3.533188
  H       1.132489      1.521943     -1.565841
  H      -1.767846      1.087115     -2.258503
  H      -3.058938      3.075502     -2.976468
  H      -3.572153      4.889511     -1.347161
  H      -2.778458      4.698286      1.007553
  H      -1.470973      2.713152      1.718565
  H      -3.527996      0.049962     -0.303586
  H      -5.227998     -1.649132      0.281726
  H      -4.612908     -3.600552      1.705031
  H      -2.276144     -3.827834      2.546025
  H      -0.577943     -2.115730      1.975624
