35
-1823.78142615; 31P isotropic shielding: 249.795086 ppm
  C       0.005788      2.892886     -1.214116
  S      -0.002066      2.377068      0.557860
  P      -0.001256      0.280928      0.328143
  O      -0.000773     -0.375159      1.662845
  O       1.230237     -0.058680     -0.625639
  Si      2.799665     -0.573268     -0.174007
  C       2.672703     -2.362534      0.365026
  C       3.800389     -0.371845     -1.747532
  C       3.429516      0.527400      1.205259
  O      -1.232771     -0.059659     -0.625261
  Si     -2.801626     -0.575581     -0.173173
  C      -3.803032     -0.374739     -1.746341
  C      -2.673050     -2.364827      0.365541
  C      -3.431881      0.524382      1.206466
  H      -0.888923      2.523703     -1.722616
  H       0.006223      3.987470     -1.213965
  H       0.904581      2.523005     -1.714884
  H       2.252960     -2.987714     -0.434352
  H       3.658172     -2.769735      0.630589
  H       2.017934     -2.442865      1.241927
  H       4.836797     -0.703719     -1.595977
  H       3.828122      0.678437     -2.066944
  H       3.373525     -0.964534     -2.567310
  H       3.425869      1.583952      0.908217
  H       4.458215      0.253694      1.478634
  H       2.799128      0.424867      2.097216
  H      -4.839115     -0.707490     -1.594503
  H      -3.375942     -0.966948     -2.566347
  H      -3.831744      0.675569     -2.065588
  H      -2.253070     -2.989546     -0.434074
  H      -2.017933     -2.444772      1.242218
  H      -3.658105     -2.772861      0.631365
  H      -2.801052      0.422266      2.098154
  H      -3.429243      1.580978      0.909568
  H      -4.460242      0.249772      1.480202
>
35
-1823.78147444; 31P isotropic shielding: 252.090306 ppm
  C       0.438442      2.863779      2.325285
  S      -0.015396      2.384969      0.601212
  P      -0.096672      0.287939      0.881459
  O      -0.746088     -0.120368      2.151476
  O       1.387022     -0.263236      0.719792
  Si      2.364486     -0.683784     -0.609568
  C       4.098701     -0.743778      0.098399
  C       1.794647     -2.364708     -1.217785
  C       2.197679      0.621031     -1.946077
  O      -0.819097     -0.170230     -0.471359
  Si     -2.456930     -0.624758     -0.693838
  C      -2.626687     -0.729562     -2.559009
  C      -2.702982     -2.284249      0.139081
  C      -3.555307      0.699937      0.045707
  H       0.339690      3.952829      2.373205
  H      -0.250218      2.389780      3.028841
  H       1.470086      2.577098      2.548827
  H       4.826228     -1.050640     -0.665708
  H       4.402132      0.241365      0.476876
  H       4.159721     -1.458209      0.929936
  H       2.430642     -2.724782     -2.038508
  H       0.762574     -2.311095     -1.585948
  H       1.829755     -3.109200     -0.411437
  H       2.867802      0.395579     -2.787777
  H       2.452717      1.617653     -1.564673
  H       1.171216      0.660470     -2.330803
  H      -3.643907     -1.033817     -2.841978
  H      -1.928045     -1.463943     -2.981531
  H      -2.422967      0.241804     -3.028792
  H      -2.028300     -3.044089     -0.277435
  H      -2.497185     -2.197017      1.213388
  H      -3.734225     -2.642092      0.011382
  H      -4.615164      0.465987     -0.127498
  H      -3.392040      0.770865      1.128216
  H      -3.347033      1.683970     -0.393458
>
35
-1823.78024341; 31P isotropic shielding: 255.020403 ppm
  C       0.361301      3.706780      0.205139
  S      -0.014072      2.304430     -0.935093
  P      -0.143813      0.765900      0.513486
  O      -0.857454      1.167515      1.750924
  O       1.336719      0.245012      0.774198
  Si      2.365359     -0.867141     -0.002606
  C       4.066415     -0.472339      0.677725
  C       1.800068     -2.590379      0.479423
  C       2.276726     -0.610890     -1.858299
  O      -0.811737     -0.406564     -0.347196
  Si     -2.441063     -0.940141     -0.314192
  C      -3.564009      0.546732     -0.502447
  C      -2.544598     -2.101533     -1.783500
  C      -2.712163     -1.824257      1.314537
  H       0.281414      4.616882     -0.397690
  H      -0.371376      3.724179      1.015579
  H       1.374452      3.619549      0.608103
  H       4.082564     -0.557413      1.772281
  H       4.821163     -1.161030      0.273477
  H       4.367638      0.550223      0.414153
  H       1.775882     -2.706476      1.570981
  H       2.475691     -3.355799      0.072714
  H       0.792191     -2.787892      0.093954
  H       2.994914     -1.266769     -2.370462
  H       2.508962      0.426672     -2.129157
  H       1.274687     -0.842044     -2.240010
  H      -3.443342      1.227612      0.349250
  H      -4.616950      0.234694     -0.547030
  H      -3.335293      1.106436     -1.418506
  H      -1.830217     -2.929699     -1.685402
  H      -3.550655     -2.534964     -1.869218
  H      -2.325114     -1.573139     -2.720720
  H      -2.026781     -2.675057      1.425903
  H      -2.536185     -1.132388      2.147880
  H      -3.739523     -2.206704      1.392321
>
35
-1823.78028318; 31P isotropic shielding: 254.837299 ppm
  C      -0.571516      2.877081      1.906639
  S       0.401317      2.556629      0.372379
  P       0.107469      0.467890      0.226730
  O       0.045593     -0.223304      1.546049
  O       1.296861      0.051735     -0.743194
  Si      2.817067     -0.629101     -0.343205
  C       3.576831      0.360157      1.054858
  C       2.517004     -2.410931      0.152831
  C       3.800264     -0.484318     -1.932317
  O      -1.174233      0.244668     -0.694651
  Si     -2.646999     -0.535331     -0.326221
  C      -3.659940     -0.335427     -1.891066
  C      -2.285871     -2.332956      0.061450
  C      -3.436668      0.339399      1.133899
  H      -0.282819      3.878208      2.242212
  H      -1.645561      2.855237      1.702680
  H      -0.311563      2.135642      2.665940
  H       3.675125      1.419999      0.787757
  H       2.952401      0.293999      1.954548
  H       4.576511     -0.024651      1.301312
  H       1.871404     -2.449579      1.039416
  H       3.460876     -2.921356      0.390529
  H       2.024827     -2.970675     -0.653729
  H       3.299398     -1.010354     -2.755790
  H       4.802090     -0.919885     -1.812947
  H       3.921895      0.566628     -2.226211
  H      -4.648171     -0.803260     -1.780865
  H      -3.158019     -0.804373     -2.747709
  H      -3.812655      0.725644     -2.128876
  H      -3.212561     -2.890588      0.256937
  H      -1.769922     -2.820925     -0.776427
  H      -1.644184     -2.406054      0.948162
  H      -4.403045     -0.118278      1.387676
  H      -2.785634      0.273700      2.014394
  H      -3.618575      1.399731      0.912711
>
35
-1823.78065494; 31P isotropic shielding: 246.207076 ppm
  C       0.646157      3.232767     -0.017631
  S       0.044114      1.748081     -0.933679
  P      -0.086086      0.414428      0.710890
  O      -0.693662      1.015327      1.923605
  O       1.368539     -0.172408      0.966034
  Si      2.633716     -0.806500      0.020822
  C       3.709080      0.631563     -0.522169
  C       3.548278     -1.951507      1.189302
  C       1.921474     -1.727414     -1.448923
  O      -0.878968     -0.799113      0.042310
  Si     -2.539382     -1.192564      0.213849
  C      -3.559830      0.336050     -0.148701
  C      -2.803784     -2.537190     -1.066540
  C      -2.801011     -1.809831      1.962400
  H       0.576843      4.072330     -0.716291
  H       0.004496      3.408448      0.849286
  H       1.685662      3.101579      0.296918
  H       4.594545      0.274999     -1.066720
  H       3.150833      1.303351     -1.186147
  H       4.058569      1.210947      0.342878
  H       2.898641     -2.769204      1.528416
  H       3.896634     -1.407961      2.077450
  H       4.425238     -2.396554      0.698986
  H       2.726989     -2.196606     -2.031270
  H       1.373023     -1.049847     -2.114916
  H       1.229172     -2.514804     -1.126236
  H      -4.633231      0.105612     -0.094593
  H      -3.346932      0.730771     -1.150462
  H      -3.341578      1.125723      0.580849
  H      -3.844260     -2.890390     -1.050582
  H      -2.589054     -2.167803     -2.078029
  H      -2.153234     -3.400950     -0.875527
  H      -3.850058     -2.091425      2.130034
  H      -2.177910     -2.689686      2.171631
  H      -2.533924     -1.023319      2.679356
>
35
-1823.78012800; 31P isotropic shielding: 259.455294 ppm
  C       0.866659      2.547951      2.178816
  S       0.155721      2.150487      0.523283
  P      -0.093453      0.059825      0.793358
  O      -0.643189     -0.311297      2.120588
  O       1.301494     -0.633779      0.477488
  Si      2.511133     -0.484856     -0.710700
  C       3.714873      0.830348     -0.127853
  C       3.310476     -2.179266     -0.767500
  C       1.728958     -0.028590     -2.352738
  O      -0.994338     -0.295065     -0.475363
  Si     -2.687758     -0.562100     -0.519901
  C      -3.082054     -0.563826     -2.353489
  C      -3.022494     -2.220378      0.283713
  C      -3.544623      0.836961      0.384584
  H       0.872685      3.639816      2.254358
  H       0.232298      2.119298      2.958555
  H       1.888789      2.168298      2.267220
  H       4.572274      0.907370     -0.810973
  H       3.225586      1.811469     -0.086290
  H       4.102735      0.594337      0.872059
  H       4.144481     -2.196877     -1.482731
  H       2.585949     -2.945442     -1.073486
  H       3.703572     -2.461837      0.217969
  H       0.966552     -0.761429     -2.644531
  H       2.492519      0.003510     -3.142724
  H       1.249240      0.956705     -2.305643
  H      -2.819526      0.397933     -2.813591
  H      -4.154201     -0.736644     -2.520895
  H      -2.528556     -1.353611     -2.878435
  H      -2.688551     -2.203627      1.328860
  H      -4.095042     -2.459428      0.266327
  H      -2.488198     -3.028553     -0.233457
  H      -3.285659      1.811771     -0.048144
  H      -4.636208      0.719677      0.332208
  H      -3.250143      0.845846      1.441258
>
35
-1823.78008868; 31P isotropic shielding: 259.336732 ppm
  C      -0.529729      2.942950     -1.761907
  S      -0.001025      1.181179     -1.913460
  P       0.226539      0.756742      0.153043
  O       0.909702      1.832549      0.912799
  O       0.975567     -0.651079      0.082966
  Si      2.640022     -0.967338      0.351711
  C       2.837654     -2.752923     -0.187244
  C       3.652287      0.205411     -0.701915
  C       2.977274     -0.733589      2.179157
  O      -1.209965      0.398134      0.730198
  Si     -2.542705     -0.540815      0.241627
  C      -3.649282      0.551996     -0.807530
  C      -1.939434     -2.036653     -0.714610
  C      -3.375464     -1.026110      1.849054
  H      -1.547351      3.012680     -1.366751
  H       0.169006      3.476058     -1.112499
  H      -0.498775      3.359635     -2.773503
  H       3.876002     -3.086693     -0.053025
  H       2.192032     -3.419045      0.400368
  H       2.578099     -2.876824     -1.246938
  H       3.403382      0.105093     -1.766229
  H       4.726199      0.003766     -0.582616
  H       3.462938      1.244464     -0.405313
  H       2.762003      0.302108      2.470796
  H       4.028113     -0.949673      2.418199
  H       2.349520     -1.397957      2.788073
  H      -4.570349      0.021889     -1.087833
  H      -3.137110      0.850767     -1.730719
  H      -3.938276      1.460334     -0.262122
  H      -1.229048     -2.625754     -0.121452
  H      -2.784485     -2.687149     -0.981072
  H      -1.436904     -1.738162     -1.642932
  H      -4.285054     -1.612972      1.659818
  H      -2.705062     -1.632216      2.472615
  H      -3.660522     -0.136902      2.426747
>
35
-1823.78002891; 31P isotropic shielding: 259.308357 ppm
  C      -0.569197      3.386335      0.302556
  S       0.056112      2.068946     -0.828524
  P       0.208432      0.498693      0.591273
  O       0.798031      0.918601      1.886258
  O       1.030772     -0.579692     -0.250115
  Si      2.701010     -0.952716     -0.133535
  C       2.967670     -1.858094      1.484140
  C       3.010076     -2.045357     -1.626040
  C       3.681454      0.641978     -0.209840
  O      -1.233003     -0.153773      0.743136
  Si     -2.499853     -0.608164     -0.298983
  C      -3.594889      0.894579     -0.548370
  C      -1.788374     -1.223058     -1.921220
  C      -3.396101     -1.965850      0.632231
  H      -1.605668      3.191701      0.592890
  H       0.071115      3.439122      1.186484
  H      -0.514923      4.323494     -0.260234
  H       4.020419     -2.148937      1.606840
  H       2.686691     -1.210597      2.324373
  H       2.357265     -2.769602      1.535771
  H       2.783306     -1.512236     -2.558837
  H       2.388179     -2.949793     -1.592674
  H       4.061636     -2.361978     -1.666090
  H       3.430339      1.284914      0.642779
  H       3.469037      1.200720     -1.130367
  H       4.760393      0.434307     -0.178461
  H      -4.488500      0.634452     -1.132938
  H      -3.055683      1.683344     -1.087439
  H      -3.931513      1.300854      0.414783
  H      -1.242133     -0.426241     -2.440778
  H      -1.095156     -2.057957     -1.759917
  H      -2.593070     -1.570838     -2.584372
  H      -4.268734     -2.320113      0.066100
  H      -2.735516     -2.824832      0.809163
  H      -3.749022     -1.605513      1.607556
>
35
-1823.78010604; 31P isotropic shielding: 259.467011 ppm
  C      -0.740144      1.761888      2.769492
  S       0.777219      1.354452      1.803657
  P       0.051320     -0.369136      0.817085
  O      -0.618453     -1.353327      1.703444
  O       1.347395     -0.901212      0.075200
  Si      2.499271     -0.346606     -1.049721
  C       3.875683      0.476239     -0.078452
  C       3.091934     -1.900889     -1.912239
  C       1.681464      0.852102     -2.236713
  O      -0.892933      0.181378     -0.356981
  Si     -2.469908     -0.336970     -0.765641
  C      -2.421479     -2.172260     -1.142906
  C      -3.617467      0.048426      0.666162
  C      -2.885406      0.681732     -2.285870
  H      -1.530174      2.136386      2.112317
  H      -1.078139      0.875045      3.311449
  H      -0.449947      2.545019      3.476764
  H       4.700974      0.766289     -0.743966
  H       3.519679      1.381037      0.430416
  H       4.279025     -0.203196      0.683887
  H       3.872962     -1.665834     -2.648576
  H       2.268014     -2.399181     -2.439882
  H       3.510914     -2.614475     -1.190600
  H       0.855684      0.375663     -2.779365
  H       2.410928      1.214516     -2.974785
  H       1.274673      1.721070     -1.704863
  H      -3.413160     -2.536921     -1.445605
  H      -2.103204     -2.732331     -0.255045
  H      -1.719606     -2.393137     -1.958336
  H      -3.288516     -0.484640      1.566480
  H      -3.636491      1.124368      0.885946
  H      -4.646519     -0.262643      0.437694
  H      -2.181493      0.478601     -3.103822
  H      -3.896734      0.448534     -2.647130
  H      -2.845563      1.756812     -2.065995
>
35
-1823.77846660; 31P isotropic shielding: 255.816913 ppm
  C      -0.739713      1.812328      2.734318
  S       0.776648      1.394505      1.771349
  P       0.058284     -0.353266      0.822591
  O      -0.600319     -1.323975      1.731850
  O       1.354800     -0.891317      0.085558
  Si      2.498406     -0.348414     -1.053662
  C       3.878172      0.490678     -0.101146
  C       3.090608     -1.912551     -1.898646
  C       1.671659      0.832063     -2.252684
  O      -0.894953      0.166830     -0.357902
  Si     -2.468104     -0.374723     -0.751612
  C      -2.403326     -2.217123     -1.089433
  C      -3.615432      0.031108      0.674711
  C      -2.895967      0.607283     -2.292371
  H      -1.072611      0.933462      3.292215
  H      -0.450889      2.608506      3.427456
  H      -1.533001      2.172415      2.072997
  H       3.522624      1.400827      0.398468
  H       4.287723     -0.178124      0.667275
  H       4.698772      0.774494     -0.775096
  H       3.516545     -2.614720     -1.169896
  H       3.866165     -1.685128     -2.643149
  H       2.265017     -2.420772     -2.414073
  H       2.397103      1.185711     -2.998993
  H       1.265582      1.707673     -1.731247
  H       0.844528      0.346661     -2.785267
  H      -1.701205     -2.448933     -1.901623
  H      -3.392144     -2.597790     -1.381633
  H      -2.077382     -2.754702     -0.190516
  H      -3.640052      1.110962      0.873906
  H      -4.643138     -0.290123      0.454303
  H      -3.281851     -0.482707      1.584503
  H      -2.191252      0.393525     -3.106931
  H      -3.905454      0.356319     -2.646908
  H      -2.866542      1.687216     -2.095809
>
35
-1823.77844805; 31P isotropic shielding: 255.794280 ppm
  C       0.925994      2.607686      2.285133
  S      -0.654463      1.919286      1.629139
  P       0.022016     -0.014024      1.117351
  O       0.977616     -0.603597      2.088810
  O       0.608636      0.089580     -0.376693
  Si      2.164306     -0.351351     -0.931028
  C       3.438459      0.699314     -0.043189
  C       2.432500     -2.177945     -0.611063
  C       2.094209      0.037813     -2.765594
  O      -1.355570     -0.780450      0.932067
  Si     -2.399722     -1.086133     -0.380938
  C      -1.580057     -2.347594     -1.501586
  C      -3.945378     -1.773569      0.422880
  C      -2.720564      0.528406     -1.276933
  H       1.373861      1.893234      2.980048
  H       1.620262      2.840409      1.472804
  H       0.658359      3.528569      2.812780
  H       3.398784      0.510167      1.036441
  H       4.452710      0.464599     -0.395328
  H       3.265295      1.769925     -0.216649
  H       3.417706     -2.497265     -0.979410
  H       1.672700     -2.789579     -1.114781
  H       2.382132     -2.384922      0.464957
  H       3.052705     -0.192799     -3.250927
  H       1.876611      1.100488     -2.936088
  H       1.315203     -0.551294     -3.267625
  H      -0.694744     -1.923535     -1.989527
  H      -2.273027     -2.679264     -2.287533
  H      -1.266692     -3.233538     -0.933771
  H      -3.721380     -2.687595      0.988569
  H      -4.382863     -1.045378      1.118411
  H      -4.704828     -2.020254     -0.331975
  H      -1.786190      0.949888     -1.667353
  H      -3.405727      0.374011     -2.122351
  H      -3.172556      1.272812     -0.608549
>
35
-1823.77947274; 31P isotropic shielding: 250.913217 ppm
  C       0.176877      3.076313     -2.104710
  S      -0.232320      1.276138     -2.125897
  P      -0.094319      0.908796     -0.045794
  O      -0.681294      1.983054      0.792706
  O       1.436273      0.616444      0.276134
  Si      2.425359     -0.767216      0.203698
  C       2.145779     -1.647132     -1.428503
  C       4.167253     -0.090604      0.346146
  C       1.980290     -1.863695      1.659828
  O      -0.783069     -0.532720      0.051789
  Si     -2.363323     -0.911021      0.599517
  C      -3.588248      0.200966     -0.278279
  C      -2.568735     -2.712872      0.121043
  C      -2.389783     -0.656300      2.454604
  H      -0.454560      3.585678     -1.372758
  H       1.234054      3.231530     -1.870636
  H      -0.035633      3.447205     -3.112369
  H       2.329034     -0.977415     -2.278162
  H       2.821251     -2.509328     -1.521126
  H       1.114869     -2.014020     -1.505767
  H       4.397831      0.580363     -0.491976
  H       4.907132     -0.902945      0.341879
  H       4.293161      0.477093      1.277529
  H       2.651291     -2.732179      1.717991
  H       0.952368     -2.234466      1.565284
  H       2.058630     -1.312771      2.606418
  H      -4.617247     -0.042896      0.021279
  H      -3.516272      0.094983     -1.368321
  H      -3.396489      1.251270     -0.026177
  H      -2.483828     -2.843880     -0.965879
  H      -1.806059     -3.341611      0.599483
  H      -3.554163     -3.088770      0.429425
  H      -3.373404     -0.907860      2.875406
  H      -1.639025     -1.282807      2.954477
  H      -2.170779      0.392973      2.689817
>
35
-1823.78038839; 31P isotropic shielding: 254.749597 ppm
  C       0.657726      1.087116      3.302310
  S      -0.868328      0.738030      2.326826
  P      -0.026139     -0.593044      0.922484
  O       0.872979     -1.617840      1.509991
  O       0.693711      0.331049     -0.177780
  Si      2.277633      0.158702     -0.802817
  C       3.498762      0.487581      0.581853
  C       2.470442     -1.566682     -1.507470
  C       2.365668      1.478593     -2.134450
  O      -1.321522     -1.150597      0.195136
  Si     -2.356029     -0.664766     -1.066779
  C      -3.673329     -1.995856     -1.100704
  C      -3.063101      1.019033     -0.642294
  C      -1.377202     -0.616692     -2.666780
  H       1.377768      1.654319      2.705714
  H       0.338515      1.689407      4.158659
  H       1.099615      0.148394      3.645108
  H       3.415602     -0.288615      1.352304
  H       4.530557      0.487065      0.202957
  H       3.318005      1.463757      1.051534
  H       3.434720     -1.672812     -2.024337
  H       1.677075     -1.789442     -2.232936
  H       2.420321     -2.313067     -0.705702
  H       3.368641      1.514076     -2.582102
  H       2.147306      2.471566     -1.719357
  H       1.646543      1.284792     -2.941115
  H      -4.399272     -1.813133     -1.904992
  H      -4.222560     -2.028849     -0.150507
  H      -3.226400     -2.985242     -1.264611
  H      -3.821888      1.315938     -1.380127
  H      -3.540078      1.011259      0.346291
  H      -2.281725      1.789445     -0.631170
  H      -0.880688     -1.576970     -2.857927
  H      -2.043136     -0.409678     -3.516523
  H      -0.612995      0.168062     -2.637286
>
35
-1823.77897365; 31P isotropic shielding: 252.594147 ppm
  C      -0.193795      2.462759     -1.617268
  S      -0.187931      2.261183      0.217336
  P       0.047940      0.166876      0.368400
  O       0.162368     -0.218805      1.797796
  O       1.285219     -0.207463     -0.563998
  Si      2.905837     -0.486711     -0.082805
  C       2.967728     -2.156376      0.763529
  C       3.853854     -0.474321     -1.701590
  C       3.446751      0.897530      1.058470
  O      -1.151497     -0.479892     -0.455643
  Si     -2.826785     -0.575087     -0.133469
  C      -3.657057      0.602257     -1.337794
  C      -3.280037     -2.359659     -0.485018
  C      -3.171303     -0.091206      1.641498
  H       0.759641      2.133122     -2.038519
  H      -1.017947      1.901537     -2.064927
  H      -0.331883      3.532056     -1.806598
  H       2.333509     -2.146954      1.659023
  H       2.608284     -2.952012      0.097281
  H       3.993092     -2.408435      1.068510
  H       3.775598      0.501530     -2.199215
  H       3.470925     -1.238177     -2.391208
  H       4.919897     -0.678768     -1.530449
  H       2.836071      0.904012      1.969760
  H       3.344744      1.878336      0.576260
  H       4.498778      0.769596      1.349945
  H      -3.387589      0.370185     -2.376812
  H      -3.367565      1.640592     -1.129283
  H      -4.751032      0.538446     -1.254179
  H      -3.013527     -2.642244     -1.512144
  H      -2.752560     -3.036578      0.199940
  H      -4.359216     -2.523552     -0.358364
  H      -2.904772      0.957526      1.823066
  H      -4.239868     -0.216072      1.867687
  H      -2.591172     -0.705132      2.340482
>
35
-1823.78050594; 31P isotropic shielding: 257.339631 ppm
  C      -0.925176      2.702631      2.172234
  S       0.656493      1.971965      1.566409
  P      -0.034245      0.027029      1.123597
  O      -1.006720     -0.515287      2.105681
  O       1.337095     -0.760644      0.985214
  Si      2.397382     -1.117931     -0.301555
  C       3.922766     -1.797268      0.546740
  C       1.580497     -2.403193     -1.396866
  C       2.753002      0.464116     -1.241252
  O      -0.602602      0.078350     -0.380281
  Si     -2.153390     -0.379831     -0.934874
  C      -2.431352     -2.191164     -0.544494
  C      -3.433679      0.709788     -0.104912
  C      -2.062036     -0.064774     -2.782792
  H      -0.655718      3.646271      2.657010
  H      -1.609504      2.900505      1.342429
  H      -1.385329      2.026163      2.896479
  H       4.355729     -1.053762      1.228810
  H       3.680967     -2.692891      1.134119
  H       4.692121     -2.071599     -0.188239
  H       1.249322     -3.268747     -0.808066
  H       2.281180     -2.765173     -2.162296
  H       0.707265     -1.983607     -1.909691
  H       3.452466      0.274837     -2.067764
  H       3.201548      1.224059     -0.588191
  H       1.832093      0.884200     -1.663865
  H      -1.668107     -2.824541     -1.015074
  H      -3.413571     -2.522827     -0.909864
  H      -2.392894     -2.353955      0.539534
  H      -3.408610      0.562249      0.981616
  H      -3.252989      1.772139     -0.317233
  H      -4.444306      0.466009     -0.461312
  H      -1.842490      0.990193     -2.993877
  H      -1.277764     -0.673390     -3.252301
  H      -3.015245     -0.315119     -3.268772
>
35
-1823.77946010; 31P isotropic shielding: 250.905330 ppm
  C       0.112740      2.625572     -1.307226
  S       0.141516      2.208215      0.489925
  P      -0.043926      0.105668      0.396370
  O      -0.142471     -0.443533      1.772320
  O       1.165201     -0.413441     -0.500622
  Si      2.844663     -0.503118     -0.205048
  C       3.625400      0.934568     -1.126280
  C       3.181601     -0.401060      1.633317
  C       3.361906     -2.152994     -0.929249
  O      -1.275395     -0.189013     -0.571656
  Si     -2.894943     -0.533750     -0.133394
  C      -3.822589     -0.422826     -1.760145
  C      -2.934536     -2.259020      0.593364
  C      -3.476733      0.756262      1.095201
  H       0.192636      3.715575     -1.369084
  H       0.958360      2.166787     -1.826054
  H      -0.828396      2.298030     -1.756595
  H       3.286155      1.892115     -0.710336
  H       4.720662      0.902217     -1.042015
  H       3.372100      0.911564     -2.194615
  H       2.874487      0.570228      2.040773
  H       4.255558     -0.529498      1.829980
  H       2.630787     -1.175211      2.180678
  H       4.447280     -2.298347     -0.838241
  H       3.099627     -2.219769     -1.993403
  H       2.865314     -2.980439     -0.405465
  H      -4.886389     -0.659201     -1.618960
  H      -3.415790     -1.128704     -2.496281
  H      -3.757619      0.586995     -2.186828
  H      -3.956464     -2.547216      0.876758
  H      -2.560787     -3.000579     -0.125273
  H      -2.301446     -2.300475      1.488626
  H      -2.888067      0.701610      2.019377
  H      -3.374667      1.771061      0.689546
  H      -4.533573      0.597227      1.351734
>
35
-1823.78062008; 31P isotropic shielding: 257.794109 ppm
  C      -0.155449      1.142760     -2.993063
  S      -0.150404      2.090640     -1.408713
  P       0.037345      0.509314     -0.034837
  O       0.067276      1.030041      1.358204
  O       1.316260     -0.315182     -0.508293
  Si      2.701064     -0.744787      0.399651
  C       3.779314     -1.646264     -0.842422
  C       3.508524      0.820891      1.033649
  C       2.146914     -1.866862      1.795713
  O      -1.146819     -0.510897     -0.364018
  Si     -2.660370     -0.641474      0.426076
  C      -3.424995      1.063318      0.565313
  C      -3.651080     -1.767379     -0.700795
  C      -2.356989     -1.409701      2.107384
  H      -0.991249      0.438083     -3.012603
  H      -0.276427      1.882714     -3.790506
  H       0.791696      0.611883     -3.120773
  H       3.264172     -2.526161     -1.249987
  H       4.047930     -0.991046     -1.681744
  H       4.711765     -1.988830     -0.372575
  H       4.425566      0.592189      1.594595
  H       2.820298      1.359063      1.696833
  H       3.777545      1.490256      0.205586
  H       1.619441     -2.748978      1.408822
  H       1.468848     -1.328933      2.469978
  H       3.006243     -2.218773      2.383591
  H      -2.804907      1.713728      1.194612
  H      -4.425543      1.002787      1.016334
  H      -3.523977      1.539598     -0.418573
  H      -4.651019     -1.953870     -0.285005
  H      -3.779542     -1.319619     -1.695253
  H      -3.152949     -2.737696     -0.827551
  H      -1.865991     -2.387577      2.013866
  H      -1.709957     -0.756059      2.705393
  H      -3.299935     -1.556579      2.652511
>
35
-1823.78134440; 31P isotropic shielding: 250.622618 ppm
  C      -0.163700      0.307698     -2.949433
  S      -0.118091      1.608220     -1.640536
  P       0.065948      0.407586      0.086885
  O       0.210223      1.277680      1.281306
  O       1.266381     -0.600336     -0.201299
  Si      2.881259     -0.481584      0.360530
  C       3.790138     -1.789016     -0.631252
  C       3.519266      1.243466      0.003207
  C       2.872916     -0.859804      2.194742
  O      -1.170526     -0.595132      0.074181
  Si     -2.838025     -0.356521      0.355050
  C      -3.116015      1.284724      1.210901
  C      -3.672604     -0.405078     -1.326114
  C      -3.349471     -1.811300      1.420905
  H       0.751030     -0.290269     -2.920097
  H      -1.039193     -0.335326     -2.827648
  H      -0.227805      0.837949     -3.905000
  H       3.345562     -2.781336     -0.478334
  H       3.760679     -1.565751     -1.706117
  H       4.845374     -1.842383     -0.328977
  H       3.439452      1.488005     -1.063968
  H       4.575451      1.333551      0.294239
  H       2.943241      1.989105      0.565027
  H       3.889377     -0.826090      2.611634
  H       2.460344     -1.858306      2.392231
  H       2.256410     -0.123287      2.725223
  H      -4.179507      1.405758      1.462021
  H      -2.820072      2.122839      0.567570
  H      -2.527778      1.354696      2.133498
  H      -4.764413     -0.336187     -1.219400
  H      -3.345751      0.436788     -1.950380
  H      -3.448518     -1.338841     -1.859144
  H      -2.831900     -1.786738      2.388991
  H      -4.431010     -1.795564      1.614993
  H      -3.107571     -2.764416      0.932063
>
35
-1823.78045892; 31P isotropic shielding: 257.552627 ppm
  C      -0.014787      2.207585     -2.014492
  S       0.071765      2.240569     -0.170930
  P       0.021574      0.174180      0.239664
  O       0.086524     -0.049390      1.708666
  O       1.191829     -0.478206     -0.624694
  Si      2.762629     -0.911113     -0.094476
  C       3.675588     -1.291688     -1.688312
  C       3.516445      0.541601      0.818133
  C       2.595951     -2.416384      1.007337
  O      -1.268906     -0.393504     -0.504319
  Si     -2.801241     -0.742076      0.178289
  C      -3.906385     -0.985497     -1.317623
  C      -2.621409     -2.305797      1.194309
  C      -3.344261      0.712440      1.227337
  H      -0.941392      1.729942     -2.344444
  H      -0.001416      3.252554     -2.340212
  H       0.849696      1.680718     -2.427589
  H       3.176559     -2.094231     -2.247469
  H       3.727299     -0.407472     -2.337483
  H       4.704650     -1.615752     -1.479294
  H       2.939102      0.771041      1.722472
  H       3.535613      1.443149      0.192306
  H       4.548931      0.314528      1.119308
  H       3.578285     -2.758964      1.361587
  H       2.120165     -3.249372      0.472501
  H       1.977278     -2.173057      1.880246
  H      -3.971248     -0.067879     -1.917442
  H      -4.925375     -1.256396     -1.007664
  H      -3.527160     -1.787594     -1.964637
  H      -1.896854     -2.142513      2.002245
  H      -3.580154     -2.600292      1.643660
  H      -2.265425     -3.142421      0.578386
  H      -3.353347      1.644282      0.647434
  H      -4.356015      0.547516      1.623969
  H      -2.661105      0.848192      2.074931
>
35
-1823.78138607; 31P isotropic shielding: 251.693284 ppm
  C       0.039499      2.842444     -1.488478
  S       0.008849      2.472080      0.318861
  P      -0.062082      0.369787      0.267105
  O      -0.095042     -0.168241      1.654270
  O       1.174640     -0.098470     -0.627813
  Si      2.701055     -0.641168     -0.075752
  C       2.461417     -2.360341      0.629740
  C       3.754619     -0.646247     -1.628072
  C       3.359492      0.549680      1.212681
  O      -1.304600     -0.005244     -0.658545
  Si     -2.645945     -0.986006     -0.238718
  C      -3.530130     -0.200479      1.212343
  C      -3.698931     -0.973153     -1.791467
  C      -2.002741     -2.701101      0.160825
  H       0.075701      3.932880     -1.575699
  H       0.927586      2.406034     -1.953837
  H      -0.865679      2.462913     -1.969996
  H       1.752389     -2.312793      1.465658
  H       2.053317     -3.042319     -0.128119
  H       3.404989     -2.786030      0.996436
  H       4.766292     -1.014422     -1.408906
  H       3.849014      0.363703     -2.048139
  H       3.319585     -1.297091     -2.397807
  H       4.365254      0.247271      1.535583
  H       2.704691      0.565081      2.092500
  H       3.420264      1.571940      0.817961
  H      -4.426773     -0.773031      1.486654
  H      -3.843311      0.824116      0.971605
  H      -2.864283     -0.158541      2.082754
  H      -3.152360     -1.385398     -2.649484
  H      -4.604966     -1.577660     -1.646595
  H      -4.014797      0.047479     -2.044511
  H      -1.422093     -3.102476     -0.680455
  H      -1.350175     -2.660680      1.041309
  H      -2.823845     -3.400519      0.368409
