26
-5532.59393382; 31P isotropic shielding: 4.432359 ppm
  C      -4.089198     -1.519351      0.591664
  C      -2.682073     -2.022504      0.309337
  O      -1.762638     -1.426279      1.279156
  P      -0.369093     -0.664902      0.894139
  Se      3.012379      0.215837      0.410335
  Se     -0.981371      0.906726     -0.784740
  C      -0.565639      2.451384      0.431980
  C      -1.670314      2.734170      1.447491
  O       0.272996     -1.886245     -0.063832
  C       1.285952     -1.711596     -1.069966
  C       2.689706     -1.536623     -0.502827
  H      -4.803296     -1.997181     -0.093675
  H      -4.142385     -0.433497      0.449381
  H      -4.387707     -1.754601      1.620838
  H      -2.605332     -3.111582      0.422081
  H      -2.360943     -1.759863     -0.706968
  H      -0.404838      3.295938     -0.246584
  H       0.387149      2.210394      0.915217
  H      -1.401496      3.602061      2.069610
  H      -2.623258      2.951762      0.949527
  H      -1.826058      1.876795      2.113346
  H       1.019316     -0.869271     -1.724437
  H       1.259479     -2.638122     -1.663830
  H       2.865885      1.016973     -0.831484
  H       2.894448     -2.288018      0.267781
  H       3.435925     -1.639805     -1.297839
>
26
-5532.59610617; 31P isotropic shielding: -2.313738 ppm
  C      -3.053820     -3.191354      0.393132
  C      -2.978570     -1.676041      0.259225
  O      -2.047065     -1.123737      1.242919
  P      -0.567638     -0.520934      0.897384
  Se      2.906086     -0.016023      0.461129
  Se     -0.948043      1.116761     -0.784835
  C      -0.322960      2.594062      0.426714
  C      -1.387532      3.051416      1.420952
  O      -0.039216     -1.806195     -0.050753
  C       0.997241     -1.739701     -1.045841
  C       2.406208     -1.719305     -0.464877
  H      -3.343676     -3.475602      1.412380
  H      -2.084093     -3.646800      0.164345
  H      -3.805146     -3.591151     -0.302660
  H      -2.663610     -1.377680     -0.749080
  H      -3.946386     -1.204475      0.470902
  H      -0.027169      3.397213     -0.256812
  H       0.575559      2.218140      0.927302
  H      -2.290471      3.401099      0.905512
  H      -1.678285      2.235759      2.093995
  H      -1.000611      3.878159      2.036816
  H       0.829125     -0.871383     -1.698703
  H       0.877164     -2.655937     -1.644163
  H       2.791542      0.811308     -0.766501
  H       2.522514     -2.492182      0.302877
  H       3.143154     -1.897818     -1.255259
>
26
-5532.59664358; 31P isotropic shielding: -8.320411 ppm
  C      -4.138639     -2.186553      0.834273
  C      -2.802706     -1.862903      0.183905
  O      -1.937435     -1.260629      1.194553
  P      -0.483939     -0.576059      0.882946
  Se      2.963832      0.127842      0.525914
  Se     -0.920110      1.007845     -0.838825
  C      -0.426499      2.537480      0.367973
  C      -1.553392      2.948132      1.312370
  O       0.157531     -1.841776     -0.014113
  C       1.201278     -1.731014     -0.996214
  C       2.596446     -1.611036     -0.394882
  H      -4.807282     -2.655613      0.099568
  H      -4.619858     -1.275045      1.209289
  H      -4.005751     -2.880363      1.673661
  H      -2.311075     -2.762963     -0.205342
  H      -2.922056     -1.141478     -0.638460
  H      -0.149799      3.345620     -0.317673
  H       0.471271      2.221207      0.909482
  H      -1.826018      2.126343      1.985604
  H      -1.238131      3.802957      1.930779
  H      -2.452868      3.240836      0.756789
  H       0.990042     -0.887101     -1.668294
  H       1.147590     -2.663869     -1.578409
  H       2.829342      0.938331     -0.711078
  H       2.753056     -2.368750      0.380800
  H       3.356070     -1.744740     -1.172615
>
26
-5532.59751187; 31P isotropic shielding: -0.083206 ppm
  C      -4.123011     -2.197492      0.833735
  C      -2.788092     -1.872960      0.181989
  O      -1.921599     -1.271097      1.192179
  P      -0.470398     -0.583105      0.878448
  Se      2.978317      0.124185      0.514230
  Se     -0.912439      1.003406     -0.838867
  C      -0.417719      2.531150      0.370384
  C      -1.541595      2.936096      1.320937
  O       0.170849     -1.846305     -0.022155
  C       1.211789     -1.732584     -1.006741
  C       2.608664     -1.613499     -0.408942
  H      -3.989432     -2.893550      1.671125
  H      -4.793175     -2.664129      0.098863
  H      -4.602885     -1.286585      1.211881
  H      -2.296255     -2.772562     -0.208023
  H      -2.908338     -1.151135     -0.639818
  H      -0.146228      3.342251     -0.313845
  H       0.483188      2.216017      0.907294
  H      -1.808850      2.111396      1.992780
  H      -1.225805      3.789770      1.940587
  H      -2.444306      3.227993      0.770229
  H       0.998373     -0.887171     -1.676247
  H       1.156983     -2.663898     -1.591351
  H       2.842207      0.936148     -0.721671
  H       2.767637     -2.372689      0.364781
  H       3.366418     -1.745151     -1.188784
>
26
-5532.59751170; 31P isotropic shielding: -0.073413 ppm
  C      -2.946484     -3.352155      0.249971
  C      -3.015697     -1.833860      0.149321
  O      -2.161346     -1.216052      1.165027
  P      -0.714700     -0.509761      0.878666
  Se      2.833080     -0.075387      0.738482
  Se     -1.156644      1.130670     -0.790948
  C      -1.209017      2.610414      0.570724
  C       0.173001      3.141471      0.941718
  O      -0.075131     -1.717769     -0.096757
  C       0.983316     -1.556328     -1.057693
  C       2.373466     -1.625051     -0.437487
  H      -3.642430     -3.805785     -0.469989
  H      -3.226964     -3.687036      1.256419
  H      -1.933525     -3.707832      0.032258
  H      -2.712809     -1.478094     -0.843581
  H      -4.028305     -1.463832      0.352652
  H      -1.746465      2.219380      1.441227
  H      -1.836001      3.378339      0.105176
  H       0.786004      2.357231      1.400363
  H       0.704172      3.514740      0.057292
  H       0.080826      3.969900      1.661139
  H       0.847260     -0.617777     -1.613226
  H       0.867345     -2.397102     -1.759227
  H       2.840974      0.910715     -0.371425
  H       2.464401     -2.500547      0.214875
  H       3.135772     -1.693591     -1.221078
>
26
-5532.59613980; 31P isotropic shielding: -1.283249 ppm
  C      -4.180938     -2.631116      0.645865
  C      -2.937792     -2.044569     -0.003078
  O      -2.124484     -1.430750      1.047611
  P      -0.811974     -0.503005      0.770095
  Se      2.647871     -0.149906      1.281396
  Se     -1.540727      1.168148     -0.735400
  C      -1.161484      2.665899      0.554295
  C       0.232969      3.262628      0.383772
  O      -0.044863     -1.545069     -0.299274
  C       1.127841     -1.163011     -1.050685
  C       2.415520     -1.407852     -0.277312
  H      -4.808323     -3.109996     -0.118282
  H      -4.769952     -1.847469      1.137641
  H      -3.911001     -3.385935      1.394719
  H      -2.336233     -2.812724     -0.503421
  H      -3.196545     -1.264620     -0.734351
  H      -1.312619      2.255852      1.558656
  H      -1.953026      3.398209      0.363842
  H       0.379565      3.645530     -0.634067
  H       0.374506      4.099314      1.085679
  H       1.009472      2.514455      0.582117
  H       1.043548     -0.116651     -1.375918
  H       1.119130     -1.806772     -1.943384
  H       3.967250      0.354499      0.819213
  H       2.441854     -2.426244      0.121299
  H       3.280433     -1.256645     -0.930030
>
26
-5532.59569353; 31P isotropic shielding: -9.636887 ppm
  C      -4.230507     -1.876249      0.785817
  C      -2.818303     -1.913813      0.223691
  O      -1.921378     -1.298235      1.200758
  P      -0.492382     -0.595158      0.827521
  Se      2.907776      0.194554      0.378510
  Se     -1.030688      1.000846     -0.855204
  C      -0.602689      2.529178      0.378130
  C      -1.708589      2.814908      1.391355
  O       0.104260     -1.840269     -0.129783
  C       1.149995     -1.702631     -1.108197
  C       2.544256     -1.563132     -0.508718
  H      -4.561074     -0.839780      0.925386
  H      -4.279882     -2.391256      1.753299
  H      -4.924388     -2.372418      0.093330
  H      -2.473091     -2.939505      0.043998
  H      -2.753980     -1.350630     -0.718360
  H      -0.429958      3.376885     -0.293504
  H       0.345378      2.272415      0.862545
  H      -1.879201      1.952076      2.046407
  H      -1.431758      3.671837      2.025120
  H      -2.656127      3.050287      0.891154
  H       0.922422     -0.860278     -1.777112
  H       1.112211     -2.634279     -1.693375
  H       2.784092      0.980880     -0.874672
  H       2.703901     -2.303767      0.282729
  H       3.305603     -1.708264     -1.282426
>
26
-5532.59749543; 31P isotropic shielding: -3.493299 ppm
  C      -3.111458     -3.234306      0.450131
  C      -3.069005     -1.717237      0.320789
  O      -2.118539     -1.150515      1.277632
  P      -0.659300     -0.525132      0.890153
  Se      2.792727      0.030960      0.353902
  Se     -1.114039      1.109359     -0.777290
  C      -0.467400      2.592717      0.415560
  C      -1.505014      3.037840      1.443185
  O      -0.137701     -1.801152     -0.073725
  C       0.865152     -1.716536     -1.101286
  C       2.290848     -1.676144     -0.564065
  H      -3.875930     -3.645373     -0.224406
  H      -3.364995     -3.527700      1.476415
  H      -2.140761     -3.670592      0.190487
  H      -2.791178     -1.408718     -0.695395
  H      -4.038775     -1.265553      0.564374
  H      -0.202027      3.399925     -0.275651
  H       0.450530      2.226281      0.887036
  H      -2.427505      3.377839      0.956714
  H      -1.765608      2.218887      2.124536
  H      -1.107919      3.868491      2.047103
  H       0.663613     -0.848934     -1.745597
  H       0.740246     -2.632580     -1.698844
  H       2.654350      0.858157     -0.871334
  H       2.443479     -2.450176      0.196098
  H       3.006409     -1.839207     -1.377121
>
26
-5532.59662202; 31P isotropic shielding: -8.546115 ppm
  C      -4.196973     -2.277006      0.876745
  C      -2.897302     -1.884201      0.192008
  O      -2.016904     -1.287668      1.193680
  P      -0.574941     -0.587969      0.862212
  Se      2.859670      0.151862      0.428468
  Se     -1.057336      1.006462     -0.836918
  C      -0.537157      2.530074      0.366811
  C      -1.639835      2.930172      1.343952
  O       0.061903     -1.841982     -0.054923
  C       1.079881     -1.716310     -1.061923
  C       2.487912     -1.585437     -0.493857
  H      -4.010953     -3.000473      1.680192
  H      -4.878705     -2.736504      0.147997
  H      -4.691399     -1.397909      1.307762
  H      -2.390360     -2.752590     -0.246304
  H      -3.068968     -1.138157     -0.598360
  H      -0.282237      3.343679     -0.320813
  H       0.376082      2.214133      0.881892
  H      -2.554841      3.223416      0.814664
  H      -1.891363      2.102654      2.018406
  H      -1.311014      3.781695      1.959793
  H       0.844039     -0.871460     -1.724578
  H       1.021153     -2.646923     -1.647271
  H       2.712557      0.966026     -0.804210
  H       2.671424     -2.345502      0.273521
  H       3.230469     -1.706083     -1.289945
>
26
-5532.59751734; 31P isotropic shielding: 0.607338 ppm
  C      -3.036008     -3.080886      0.165888
  C      -2.941174     -1.560956      0.180833
  O      -1.962278     -1.121755      1.175310
  P      -0.491194     -0.498516      0.828877
  Se      2.961619      0.023501      0.283345
  Se     -0.923896      1.310317     -0.653151
  C      -0.283596      2.648653      0.703006
  C      -1.337460      2.994756      1.752242
  O      -0.021261     -1.680218     -0.271565
  C       0.965773     -1.519395     -1.305024
  C       2.402216     -1.565523     -0.798108
  H      -3.292135     -3.462182      1.162236
  H      -2.083436     -3.524053     -0.144580
  H      -3.819598     -3.399069     -0.536387
  H      -2.661879     -1.166040     -0.804473
  H      -3.892245     -1.101367      0.477749
  H       0.006074      3.521517      0.108170
  H       0.619602      2.221103      1.151317
  H      -2.244563      3.400126      1.287308
  H      -1.623964      2.110187      2.333820
  H      -0.943345      3.748126      2.451909
  H       0.776453     -0.589151     -1.859720
  H       0.806840     -2.369665     -1.985891
  H       2.722082      0.991461     -0.816337
  H       2.552605     -2.419219     -0.128022
  H       3.095567     -1.656551     -1.641251
>
26
-5532.59681047; 31P isotropic shielding: -7.949966 ppm
  C      -3.006704     -3.353899      0.286726
  C      -3.071957     -1.837288      0.160213
  O      -2.210407     -1.204912      1.160657
  P      -0.762320     -0.508507      0.855210
  Se      2.741740      0.042294      0.557379
  Se     -1.217876      1.111643     -0.834363
  C      -1.346961      2.586996      0.527298
  C       0.009219      3.152121      0.941510
  O      -0.128385     -1.731150     -0.104645
  C       0.889384     -1.582657     -1.109281
  C       2.304918     -1.567052     -0.545020
  H      -3.282644     -3.670621      1.300280
  H      -1.995988     -3.716430      0.069693
  H      -3.707918     -3.817668     -0.421584
  H      -2.772955     -1.499438     -0.840074
  H      -4.082513     -1.460837      0.361990
  H      -1.901261      2.181748      1.380602
  H      -1.977950      3.340161      0.043438
  H       0.627381      2.383802      1.419801
  H       0.558009      3.540368      0.074465
  H      -0.126424      3.977000      1.658072
  H       0.698902     -0.680316     -1.707337
  H       0.781068     -2.462094     -1.762844
  H       2.474632      1.004106     -0.540993
  H       2.463126     -2.413143      0.132926
  H       3.034083     -1.630528     -1.360116
>
26
-5532.59613559; 31P isotropic shielding: 1.964016 ppm
  C      -4.200850     -1.797189      0.415042
  C      -2.755964     -2.219633      0.197476
  O      -1.912026     -1.561791      1.196717
  P      -0.572968     -0.685888      0.860900
  Se      2.837509      0.275587      0.518134
  Se     -1.291033      0.876951     -0.790110
  C      -1.535441      2.319814      0.590478
  C      -0.240279      3.045694      0.945506
  O       0.176259     -1.809243     -0.132730
  C       1.157040     -1.529161     -1.146059
  C       2.567732     -1.364441     -0.593397
  H      -4.527220     -2.032930      1.435568
  H      -4.856487     -2.327811     -0.289697
  H      -4.311978     -0.719049      0.249408
  H      -2.620531     -3.300625      0.330132
  H      -2.408955     -1.948288     -0.807369
  H      -1.993714      1.846281      1.465423
  H      -2.276561      2.992187      0.145251
  H      -0.441222      3.843705      1.676970
  H       0.490644      2.357058      1.384579
  H       0.213304      3.502865      0.057329
  H       0.859343     -0.643855     -1.726109
  H       1.140241     -2.404074     -1.814226
  H       2.549327      1.214057     -0.595639
  H       2.820610     -2.192980      0.077380
  H       3.294621     -1.342842     -1.412557
>
26
-5532.59680190; 31P isotropic shielding: 7.875632 ppm
  C      -3.330887     -1.942670     -0.446926
  C      -2.627994     -2.490484      0.789731
  O      -1.891724     -1.474930      1.543327
  P      -0.556938     -0.657562      1.064753
  Se      2.890829      0.134008      0.351123
  Se     -1.285234      0.940072     -0.547178
  C      -0.419247      2.454007      0.452309
  C      -1.300217      3.012621      1.567049
  O       0.079795     -1.868692      0.092701
  C       0.974500     -1.684590     -1.016638
  C       2.433590     -1.569646     -0.594594
  H      -2.614195     -1.625714     -1.213445
  H      -3.971309     -1.089851     -0.195390
  H      -3.957565     -2.734260     -0.881584
  H      -3.354765     -2.877923      1.513283
  H      -1.933182     -3.295841      0.523289
  H      -0.202687      3.203699     -0.316528
  H       0.531041      2.067339      0.834164
  H      -2.260481      3.371607      1.176480
  H      -1.509614      2.247668      2.324697
  H      -0.795270      3.855037      2.065071
  H       0.660682     -0.811377     -1.606485
  H       0.855876     -2.586524     -1.637294
  H       2.716739      0.979965     -0.857114
  H       2.695405     -2.357625      0.119931
  H       3.092252     -1.654932     -1.465432
>
26
-5532.59449439; 31P isotropic shielding: 5.577392 ppm
  C      -3.087057     -3.473793      0.067669
  C      -3.232735     -1.958512      0.101750
  O      -2.397912     -1.392801      1.165595
  P      -1.025313     -0.552206      0.920409
  Se      2.382380     -0.290017      1.482945
  Se     -1.607268      1.185330     -0.570286
  C      -1.089776      2.645770      0.714342
  C       0.293380      3.225848      0.430614
  O      -0.311515     -1.629724     -0.154483
  C       0.902817     -1.312216     -0.871122
  C       2.155125     -1.583039     -0.049144
  H      -3.768167     -3.896473     -0.684469
  H      -3.339377     -3.908506      1.042841
  H      -2.060335     -3.756835     -0.188380
  H      -2.955529     -1.506598     -0.859120
  H      -4.259332     -1.656521      0.342483
  H      -1.153607      2.208874      1.716976
  H      -1.882224      3.394973      0.617867
  H       0.511766      4.042591      1.136242
  H       1.070868      2.461008      0.541273
  H       0.353681      3.632729     -0.586693
  H       0.869209     -0.272384     -1.225707
  H       0.899544     -1.979188     -1.746068
  H       3.794862      0.026654      1.144119
  H       2.134399     -2.592609      0.371631
  H       3.043214     -1.473855     -0.678784
>
26
-5532.59481065; 31P isotropic shielding: -17.680916 ppm
  C      -2.892736     -1.928113      1.130227
  C      -2.107461     -1.505441     -0.108202
  O      -0.783532     -0.997278      0.214728
  P      -0.557095      0.412544      1.066469
  Se      1.893783     -2.676310      0.135272
  Se     -1.305906      1.938710     -0.576542
  C      -1.410351      3.453844      0.740245
  C      -0.059218      4.114642      1.007431
  O       1.077660      0.444082      0.983688
  C       1.846837      0.235655     -0.239194
  C       2.830554     -0.904664     -0.051152
  H      -3.843149     -2.387452      0.825917
  H      -3.121769     -1.068368      1.772201
  H      -2.325440     -2.660268      1.717962
  H      -1.915666     -2.362592     -0.764341
  H      -2.651403     -0.740741     -0.681445
  H      -1.853014      3.042060      1.654062
  H      -2.128712      4.151829      0.297717
  H       0.387534      4.492962      0.079704
  H      -0.181417      4.962081      1.699543
  H       0.647528      3.407843      1.458556
  H       2.396665      1.169272     -0.421932
  H       1.173751      0.054262     -1.084667
  H       3.165417     -3.439167      0.010968
  H       3.479081     -0.969431     -0.931077
  H       3.438959     -0.744663      0.843862
>
26
-5532.59608900; 31P isotropic shielding: -2.202459 ppm
  C      -4.424689     -2.445092      0.218184
  C      -3.044339     -1.942148     -0.173675
  O      -2.365248     -1.484414      1.036241
  P      -0.913541     -0.730651      1.052346
  Se      2.537057      0.038650      1.361465
  Se     -1.165827      1.074433     -0.475892
  C      -0.689597      2.462862      0.901039
  C       0.284414      3.497654      0.341611
  O      -0.098139     -1.845124      0.094698
  C       1.086819     -1.580820     -0.674050
  C       2.360428     -1.555067      0.162563
  H      -5.015980     -1.643436      0.677173
  H      -4.348481     -3.274154      0.932575
  H      -4.957732     -2.803692     -0.673004
  H      -2.440035     -2.731807     -0.636571
  H      -3.109460     -1.092297     -0.869649
  H      -0.261297      1.915062      1.746994
  H      -1.629714      2.922716      1.219875
  H       1.223503      3.028133      0.025174
  H      -0.137908      4.023901     -0.523736
  H       0.519151      4.249921      1.109712
  H       0.963392     -0.643128     -1.234980
  H       1.154036     -2.411374     -1.393735
  H       2.687302      1.002155      0.242216
  H       2.397248     -2.413546      0.842129
  H       3.243636     -1.583435     -0.484404
>
26
-5532.59663324; 31P isotropic shielding: -1.013419 ppm
  C      -2.696130     -1.247025      1.527510
  C      -2.005077     -1.049836      0.180877
  O      -0.583088     -0.782429      0.319866
  P      -0.010970      0.634301      0.977995
  Se      1.733211     -2.926729      0.118186
  Se     -0.674126      2.139505     -0.723746
  C      -0.860858      3.677579      0.559984
  C      -2.200882      3.689796      1.291177
  O       1.576670      0.350271      0.708002
  C       2.127767     -0.099006     -0.566669
  C       2.921586     -1.377665     -0.372053
  H      -3.743184     -1.538353      1.367340
  H      -2.687564     -0.324084      2.120847
  H      -2.199880     -2.036046      2.105681
  H      -2.052504     -1.963603     -0.423198
  H      -2.465558     -0.228971     -0.387738
  H      -0.723911      4.567433     -0.063394
  H      -0.015179      3.617763      1.253091
  H      -2.318855      2.794183      1.913334
  H      -2.268792      4.570038      1.948902
  H      -3.038849      3.724247      0.584279
  H       2.795668      0.700931     -0.914722
  H       1.325231     -0.232748     -1.301146
  H       2.828992     -3.915431     -0.070191
  H       3.424825     -1.636269     -1.309542
  H       3.663858     -1.253051      0.421928
>
26
-5532.59556101; 31P isotropic shielding: -2.119628 ppm
  C      -2.889272     -1.705682      2.114898
  C      -2.954950     -1.382814      0.624243
  O      -1.725767     -1.740658     -0.071697
  P      -0.429994     -0.722618      0.067486
  Se      2.654192      0.106159      1.208550
  Se     -0.978330      1.012216     -1.428530
  C      -0.389253      2.479334     -0.184015
  C      -1.383571      2.757499      0.940604
  O       0.523378     -1.724875     -0.853478
  C       1.834196     -1.293526     -1.283973
  C       2.878422     -1.345760     -0.176378
  H      -2.655672     -2.766054      2.270810
  H      -3.858156     -1.489970      2.586278
  H      -2.122214     -1.104631      2.618876
  H      -3.732523     -1.974101      0.126584
  H      -3.177553     -0.319622      0.449252
  H      -0.263205      3.346405     -0.841488
  H       0.595143      2.190943      0.196816
  H      -1.034054      3.599569      1.557930
  H      -2.374930      3.011155      0.545149
  H      -1.491714      1.884764      1.596349
  H       1.770698     -0.291500     -1.732557
  H       2.113638     -2.009960     -2.069331
  H       4.078963      0.536059      1.135386
  H       2.842680     -2.306704      0.345050
  H       3.876149     -1.205529     -0.602714
>
26
-5532.59151823; 31P isotropic shielding: -40.094530 ppm
  C      -4.215446     -2.025150      0.995217
  C      -3.327040     -2.014696     -0.246369
  O      -1.909056     -1.923741      0.071378
  P      -1.277394     -0.586708      0.835631
  Se      3.457726     -0.133252      0.498926
  Se     -1.592228      1.000305     -0.897284
  C      -1.282037      2.555968      0.338925
  C       0.195312      2.880917      0.549032
  O       0.298561     -1.015447      0.767809
  C       0.985531     -1.465843     -0.440837
  C       2.025743     -0.442942     -0.862151
  H      -5.259822     -2.195459      0.700360
  H      -4.166106     -1.069051      1.530881
  H      -3.913758     -2.825559      1.682260
  H      -3.421192     -2.954544     -0.803479
  H      -3.595342     -1.183811     -0.914818
  H      -1.784054      2.305526      1.280178
  H      -1.823392      3.386499     -0.125868
  H       0.300734      3.764207      1.197394
  H       0.726215      2.049102      1.025672
  H       0.696242      3.097978     -0.402349
  H       0.251472     -1.612027     -1.244466
  H       1.443164     -2.431657     -0.197635
  H       2.501978      0.171293      1.590214
  H       2.564720     -0.805705     -1.745881
  H       1.556472      0.513897     -1.102039
>
26
-5532.59726938; 31P isotropic shielding: -1.276998 ppm
  C      -3.449007     -2.053634     -0.657616
  C      -2.740465     -2.792081      0.471839
  O      -2.138603     -1.898173      1.462276
  P      -0.842779     -0.920733      1.254519
  Se      2.609207      0.116059      1.058519
  Se     -1.610498      0.893881     -0.088074
  C      -0.741396      2.295353      1.064391
  C       0.054606      3.302645      0.237012
  O      -0.049338     -1.885358      0.132047
  C       0.914794     -1.432049     -0.832861
  C       2.327032     -1.357849     -0.266836
  H      -2.740564     -1.510892     -1.294575
  H      -4.183036     -1.339834     -0.266795
  H      -3.974388     -2.783794     -1.289389
  H      -3.450752     -3.389544      1.055248
  H      -1.959811     -3.455072      0.080978
  H      -0.103411      1.754114      1.771087
  H      -1.548898      2.779966      1.621579
  H       0.856490      2.809123     -0.325255
  H      -0.584753      3.828827     -0.482965
  H       0.511346      4.057637      0.894900
  H       0.595824     -0.465413     -1.248462
  H       0.894704     -2.182082     -1.639025
  H       2.641453      1.185506      0.029731
  H       2.574734     -2.273438      0.280895
  H       3.058409     -1.224766     -1.070966
