42
-3876.68835340; 31P isotropic shielding: 99.913054 ppm
  C       3.288334     -2.110374     -1.105656
  C       1.941764     -1.406413     -1.329424
  P       1.769006      0.154519     -0.380081
  Se      2.108611      0.020398      1.701551
  S      -0.116042      0.998923     -0.954330
  C      -1.264232      0.132369      0.254537
  C      -1.333919     -1.362017      0.000769
  C      -0.899548     -2.245024      0.999342
  C      -0.922915     -3.628361      0.787728
  C      -1.383584     -4.144074     -0.426307
  C      -1.825672     -3.267478     -1.426373
  C      -1.800114     -1.888703     -1.213785
  C      -2.616266      0.822133      0.220125
  C      -3.277560      1.053971      1.435611
  C      -4.546131      1.640170      1.459195
  C      -5.170551      2.009367      0.263352
  C      -4.515547      1.789828     -0.952967
  C      -3.249071      1.199238     -0.974440
  O       2.781346      1.107475     -1.233957
  C       3.420404      2.295663     -0.658866
  C       2.512476      3.517038     -0.700623
  H       4.125894     -1.478634     -1.423867
  H       3.320954     -3.041010     -1.686977
  H       3.427953     -2.358361     -0.047414
  H       1.791118     -1.133053     -2.382577
  H       1.101173     -2.041309     -1.028024
  H      -0.806601      0.298266      1.235623
  H      -0.515340     -1.844397      1.934334
  H      -0.573498     -4.299279      1.570786
  H      -1.398596     -5.219429     -0.595590
  H      -2.187696     -3.660928     -2.375005
  H      -2.128399     -1.217815     -2.003767
  H      -2.793175      0.770834      2.369310
  H      -5.043251      1.813809      2.412211
  H      -6.156626      2.470330      0.279264
  H      -4.989755      2.081987     -1.888597
  H      -2.746091      1.045956     -1.926935
  H       3.727803      2.058100      0.367660
  H       4.314667      2.435014     -1.276781
  H       1.640752      3.384662     -0.050884
  H       2.161855      3.712874     -1.721456
  H       3.073670      4.395336     -0.352217
>
42
-3876.68844518; 31P isotropic shielding: 96.392264 ppm
  C       1.887252     -1.490163     -2.620676
  C       2.039719     -1.508194     -1.093244
  P       1.832711      0.117109     -0.261726
  Se      2.099819      0.079923      1.833482
  S      -0.024869      0.959267     -0.930943
  C      -1.214467      0.117842      0.251580
  C      -1.254631     -1.384336      0.039892
  C      -0.897259     -2.232311      1.097324
  C      -0.895355     -3.621526      0.927588
  C      -1.252537     -4.177843     -0.303469
  C      -1.617560     -3.336126     -1.362607
  C      -1.618560     -1.951554     -1.190991
  C      -2.572882      0.787169      0.138673
  C      -3.281560      1.059086      1.318573
  C      -4.556917      1.628876      1.271767
  C      -5.140520      1.941455      0.039758
  C      -4.438155      1.681724     -1.141768
  C      -3.165052      1.107241     -1.092781
  O       2.876112      1.020189     -1.130320
  C       3.507510      2.231222     -0.594085
  C       2.598054      3.448843     -0.682219
  H       0.890686     -1.140442     -2.910924
  H       2.020939     -2.505348     -3.016002
  H       2.632326     -0.836976     -3.088095
  H       1.311143     -2.177673     -0.622826
  H       3.039468     -1.846232     -0.787026
  H      -0.805413      0.319008      1.247237
  H      -0.589582     -1.800304      2.046747
  H      -0.604366     -4.265392      1.755898
  H      -1.245877     -5.257873     -0.440242
  H      -1.897925     -3.761329     -2.325052
  H      -1.885838     -1.307111     -2.024753
  H      -2.828641      0.820854      2.280172
  H      -5.091146      1.834390      2.197989
  H      -6.131703      2.389890      0.000572
  H      -4.880493      1.929857     -2.105291
  H      -2.625100      0.922712     -2.019052
  H       3.809812      2.030393      0.441634
  H       4.404222      2.350494     -1.212475
  H       1.724393      3.338090     -0.031198
  H       2.251208      3.609031     -1.710505
  H       3.157334      4.339068     -0.362116
>
42
-3876.68844190; 31P isotropic shielding: 99.630253 ppm
  C       3.427092     -1.980220     -1.025287
  C       2.050991     -1.353461     -1.294445
  P       1.761410      0.201265     -0.363881
  Se      2.000248      0.074673      1.733777
  S      -0.139821      0.947748     -1.018434
  C      -1.273859      0.048075      0.192866
  C      -1.330742     -1.432176     -0.102071
  C      -1.600523     -1.932148     -1.386524
  C      -1.626480     -3.307605     -1.623238
  C      -1.371161     -4.206970     -0.579981
  C      -1.093198     -3.718289      0.699562
  C      -1.074201     -2.339247      0.935424
  C      -2.596052      0.798859      0.206912
  C      -2.633681      2.074812      0.797698
  C      -3.821265      2.804133      0.848257
  C      -4.997440      2.269636      0.306310
  C      -4.971143      1.000505     -0.276107
  C      -3.778497      0.268394     -0.325380
  O       2.773252      1.196062     -1.168499
  C       3.327837      2.412586     -0.566183
  C       2.370631      3.592570     -0.662436
  H       4.236795     -1.304161     -1.323769
  H       3.528706     -2.910737     -1.598670
  H       3.548983     -2.214012      0.038353
  H       1.916552     -1.099265     -2.354696
  H       1.236620     -2.030295     -1.010877
  H      -0.777710      0.193938      1.159989
  H      -1.760489     -1.237409     -2.208388
  H      -1.835344     -3.679686     -2.625093
  H      -1.380695     -5.279369     -0.767430
  H      -0.880563     -4.408117      1.514558
  H      -0.835921     -1.960148      1.927049
  H      -1.719264      2.494065      1.214866
  H      -3.831879      3.788954      1.312628
  H      -5.925668      2.837224      0.344078
  H      -5.881434      0.571718     -0.692348
  H      -3.778731     -0.724910     -0.765139
  H       3.589903      2.191198      0.476429
  H       4.246848      2.590260     -1.136081
  H       2.874145      4.496437     -0.291988
  H       1.473364      3.424598     -0.057283
  H       2.064384      3.768017     -1.701029
>
42
-3876.68930685; 31P isotropic shielding: 95.378679 ppm
  C       2.058250     -1.446969     -2.577682
  C       2.121673     -1.452190     -1.043712
  P       1.818387      0.171155     -0.238934
  Se      2.001300      0.155029      1.866804
  S      -0.056471      0.914544     -0.974812
  C      -1.228669      0.038814      0.216244
  C      -1.251327     -1.450288     -0.036450
  C      -1.024183     -2.323407      1.036381
  C      -1.005196     -3.708339      0.838183
  C      -1.215653     -4.236967     -0.438531
  C      -1.444415     -3.371681     -1.516199
  C      -1.457042     -1.990333     -1.316482
  C      -2.560524      0.769500      0.149662
  C      -2.638951      2.065823      0.690440
  C      -3.837322      2.778734      0.666968
  C      -4.983734      2.206670      0.099990
  C      -4.917122      0.917197     -0.432611
  C      -3.713561      0.201820     -0.407999
  O       2.858637      1.108009     -1.074646
  C       3.409091      2.354830     -0.532189
  C       2.461096      3.532435     -0.713173
  H       2.816639     -0.781768     -3.004825
  H       1.074260     -1.119569     -2.930956
  H       2.235222     -2.461518     -2.957488
  H       1.383193     -2.137250     -0.611504
  H       3.110039     -1.763379     -0.678171
  H      -0.778498      0.221370      1.199498
  H      -0.836335     -1.912589      2.026261
  H      -0.814654     -4.371411      1.680390
  H      -1.194039     -5.313921     -0.596509
  H      -1.602345     -3.774818     -2.515329
  H      -1.599769     -1.321379     -2.162435
  H      -1.747612      2.513414      1.127696
  H      -3.879592      3.779696      1.093483
  H      -5.920386      2.761224      0.080250
  H      -5.804506      0.459523     -0.867181
  H      -3.682889     -0.806956     -0.809901
  H       3.650686      2.192113      0.525954
  H       4.339163      2.494596     -1.094516
  H       1.551806      3.402525     -0.116703
  H       2.175670      3.650841     -1.765688
  H       2.962784      4.453069     -0.383879
>
42
-3876.68930305; 31P isotropic shielding: 99.050609 ppm
  C       1.946840     -2.427522     -1.225116
  C       2.639002     -1.078266     -1.453354
  P       1.954815      0.295743     -0.444880
  Se      2.096575      0.058550      1.651107
  S      -0.015286      0.685218     -1.209944
  C      -1.126343     -0.015273      0.132736
  C      -1.318522     -1.513010     -0.000226
  C      -0.903654     -2.347217      1.046821
  C      -1.056638     -3.734997      0.956921
  C      -1.628155     -4.305145     -0.183238
  C      -2.050685     -3.477236     -1.231715
  C      -1.897712     -2.093279     -1.139319
  C      -2.426207      0.767674      0.154853
  C      -3.140925      1.091713     -1.008730
  C      -4.356626      1.776024     -0.930278
  C      -4.879100      2.144323      0.314341
  C      -4.172244      1.829313      1.479133
  C      -2.953889      1.148615      1.397587
  O       2.802266      1.518950     -1.111530
  C       3.017256      2.798106     -0.425797
  C       1.859658      3.767253     -0.625097
  H       2.444019     -3.202498     -1.822042
  H       0.893932     -2.393428     -1.522163
  H       1.994611     -2.721920     -0.171304
  H       3.704518     -1.122045     -1.189297
  H       2.563598     -0.754308     -2.500674
  H      -0.578090      0.184090      1.060276
  H      -0.436886     -1.906761      1.924884
  H      -0.721492     -4.368743      1.776501
  H      -1.744355     -5.385056     -0.257986
  H      -2.498031     -3.912750     -2.123923
  H      -2.217115     -1.463091     -1.966105
  H      -2.741317      0.823609     -1.984717
  H      -4.895282      2.024646     -1.843339
  H      -5.826207      2.677592      0.374854
  H      -4.565577      2.117762      2.452621
  H      -2.404569      0.907673      2.306763
  H       3.193383      2.592207      0.637864
  H       3.942480      3.179810     -0.872136
  H       1.645466      3.910077     -1.691334
  H       2.128762      4.740662     -0.191628
  H       0.949223      3.409136     -0.133890
>
42
-3876.68761765; 31P isotropic shielding: 96.124582 ppm
  C       3.990641     -1.331107     -0.721143
  C       3.431961      0.001686     -1.237767
  P       1.878791      0.531236     -0.412748
  Se      1.903992      0.643416      1.702507
  S       0.488797     -0.891192     -1.218930
  C      -0.877704     -0.817760      0.065808
  C      -1.641992     -2.127817     -0.024824
  C      -1.085653     -3.270606      0.575697
  C      -1.742869     -4.499652      0.514706
  C      -2.969944     -4.606967     -0.152287
  C      -3.531201     -3.475175     -0.749540
  C      -2.872197     -2.242075     -0.685752
  C      -1.703877      0.444611     -0.045355
  C      -2.046938      1.123736      1.132738
  C      -2.810696      2.293988      1.086163
  C      -3.246188      2.798747     -0.143225
  C      -2.909431      2.126202     -1.323594
  C      -2.138695      0.962131     -1.274436
  O       1.658683      1.943345     -1.189996
  C       0.736958      2.976488     -0.697317
  C       1.528048      4.234734     -0.379535
  H       4.935345     -1.560895     -1.230224
  H       3.291726     -2.154501     -0.907011
  H       4.180974     -1.281566      0.356961
  H       4.135339      0.827024     -1.064673
  H       3.221876     -0.031903     -2.316400
  H      -0.333503     -0.793607      1.018474
  H      -0.127976     -3.188026      1.088097
  H      -1.300714     -5.374120      0.989513
  H      -3.485095     -5.564868     -0.200112
  H      -4.488022     -3.547593     -1.264312
  H      -3.326882     -1.365872     -1.140269
  H      -1.693943      0.742110      2.088946
  H      -3.057759      2.814663      2.009935
  H      -3.837602      3.711975     -0.182535
  H      -3.238362      2.515365     -2.286059
  H      -1.847162      0.465273     -2.197220
  H       0.006678      3.133800     -1.498214
  H       0.213162      2.605113      0.189225
  H       2.093681      4.576132     -1.255603
  H       2.227360      4.049635      0.444345
  H       0.839394      5.036293     -0.078337
>
42
-3876.69053851; 31P isotropic shielding: 101.095785 ppm
  C       3.403844     -2.018116     -1.063297
  C       2.013096     -1.416686     -1.314444
  P       1.741145      0.179894     -0.452211
  Se      2.049603      0.157756      1.640123
  S      -0.187218      0.880437     -1.077975
  C      -1.273999      0.038592      0.215230
  C      -1.332087     -1.455440     -0.000312
  C      -1.047577     -2.306320      1.076818
  C      -1.068808     -3.695803      0.914338
  C      -1.377414     -4.251538     -0.330336
  C      -1.661278     -3.408777     -1.412590
  C      -1.633054     -2.022676     -1.249322
  C      -2.599385      0.782942      0.234365
  C      -2.627254      2.084754      0.765721
  C      -3.817045      2.810625      0.816484
  C      -5.005112      2.246451      0.334246
  C      -4.988362      0.951489     -0.189045
  C      -3.793657      0.223071     -0.238474
  O       2.717453      1.140877     -1.337966
  C       3.275696      2.392163     -0.814256
  C       2.304812      3.557220     -0.947895
  H       3.493551     -2.976561     -1.590855
  H       3.566131     -2.195259      0.005872
  H       4.195845     -1.352497     -1.425794
  H       1.838381     -1.217681     -2.380602
  H       1.216036     -2.085159     -0.968630
  H      -0.747326      0.237034      1.156584
  H      -0.786467     -1.874976      2.040986
  H      -0.833983     -4.341456      1.758895
  H      -1.388768     -5.332315     -0.460894
  H      -1.894549     -3.833495     -2.387776
  H      -1.815835     -1.372602     -2.102361
  H      -1.703597      2.527127      1.136110
  H      -3.819847      3.816022      1.234572
  H      -5.934995      2.811286      0.372387
  H      -5.907770      0.499883     -0.558448
  H      -3.800757     -0.789618     -0.631526
  H       3.566100      2.227936      0.231332
  H       4.178250      2.547616     -1.416032
  H       1.971979      3.675782     -1.986351
  H       2.808257      4.483426     -0.637356
  H       1.423965      3.413394     -0.313215
>
42
-3876.68940497; 31P isotropic shielding: 95.389290 ppm
  C       3.995229     -1.503946     -0.776854
  C       3.529788     -0.099346     -1.183485
  P       2.013889      0.459421     -0.311985
  Se      2.027296      0.364660      1.804566
  S       0.514590     -0.742085     -1.265819
  C      -0.820797     -0.795173      0.059953
  C      -1.532932     -2.133743     -0.043319
  C      -0.818686     -3.299147      0.288771
  C      -1.431603     -4.550693      0.239024
  C      -2.773974     -4.661346     -0.146387
  C      -3.493242     -3.509128     -0.471457
  C      -2.877907     -2.252372     -0.419093
  C      -1.682737      0.444465      0.010784
  C      -2.282867      0.894326     -1.176570
  C      -3.058492      2.055254     -1.186737
  C      -3.238310      2.791708     -0.008785
  C      -2.641764      2.353137      1.176687
  C      -1.870914      1.185725      1.185119
  O       1.922017      1.956417     -0.943862
  C       0.853301      2.883886     -0.557445
  C       1.274142      4.277745     -0.990187
  H       4.187745     -1.554471      0.300695
  H       4.921635     -1.757696     -1.307676
  H       3.240494     -2.258707     -1.025860
  H       4.288713      0.660657     -0.955253
  H       3.313343     -0.033866     -2.259365
  H      -0.243800     -0.781506      0.994928
  H       0.225855     -3.215680      0.584870
  H      -0.864236     -5.441593      0.503937
  H      -3.253466     -5.638022     -0.185762
  H      -4.539610     -3.582710     -0.763796
  H      -3.455495     -1.363114     -0.655653
  H      -2.117673      0.346386     -2.102200
  H      -3.515014      2.392584     -2.116022
  H      -3.836212      3.701541     -0.018298
  H      -2.768697      2.923169      2.095721
  H      -1.390344      0.856658      2.104348
  H      -0.069671      2.565686     -1.055767
  H       0.710822      2.820592      0.528104
  H       1.445839      4.319963     -2.072972
  H       2.192545      4.585921     -0.476052
  H       0.479199      4.992842     -0.739349
>
42
-3876.69048440; 31P isotropic shielding: 102.392881 ppm
  C       2.160289     -2.554052     -0.833579
  C       2.753549     -1.195012     -1.225667
  P       1.947243      0.234582     -0.401475
  Se      1.997721      0.217399      1.713155
  S      -0.009721      0.429517     -1.268108
  C      -1.123692     -0.235163      0.098892
  C      -1.305146     -1.730787      0.004601
  C      -1.640144     -2.377570     -1.195647
  C      -1.799230     -3.764195     -1.236832
  C      -1.616947     -4.528610     -0.077635
  C      -1.276461     -3.893965      1.120265
  C      -1.123071     -2.504205      1.159483
  C      -2.390007      0.605744      0.101656
  C      -3.619338      0.133516     -0.375880
  C      -4.754272      0.953538     -0.348954
  C      -4.675146      2.251846      0.159885
  C      -3.451193      2.728245      0.648725
  C      -2.320903      1.912374      0.617108
  O       2.756670      1.431400     -1.157550
  C       2.853908      2.789177     -0.610737
  C       1.684879      3.667476     -1.036053
  H       2.719693     -3.357203     -1.329859
  H       1.110766     -2.637809     -1.132573
  H       2.220781     -2.710789      0.249095
  H       3.814377     -1.124373     -0.948873
  H       2.673200     -1.011339     -2.306015
  H      -0.556244     -0.007278      1.010353
  H      -1.748308     -1.793621     -2.107618
  H      -2.056000     -4.250971     -2.176468
  H      -1.731531     -5.610704     -0.111977
  H      -1.121191     -4.479968      2.024713
  H      -0.842343     -2.014034      2.089974
  H      -3.699786     -0.880702     -0.757077
  H      -5.702355      0.570734     -0.723611
  H      -5.558688      2.887533      0.181987
  H      -3.380633      3.735587      1.056226
  H      -1.368582      2.284240      0.992822
  H       2.931004      2.715868      0.481774
  H       3.803594      3.164678     -1.008465
  H       1.865670      4.696460     -0.694976
  H       0.743023      3.317492     -0.601644
  H       1.578766      3.678343     -2.127741
>
42
-3876.68907278; 31P isotropic shielding: 92.530353 ppm
  C       2.125868     -2.512468     -0.938040
  C       2.676129     -1.122570     -1.283017
  P       1.917532      0.238285     -0.311771
  Se      2.035803      0.041317      1.789563
  S      -0.059817      0.569189     -1.082782
  C      -1.148059     -0.186417      0.256930
  C      -1.313112     -1.675161      0.068623
  C      -1.083689     -2.521972      1.161783
  C      -1.214539     -3.908416      1.030642
  C      -1.579978     -4.465565     -0.197913
  C      -1.810649     -3.627175     -1.295736
  C      -1.673291     -2.244026     -1.163488
  C      -2.422908      0.638871      0.328035
  C      -3.659159      0.172899     -0.138225
  C      -4.802960      0.975059     -0.042688
  C      -4.726076      2.249617      0.523331
  C      -3.495316      2.719501      1.000730
  C      -2.356322      1.921197      0.901776
  O       2.711746      1.483920     -0.999789
  C       2.506807      2.857971     -0.524331
  C       2.039538      3.723219     -1.684164
  H       2.660439     -3.274754     -1.518887
  H       1.059654     -2.594484     -1.171272
  H       2.260127     -2.733138      0.126637
  H       3.753378     -1.055626     -1.077318
  H       2.517980     -0.871196     -2.340571
  H      -0.569007     -0.010153      1.172463
  H      -0.781066     -2.091205      2.114246
  H      -1.021382     -4.552229      1.887189
  H      -1.676720     -5.544764     -0.303739
  H      -2.087517     -4.053191     -2.258859
  H      -1.818373     -1.601032     -2.029413
  H      -3.738088     -0.823841     -0.563074
  H      -5.756199      0.596685     -0.408624
  H      -5.616528      2.871392      0.598936
  H      -3.426060      3.707709      1.452832
  H      -1.399006      2.288633      1.268672
  H       1.783994      2.854777      0.300709
  H       3.475031      3.188200     -0.129124
  H       2.754945      3.681874     -2.514751
  H       1.953045      4.767920     -1.354839
  H       1.059303      3.391148     -2.045585
>
42
-3876.68932743; 31P isotropic shielding: 92.107879 ppm
  C       2.104016     -2.452134     -0.957422
  C       2.641664     -1.072787     -1.359894
  P       1.915655      0.316339     -0.403812
  Se      2.117656      0.185363      1.697281
  S      -0.091898      0.617412     -1.104298
  C      -1.122424     -0.112944      0.294196
  C      -1.296161     -1.604774      0.142161
  C      -1.029510     -2.429248      1.243977
  C      -1.169608     -3.817583      1.147356
  C      -1.581666     -4.399293     -0.054848
  C      -1.848731     -3.583480     -1.161366
  C      -1.702174     -2.198368     -1.063719
  C      -2.392948      0.714352      0.404057
  C      -3.644211      0.249700     -0.021665
  C      -4.782516      1.054961      0.106863
  C      -4.684833      2.331213      0.665945
  C      -3.438604      2.799883      1.102704
  C      -2.305101      1.998531      0.970697
  O       2.679794      1.540856     -1.159902
  C       2.514258      2.927982     -0.707274
  C       1.907418      3.758135     -1.827869
  H       2.626682     -3.231456     -1.526344
  H       1.032826     -2.543575     -1.162514
  H       2.264196     -2.638358      0.110220
  H       3.724926     -0.999999     -1.191083
  H       2.449257     -0.852207     -2.418656
  H      -0.505287      0.080801      1.180716
  H      -0.691285     -1.979740      2.175668
  H      -0.947386     -4.443790      2.009893
  H      -1.685996     -5.480081     -0.133901
  H      -2.161602     -4.028647     -2.104608
  H      -1.875561     -1.573400     -1.937584
  H      -3.738514     -0.748231     -0.440624
  H      -5.747737      0.677757     -0.227525
  H      -5.571038      2.955336      0.767748
  H      -3.353001      3.789424      1.549080
  H      -1.335641      2.364496      1.305934
  H       1.894496      2.943922      0.197710
  H       3.519374      3.274945     -0.439123
  H       1.854208      4.811442     -1.519365
  H       0.893623      3.413557     -2.061843
  H       2.520384      3.695986     -2.735565
>
42
-3876.68934682; 31P isotropic shielding: 91.450751 ppm
  C       3.489272     -1.923994     -0.855235
  C       3.366265     -0.445692     -1.245693
  P       1.983548      0.429985     -0.409055
  Se      1.969319      0.366123      1.708538
  S       0.285845     -0.472108     -1.365343
  C      -0.963733     -0.609832      0.034910
  C      -1.577892     -1.997663     -0.022780
  C      -0.815119     -3.082134      0.446006
  C      -1.326421     -4.379126      0.416135
  C      -2.612082     -4.615838     -0.088434
  C      -3.378340     -3.543509     -0.551516
  C      -2.866047     -2.240873     -0.516627
  C      -1.927520      0.552713      0.045782
  C      -2.580882      1.007698     -1.110035
  C      -3.468399      2.083856     -1.048667
  C      -3.712398      2.726920      0.170920
  C      -3.061762      2.284733      1.326506
  C      -2.175783      1.204345      1.262554
  O       2.202165      1.898863     -1.078270
  C       1.692163      3.140408     -0.488814
  C       0.253960      3.421712     -0.897010
  H       3.638306     -2.030928      0.225351
  H       4.347937     -2.374560     -1.369086
  H       2.589448     -2.483152     -1.135685
  H       4.267429      0.120468     -0.975713
  H       3.207941     -0.320905     -2.326582
  H      -0.333926     -0.548778      0.932619
  H       0.185869     -2.897670      0.833451
  H      -0.724744     -5.206923      0.788325
  H      -3.012848     -5.627791     -0.113643
  H      -4.381556     -3.716416     -0.938159
  H      -3.480156     -1.413711     -0.862348
  H      -2.369460      0.536083     -2.067747
  H      -3.963355      2.428351     -1.955328
  H      -4.397856      3.571491      0.216623
  H      -3.236127      2.784877      2.277816
  H      -1.656696      0.871581      2.159754
  H       1.800638      3.074722      0.601705
  H       2.377207      3.908028     -0.866944
  H      -0.438148      2.697272     -0.460191
  H       0.143818      3.396916     -1.987834
  H      -0.032981      4.421056     -0.541658
>
42
-3876.68948684; 31P isotropic shielding: 97.511626 ppm
  C       3.448380     -1.982681     -0.942930
  C       3.338420     -0.495339     -1.301581
  P       1.980665      0.380925     -0.425815
  Se      1.998787      0.274152      1.690311
  S       0.255575     -0.479064     -1.371920
  C      -0.972201     -0.629759      0.047016
  C      -1.605152     -2.008317     -0.027239
  C      -2.910889     -2.223323     -0.486924
  C      -3.441058     -3.518334     -0.538032
  C      -2.675200     -4.611171     -0.125322
  C      -1.371850     -4.402933      0.345504
  C      -0.842973     -3.113599      0.391561
  C      -1.919228      0.545342      0.096822
  C      -2.590757      1.026795     -1.037741
  C      -3.460725      2.114644     -0.941367
  C      -3.668606      2.742997      0.292492
  C      -2.999694      2.274347      1.426986
  C      -2.131377      1.182290      1.328068
  O       2.207726      1.859828     -1.069452
  C       1.721241      3.094973     -0.447028
  C       0.284293      3.407097     -0.837020
  H       4.294846     -2.432848     -1.476961
  H       2.538269     -2.525168     -1.222993
  H       3.609957     -2.113596      0.133208
  H       4.251020      0.053792     -1.034748
  H       3.164815     -0.346581     -2.377068
  H      -0.325275     -0.594152      0.933926
  H      -3.524414     -1.380297     -0.792923
  H      -4.457746     -3.669070     -0.897830
  H      -3.089646     -5.617214     -0.163159
  H      -0.770156     -5.247116      0.678843
  H       0.171380     -2.951274      0.753210
  H      -2.407226      0.566285     -2.006552
  H      -3.970138      2.479709     -1.831831
  H      -4.340311      3.596662      0.365443
  H      -3.145964      2.762730      2.389085
  H      -1.597899      0.828838      2.208736
  H       1.837063      3.002201      0.640724
  H       2.414744      3.860987     -0.812777
  H       0.165756      3.411207     -1.927259
  H       0.014967      4.401406     -0.454768
  H      -0.415219      2.682228     -0.412896
>
42
-3876.68995981; 31P isotropic shielding: 97.303437 ppm
  C       3.851451     -1.569846     -1.004819
  C       3.369577     -0.156600     -1.358135
  P       1.917425      0.398059     -0.378722
  Se      2.079166      0.288291      1.728641
  S       0.362360     -0.814342     -1.231042
  C      -0.876881     -0.894314      0.178998
  C      -1.651898     -2.191731      0.019212
  C      -2.965836     -2.235280     -0.465427
  C      -3.633092     -3.458729     -0.598720
  C      -2.996758     -4.651679     -0.246956
  C      -1.685478     -4.615779      0.245052
  C      -1.020580     -3.396612      0.374987
  C      -1.701323      0.368563      0.282821
  C      -1.894929      0.940941      1.548214
  C      -2.643821      2.112958      1.694806
  C      -3.212527      2.726786      0.574556
  C      -3.026297      2.160722     -0.692321
  C      -2.272663      0.993970     -0.836507
  O       1.762474      1.891029     -1.006556
  C       0.845654      2.875129     -0.414441
  C       0.343013      3.773429     -1.531047
  H       4.742439     -1.818623     -1.595175
  H       3.078590     -2.317123     -1.217949
  H       4.109123     -1.638437      0.058166
  H       4.146058      0.594755     -1.162070
  H       3.087791     -0.071847     -2.417390
  H      -0.241888     -0.970466      1.071320
  H      -3.479006     -1.313652     -0.726387
  H      -4.654766     -3.475470     -0.975081
  H      -3.517617     -5.602211     -0.348988
  H      -1.183169     -5.539001      0.529629
  H       0.001542     -3.369526      0.750316
  H      -1.434324      0.477031      2.418191
  H      -2.773291      2.550497      2.683327
  H      -3.790534      3.642700      0.685432
  H      -3.459340      2.636055     -1.571051
  H      -2.100468      0.578837     -1.827222
  H       0.021011      2.357133      0.083104
  H       1.410939      3.431631      0.343197
  H      -0.232925      3.194942     -2.262639
  H       1.177454      4.264909     -2.046766
  H      -0.312257      4.547900     -1.110860
>
42
-3876.69031440; 31P isotropic shielding: 102.912452 ppm
  C       2.116380     -2.417898     -1.090159
  C       2.734818     -1.023825     -1.258823
  P       1.940890      0.268180     -0.224616
  Se      1.964938     -0.089286      1.859587
  S      -0.000133      0.669307     -1.053994
  C      -1.149295     -0.170602      0.181943
  C      -1.326749     -1.637733     -0.124863
  C      -1.150142     -2.567694      0.908882
  C      -1.296790     -3.937928      0.669634
  C      -1.624883     -4.395501     -0.609525
  C      -1.802169     -3.473748     -1.648759
  C      -1.649215     -2.106940     -1.408271
  C      -2.414950      0.666648      0.270508
  C      -2.355629      1.893993      0.954711
  C      -3.486310      2.701436      1.072748
  C      -4.701166      2.296179      0.504297
  C      -4.771147      1.075819     -0.171475
  C      -3.635875      0.264295     -0.286476
  O       2.773848      1.555547     -0.777245
  C       2.598927      2.881535     -0.169538
  C       2.062549      3.852364     -1.210299
  H       2.688114     -3.148530     -1.676059
  H       1.078804     -2.440970     -1.437381
  H       2.131860     -2.729904     -0.040106
  H       3.793226     -1.015569     -0.964293
  H       2.670057     -0.671008     -2.297174
  H      -0.602753     -0.071919      1.128445
  H      -0.876968     -2.214341      1.901281
  H      -1.145290     -4.646999      1.481899
  H      -1.733599     -5.461942     -0.799594
  H      -2.049911     -3.821786     -2.650390
  H      -1.752803     -1.398644     -2.227986
  H      -1.410352      2.211307      1.392767
  H      -3.422953      3.646115      1.610611
  H      -5.585113      2.925240      0.594679
  H      -5.712678      0.747078     -0.608744
  H      -3.711279     -0.691661     -0.797074
  H       1.932137      2.798158      0.697439
  H       3.592115      3.175465      0.190605
  H       1.061505      3.553091     -1.541407
  H       2.726067      3.897532     -2.082709
  H       1.997320      4.859239     -0.774873
>
42
-3876.68929650; 31P isotropic shielding: 90.975098 ppm
  C       3.845964     -1.572548     -1.038159
  C       3.342575     -0.175042     -1.422747
  P       1.904338      0.393770     -0.431134
  Se      2.109869      0.349100      1.674299
  S       0.346149     -0.861138     -1.215127
  C      -0.865901     -0.902023      0.219027
  C      -1.636852     -2.207900      0.118635
  C      -2.965934     -2.272008     -0.320247
  C      -3.629989     -3.502174     -0.396252
  C      -2.975161     -4.681317     -0.032471
  C      -1.648297     -4.624725      0.413923
  C      -0.986753     -3.399113      0.486907
  C      -1.695253      0.359711      0.295684
  C      -2.291265      0.943334     -0.833227
  C      -3.046356      2.112029     -0.715031
  C      -3.209771      2.721489      0.534700
  C      -2.617356      2.148762      1.664427
  C      -1.866883      0.974817      1.544092
  O       1.719488      1.865167     -1.100698
  C       0.818762      2.865719     -0.511876
  C       0.295154      3.739849     -1.637800
  H       4.127693     -1.606736      0.020379
  H       4.726040     -1.830990     -1.640610
  H       3.075906     -2.332946     -1.211207
  H       4.114847      0.589374     -1.264282
  H       3.038916     -0.124136     -2.478139
  H      -0.214394     -0.945172      1.101673
  H      -3.493073     -1.360808     -0.589944
  H      -4.663499     -3.534579     -0.737633
  H      -3.493432     -5.636990     -0.090072
  H      -1.131210     -5.536935      0.707427
  H       0.047028     -3.356378      0.827109
  H      -2.136439      0.494619     -1.812101
  H      -3.498340      2.555017     -1.601094
  H      -3.788075      3.639427      0.624994
  H      -2.729372      2.620294      2.639355
  H      -1.387875      0.542725      2.420473
  H       0.003367      2.362437      0.015066
  H       1.401851      3.437356      0.220653
  H       1.119689      4.216642     -2.182468
  H      -0.348804      4.525815     -1.221507
  H      -0.298152      3.147105     -2.343695
>
42
-3876.69033654; 31P isotropic shielding: 102.928712 ppm
  C       3.563240     -0.282927     -2.448767
  C       3.506539     -0.144961     -0.917249
  P       1.902552      0.435716     -0.236367
  Se      1.803638      0.648021      1.868734
  S       0.549392     -1.018744     -1.053865
  C      -0.897974     -0.852468      0.130506
  C      -1.681864     -2.151871      0.046542
  C      -1.191251     -3.275981      0.733384
  C      -1.868574     -4.494552      0.682125
  C      -3.049948     -4.610003     -0.061635
  C      -3.545760     -3.496689     -0.745281
  C      -2.866753     -2.274025     -0.691374
  C      -1.689282      0.416077     -0.099932
  C      -2.105641      1.154883      1.016944
  C      -2.846319      2.330371      0.860066
  C      -3.184017      2.780808     -0.420189
  C      -2.772531      2.049025     -1.540170
  C      -2.025435      0.879508     -1.380469
  O       1.737915      1.813128     -1.087716
  C       0.816511      2.884417     -0.687471
  C       1.619700      4.127225     -0.339706
  H       3.327612      0.667162     -2.939755
  H       2.859929     -1.041388     -2.812060
  H       4.572100     -0.588944     -2.754453
  H       3.713723     -1.097285     -0.414240
  H       4.241242      0.585930     -0.553613
  H      -0.422147     -0.791312      1.117126
  H      -0.267888     -3.187396      1.304392
  H      -1.477661     -5.354366      1.223913
  H      -3.580484     -5.559803     -0.102435
  H      -4.466849     -3.575429     -1.320754
  H      -3.271115     -1.411592     -1.214463
  H      -1.828584      0.815024      2.013107
  H      -3.151650      2.897374      1.737982
  H      -3.757169      3.697981     -0.545169
  H      -3.024988      2.395801     -2.541170
  H      -1.676394      0.334636     -2.254852
  H       0.153305      3.042905     -1.544456
  H       0.215897      2.551459      0.164980
  H       0.935397      4.955381     -0.108611
  H       2.258574      4.430630     -1.178669
  H       2.250209      3.942376      0.537991
>
42
-3876.68934198; 31P isotropic shielding: 106.944256 ppm
  C       2.123592     -2.396462     -1.072891
  C       2.739489     -1.000563     -1.236813
  P       1.943857      0.284857     -0.195556
  Se      1.956901     -0.088884      1.885618
  S       0.009822      0.698654     -1.032970
  C      -1.150255     -0.143032      0.191559
  C      -1.322100     -1.609019     -0.123209
  C      -1.651367     -2.069694     -1.408134
  C      -1.795832     -3.435412     -1.659211
  C      -1.603574     -4.364625     -0.629084
  C      -1.269420     -3.915457      0.651428
  C      -1.131131     -2.546119      0.901350
  C      -2.417870      0.693190      0.271109
  C      -2.354113      1.942939      0.913457
  C      -3.488128      2.745931      1.028353
  C      -4.711530      2.313917      0.498879
  C      -4.785993      1.071656     -0.134845
  C      -3.647056      0.264437     -0.246547
  O       2.782186      1.574685     -0.733203
  C       2.569350      2.903886     -0.146275
  C       2.140954      3.871769     -1.238095
  H       1.083536     -2.418236     -1.412685
  H       2.146962     -2.715107     -0.025038
  H       2.691658     -3.122488     -1.668048
  H       3.798291     -0.991688     -0.943603
  H       2.672671     -0.644130     -2.273741
  H      -0.612160     -0.048017      1.143471
  H      -1.767612     -1.354974     -2.220594
  H      -2.048593     -3.776877     -2.661850
  H      -1.706128     -5.430199     -0.827329
  H      -1.106551     -4.630257      1.456439
  H      -0.852006     -2.199203      1.894304
  H      -1.402758      2.281354      1.321282
  H      -3.420887      3.708166      1.533656
  H      -5.598099      2.939618      0.586832
  H      -5.733613      0.722069     -0.541743
  H      -3.725352     -0.708016     -0.724395
  H       1.822704      2.833231      0.654177
  H       3.527085      3.190814      0.304312
  H       2.045559      4.882766     -0.818310
  H       1.172474      3.578076     -1.659237
  H       2.882637      3.903143     -2.045824
>
42
-3876.68925348; 31P isotropic shielding: 91.740983 ppm
  C       3.830779     -1.774289     -0.834147
  C       3.500697     -0.323316     -1.207308
  P       2.061840      0.367120     -0.298008
  Se      2.117403      0.227089      1.814346
  S       0.444258     -0.678797     -1.247785
  C      -0.823647     -0.830880      0.127742
  C      -1.567393     -2.146162     -0.001513
  C      -1.909463     -2.829896      1.175251
  C      -2.639908     -4.020259      1.124060
  C      -3.037750     -4.547151     -0.109094
  C      -2.695687     -3.876529     -1.287887
  C      -1.966973     -2.684921     -1.233789
  C      -1.732679      0.382982      0.175259
  C      -2.698152      0.623775     -0.814818
  C      -3.508750      1.758223     -0.755890
  C      -3.370525      2.669934      0.298470
  C      -2.418624      2.432582      1.293468
  C      -1.605846      1.295304      1.232589
  O       2.102833      1.871227     -0.916899
  C       1.218447      2.941578     -0.438760
  C       0.103096      3.198691     -1.440635
  H       2.993043     -2.442833     -1.063314
  H       4.053818     -1.860662      0.235190
  H       4.707370     -2.113665     -1.400436
  H       4.334092      0.353535     -0.976676
  H       3.275368     -0.216989     -2.278107
  H      -0.217565     -0.853324      1.041724
  H      -1.598982     -2.424275      2.137255
  H      -2.892749     -4.538821      2.047487
  H      -3.603793     -5.476031     -0.151778
  H      -2.992769     -4.283223     -2.253287
  H      -1.695064     -2.183070     -2.160617
  H      -2.817194     -0.077797     -1.637401
  H      -4.251661      1.932170     -1.532764
  H      -4.003756      3.554385      0.344202
  H      -2.305892      3.131421      2.121072
  H      -0.856642      1.117636      2.001245
  H       0.830511      2.670141      0.550007
  H       1.871274      3.815050     -0.324426
  H      -0.542365      2.322590     -1.548176
  H       0.516246      3.457195     -2.423575
  H      -0.515249      4.036262     -1.091276
>
42
-3876.68822699; 31P isotropic shielding: 100.249838 ppm
  C       3.853405     -1.766994     -0.832909
  C       3.536505     -0.295085     -1.127501
  P       2.076956      0.345437     -0.215053
  Se      2.074672      0.077859      1.885212
  S       0.480197     -0.634917     -1.265412
  C      -0.831078     -0.827640      0.061493
  C      -1.589257     -2.125597     -0.141451
  C      -1.982187     -2.844475      0.998018
  C      -2.729267     -4.019514      0.879847
  C      -3.092956     -4.495659     -0.384154
  C      -2.700048     -3.789819     -1.525975
  C      -1.954761     -2.613434     -1.404879
  C      -1.727440      0.394589      0.131916
  C      -1.652324      1.238055      1.249440
  C      -2.457950      2.378974      1.336419
  C      -3.351127      2.687882      0.307246
  C      -3.437841      1.844675     -0.808086
  C      -2.634270      0.707104     -0.892983
  O       2.134771      1.883873     -0.740615
  C       1.216204      2.912444     -0.233836
  C       0.198879      3.281127     -1.302038
  H       3.021606     -2.418003     -1.125381
  H       4.045692     -1.917961      0.235247
  H       4.745316     -2.074888     -1.393256
  H       4.365345      0.363348     -0.835363
  H       3.339027     -0.123969     -2.195388
  H      -0.255314     -0.896330      0.992762
  H      -1.698363     -2.478200      1.983733
  H      -3.021482     -4.565921      1.775172
  H      -3.671706     -5.412774     -0.479022
  H      -2.970322     -4.157207     -2.514718
  H      -1.643531     -2.083594     -2.303328
  H      -0.949026      1.003274      2.045912
  H      -2.386275      3.023940      2.210993
  H      -3.978904      3.574939      0.373027
  H      -4.134962      2.074929     -1.612261
  H      -2.711970      0.059162     -1.763213
  H       0.737491      2.546606      0.681374
  H       1.857304      3.762092      0.029712
  H       0.700453      3.641342     -2.208922
  H      -0.454982      4.078635     -0.924827
  H      -0.427977      2.423293     -1.562554
