37
-937.69982739; 31P isotropic shielding: 348.098044 ppm
  C       3.285106      0.394985      0.471772
  C       2.392736     -0.804018      0.855067
  C       2.037132     -1.746855     -0.311960
  C       0.694175     -2.476384     -0.088032
  N      -0.428453     -1.548984     -0.137292
  C      -0.920960     -1.159734     -1.447926
  N      -1.428262      0.215252     -1.534592
  C      -0.420921      1.250649     -1.324377
  N       0.192029      1.268425      0.011119
  C       1.380045      2.126499      0.088334
  C       2.648917      1.445636     -0.466408
  C      -0.765215      1.447660      1.097523
  P      -2.211374      0.233700      1.147116
  C      -1.365410     -1.454925      0.956537
  C      -2.612746      0.410542     -0.686925
  H       4.210756      0.024622      0.002209
  H       3.598746      0.907028      1.395771
  H       2.902022     -1.385091      1.639669
  H       1.462414     -0.425903      1.291068
  H       2.838288     -2.486904     -0.465548
  H       1.963107     -1.179200     -1.249925
  H       0.698650     -2.960976      0.898784
  H       0.580154     -3.293149     -0.828785
  H      -1.753056     -1.815168     -1.788208
  H      -0.100680     -1.266491     -2.167583
  H      -0.906581      2.226618     -1.554250
  H       0.379475      1.103240     -2.059475
  H       1.213965      3.094461     -0.433792
  H       1.545394      2.378546      1.145792
  H       3.398024      2.227525     -0.664419
  H       2.424180      0.997507     -1.444438
  H      -1.244742      2.455720      1.093341
  H      -0.233043      1.364631      2.055527
  H      -2.214504     -2.176539      0.884946
  H      -0.850527     -1.674391      1.900503
  H      -3.031220      1.409584     -0.870211
  H      -3.379822     -0.326117     -0.962130
>
37
-937.70608921; 31P isotropic shielding: 334.689570 ppm
  C       2.707517      0.118834     -0.425105
  C       3.153014     -1.243520      0.142386
  C       2.041923     -2.103244      0.786367
  C       0.831157     -2.363885     -0.133328
  N      -0.101903     -1.230126     -0.157315
  C      -0.735111     -0.991703     -1.463503
  N      -1.466071      0.266249     -1.575243
  C      -0.657908      1.491008     -1.437565
  N      -0.062134      1.688216     -0.131834
  C       1.286279      2.205126      0.040239
  C       2.261837      1.155655      0.623669
  C      -0.948117      1.696606      1.008173
  P      -2.171340      0.256247      1.126705
  C      -1.038127     -1.238585      0.963250
  C      -2.644749      0.297762     -0.698106
  H       1.887338     -0.045736     -1.131784
  H       3.538522      0.544208     -1.009340
  H       3.604220     -1.828546     -0.675166
  H       3.955221     -1.089218      0.881923
  H       1.688594     -1.640346      1.718805
  H       2.480435     -3.069282      1.079237
  H       0.316605     -3.298865      0.172475
  H       1.190467     -2.535391     -1.159601
  H      -1.453488     -1.800124     -1.727368
  H       0.062662     -0.998144     -2.218916
  H      -1.347111      2.319423     -1.712500
  H       0.146269      1.464755     -2.182326
  H       1.659361      2.548415     -0.937097
  H       1.270530      3.099640      0.689911
  H       1.759125      0.659311      1.465294
  H       3.144062      1.663993      1.044304
  H      -1.585211      2.610287      1.055642
  H      -0.356317      1.687080      1.932564
  H      -1.721579     -2.121233      0.930728
  H      -0.476377     -1.325441      1.903078
  H      -3.224402      1.208785     -0.901221
  H      -3.290191     -0.562510     -0.922731
>
37
-937.70545491; 31P isotropic shielding: 344.337574 ppm
  C       3.270947      0.399345      0.598054
  C       2.364177     -0.833478      0.848383
  C       1.934579     -1.564782     -0.437517
  C       0.673405     -2.443915     -0.274501
  N      -0.588147     -1.721053     -0.224343
  C      -1.222124     -1.289131     -1.453701
  N      -1.625899      0.126490     -1.516835
  C      -0.534032      1.088365     -1.520260
  N       0.285724      1.120810     -0.295125
  C       1.462919      1.983572     -0.453766
  C       2.558875      1.769227      0.604440
  C      -0.492539      1.418638      0.907027
  P      -1.973296      0.307179      1.246466
  C      -1.278676     -1.450964      1.011786
  C      -2.648981      0.439534     -0.509481
  H       3.800368      0.270214     -0.359780
  H       4.054898      0.439040      1.368327
  H       2.893438     -1.552651      1.492076
  H       1.476204     -0.520273      1.408080
  H       2.765533     -2.201036     -0.784515
  H       1.744996     -0.837586     -1.236416
  H       0.761747     -3.050535      0.640154
  H       0.636570     -3.166504     -1.108673
  H      -2.153760     -1.861995     -1.643294
  H      -0.533894     -1.485639     -2.284241
  H      -0.980805      2.086894     -1.729878
  H       0.138854      0.845454     -2.354436
  H       1.887044      1.776575     -1.448720
  H       1.173752      3.059582     -0.454654
  H       2.148582      1.958372      1.607492
  H       3.313744      2.554766      0.446607
  H      -0.903523      2.456817      0.892152
  H       0.158819      1.363893      1.786631
  H      -2.181220     -2.090530      1.143461
  H      -0.621100     -1.667176      1.861508
  H      -3.020548      1.460653     -0.671812
  H      -3.498334     -0.246572     -0.630600
>
37
-937.70391177; 31P isotropic shielding: 347.108190 ppm
  C       2.398869      0.198978      1.008251
  C       2.656121     -0.848240     -0.095221
  C       2.070066     -2.238128      0.266306
  C       0.708849     -2.517465     -0.415038
  N      -0.240822     -1.416690     -0.290654
  C      -1.069855     -1.145195     -1.464850
  N      -1.664768      0.190028     -1.489893
  C      -0.697022      1.290087     -1.530796
  N       0.134471      1.415920     -0.337847
  C       1.420843      2.076619     -0.502866
  C       2.452699      1.678730      0.583186
  C      -0.603176      1.646463      0.887523
  P      -1.884060      0.308627      1.287454
  C      -0.940906     -1.308060      0.979232
  C      -2.664220      0.364157     -0.426717
  H       3.123882      0.041729      1.822172
  H       1.414042      0.003244      1.441061
  H       2.204967     -0.513127     -1.038210
  H       3.738294     -0.927896     -0.275335
  H       1.971471     -2.322814      1.359272
  H       2.754708     -3.045205     -0.033353
  H       0.295903     -3.478798     -0.040388
  H       0.894148     -2.660824     -1.489791
  H      -1.915459     -1.863412     -1.560598
  H      -0.434027     -1.258914     -2.352753
  H      -1.284901      2.214375     -1.727876
  H      -0.029974      1.129673     -2.388382
  H       1.799371      1.773857     -1.489551
  H       1.345668      3.187145     -0.528470
  H       2.301848      2.300601      1.478071
  H       3.453239      1.940063      0.205696
  H      -1.181253      2.601980      0.881413
  H       0.086281      1.714850      1.735291
  H      -1.712110     -2.104624      1.110857
  H      -0.230532     -1.436133      1.805333
  H      -3.173398      1.329283     -0.556984
  H      -3.423059     -0.425685     -0.510847
>
37
-937.70393847; 31P isotropic shielding: 338.418405 ppm
  C       2.641745      0.038434     -0.468349
  C       2.363422     -0.674083      0.868486
  C       1.974910     -2.163244      0.731515
  C       0.831137     -2.430435     -0.285088
  N      -0.212140     -1.413623     -0.260263
  C      -0.788230     -1.012772     -1.538442
  N      -1.376563      0.329235     -1.541376
  C      -0.437956      1.422324     -1.264988
  N       0.132681      1.416179      0.081471
  C       1.357030      2.184364      0.283900
  C       2.601388      1.582467     -0.423335
  C      -0.842684      1.484791      1.154594
  P      -2.159918      0.132715      1.128637
  C      -1.127498     -1.432854      0.864821
  C      -2.573175      0.390113     -0.691692
  H       1.899761     -0.290240     -1.200949
  H       3.620363     -0.276919     -0.863223
  H       3.241319     -0.593515      1.528446
  H       1.539834     -0.162324      1.374273
  H       1.689247     -2.541773      1.724179
  H       2.841717     -2.766837      0.419423
  H       0.434982     -3.455329     -0.121138
  H       1.251834     -2.430030     -1.299429
  H      -1.593283     -1.700747     -1.880910
  H       0.012782     -1.043521     -2.288755
  H      -0.988501      2.367973     -1.471045
  H       0.385015      1.357647     -1.986589
  H       1.253117      3.251879     -0.012605
  H       1.538876      2.192636      1.366473
  H       3.489793      1.977840      0.092679
  H       2.666296      1.957892     -1.455189
  H      -1.414722      2.443530      1.178188
  H      -0.318693      1.416739      2.117770
  H      -1.872776     -2.261346      0.802459
  H      -0.564665     -1.599512      1.792889
  H      -3.059144      1.368791     -0.809296
  H      -3.288101     -0.376447     -1.019943
>
37
-937.70380443; 31P isotropic shielding: 333.849873 ppm
  C       2.451475      0.118699      1.226402
  C       2.998716     -0.966516      0.272419
  C       2.031004     -1.589443     -0.757199
  C       0.794836     -2.322643     -0.153944
  N      -0.420902     -1.527256     -0.119921
  C      -1.120714     -1.282698     -1.365429
  N      -1.640828      0.084535     -1.529999
  C      -0.601040      1.113094     -1.570209
  N       0.182207      1.231660     -0.340481
  C       1.485494      1.862178     -0.485255
  C       2.429629      1.570165      0.700449
  C      -0.604428      1.600789      0.825426
  P      -2.010806      0.403394      1.230191
  C      -1.158182     -1.296430      1.095480
  C      -2.681232      0.384211     -0.535186
  H       3.085656      0.121750      2.125816
  H       1.448674     -0.163100      1.568086
  H       3.873634     -0.562360     -0.262592
  H       3.388359     -1.792035      0.889465
  H       2.609096     -2.317994     -1.346637
  H       1.680988     -0.832203     -1.467843
  H       1.022324     -2.641119      0.873069
  H       0.630316     -3.259318     -0.723550
  H      -1.998129     -1.955340     -1.483304
  H      -0.433257     -1.487732     -2.194527
  H      -1.105989      2.069319     -1.834972
  H       0.094022      0.869227     -2.385110
  H       1.927893      1.465362     -1.411008
  H       1.423713      2.966541     -0.620740
  H       2.172441      2.233310      1.539665
  H       3.445918      1.864797      0.396163
  H      -1.085396      2.603237      0.723566
  H       0.040062      1.660154      1.708626
  H      -1.991564     -2.020850      1.252788
  H      -0.490753     -1.400663      1.960202
  H      -3.123196      1.365940     -0.755342
  H      -3.481841     -0.364064     -0.614565
>
37
-937.70080995; 31P isotropic shielding: 348.129886 ppm
  C       2.750890      0.182483     -0.340391
  C       3.148392     -1.258454      0.071360
  C       2.167719     -2.359974     -0.382046
  C       0.795478     -2.379409      0.312775
  N      -0.030461     -1.177018      0.126385
  C      -0.508898     -1.030902     -1.264413
  N      -1.265746      0.179331     -1.548698
  C      -0.534989      1.455864     -1.419915
  N      -0.124451      1.827834     -0.081546
  C       1.243776      2.190804      0.255633
  C       2.132459      1.038001      0.783189
  C      -1.129077      1.817035      0.956625
  P      -2.296114      0.323053      1.037514
  C      -1.118478     -1.139436      1.109642
  C      -2.544749      0.220024     -0.828180
  H       2.053376      0.124729     -1.184314
  H       3.635226      0.712565     -0.725112
  H       4.132110     -1.500431     -0.356317
  H       3.276198     -1.310266      1.164484
  H       2.625325     -3.342451     -0.188479
  H       2.045410     -2.305313     -1.474131
  H       0.959449     -2.489622      1.395062
  H       0.243063     -3.292024     -0.010411
  H      -1.155588     -1.892941     -1.545971
  H       0.364453     -1.048999     -1.925505
  H      -1.223871      2.212924     -1.848740
  H       0.354904      1.415520     -2.057511
  H       1.717663      2.640695     -0.632330
  H       1.206553      2.993154      1.010363
  H       1.521395      0.409068      1.441178
  H       2.941829      1.460531      1.400354
  H      -1.824882      2.681900      0.876880
  H      -0.645646      1.901565      1.937670
  H      -1.775996     -2.038635      1.038605
  H      -0.678443     -1.163284      2.116820
  H      -3.124881      1.088943     -1.167846
  H      -3.127398     -0.680966     -1.064584
>
37
-937.70229366; 31P isotropic shielding: 342.363748 ppm
  C       2.856915      0.112035     -0.750402
  C       3.017883     -0.865592      0.433886
  C       1.721619     -1.433259      1.053631
  C       0.813691     -2.220940      0.049459
  N      -0.489916     -1.652154     -0.256691
  C      -0.826490     -1.080691     -1.544690
  N      -1.303198      0.319576     -1.554831
  C      -0.309886      1.320463     -1.179805
  N       0.206616      1.165448      0.185077
  C       1.415279      1.924822      0.495154
  C       2.616981      1.599763     -0.414815
  C      -0.822152      1.294545      1.214349
  P      -2.304589      0.142831      1.052346
  C      -1.481951     -1.554312      0.788601
  C      -2.550241      0.468372     -0.791480
  H       2.056519     -0.247480     -1.409231
  H       3.774495      0.071145     -1.356418
  H       3.619049     -1.719971      0.084102
  H       3.618919     -0.387753      1.224482
  H       1.129802     -0.632908      1.502087
  H       2.015073     -2.111085      1.868900
  H       0.671875     -3.242903      0.445080
  H       1.345606     -2.348192     -0.903518
  H      -1.646387     -1.654306     -2.021705
  H       0.052832     -1.151223     -2.195600
  H      -0.779422      2.319113     -1.328639
  H       0.530947      1.247785     -1.877094
  H       1.240423      3.024736      0.474097
  H       1.676968      1.682128      1.535837
  H       3.511962      2.008241      0.078954
  H       2.526353      2.152737     -1.361476
  H      -1.244735      2.325525      1.264625
  H      -0.363870      1.105770      2.195991
  H      -2.344667     -2.231703      0.607544
  H      -1.044419     -1.861956      1.745613
  H      -2.942669      1.485166     -0.929624
  H      -3.301412     -0.231571     -1.183194
>
37
-937.69943264; 31P isotropic shielding: 344.429493 ppm
  C       2.749005      0.237585     -0.597944
  C       2.570080     -0.804857      0.527539
  C       2.126067     -2.184335     -0.034340
  C       0.647662     -2.534336      0.272930
  N      -0.281807     -1.429601      0.056415
  C      -0.576052     -1.084726     -1.337991
  N      -1.159251      0.247452     -1.544086
  C      -0.288343      1.379596     -1.198491
  N       0.142661      1.377172      0.194998
  C       1.338099      2.132826      0.550766
  C       2.616479      1.729402     -0.228854
  C      -0.946741      1.485550      1.154526
  P      -2.363062      0.248151      0.969287
  C      -1.436977     -1.394168      0.936919
  C      -2.475973      0.375737     -0.906533
  H       2.019164      0.015179     -1.382390
  H       3.732063      0.088332     -1.071351
  H       3.510073     -0.906203      1.088858
  H       1.806581     -0.456192      1.231741
  H       2.737910     -2.997684      0.381518
  H       2.301418     -2.212040     -1.120037
  H       0.575826     -2.795670      1.337969
  H       0.364069     -3.452780     -0.288163
  H      -1.290109     -1.808975     -1.790515
  H       0.356318     -1.145840     -1.909439
  H      -0.856523      2.299069     -1.464387
  H       0.596233      1.353023     -1.841566
  H       1.200508      3.234185      0.451952
  H       1.503378      1.948952      1.622117
  H       3.476190      2.051077      0.378223
  H       2.680071      2.311701     -1.160178
  H      -1.433456      2.489400      1.143350
  H      -0.541340      1.353226      2.168023
  H      -2.212137     -2.158024      0.685289
  H      -1.111221     -1.611567      1.963050
  H      -2.921010      1.339878     -1.186373
  H      -3.142152     -0.416496     -1.275932
>
37
-937.69982984; 31P isotropic shielding: 327.646096 ppm
  C       3.291262      0.268938     -0.046048
  C       3.037849     -1.040573      0.734284
  C       1.561855     -1.449216      0.900675
  C       0.874238     -1.758983     -0.436391
  N      -0.605461     -1.770831     -0.430735
  C      -1.254578     -1.190599     -1.604036
  N      -1.667755      0.229473     -1.543876
  C      -0.596151      1.208487     -1.479615
  N       0.230672      1.152688     -0.254401
  C       1.399755      2.039206     -0.315433
  C       2.604468      1.546691      0.510847
  C      -0.552973      1.344514      0.968786
  P      -2.015899      0.185009      1.223278
  C      -1.346151     -1.565612      0.802533
  C      -2.694316      0.459552     -0.517110
  H       2.996982      0.136840     -1.097112
  H       4.378816      0.428845     -0.064391
  H       3.592561     -1.853410      0.238890
  H       3.480941     -0.941237      1.737476
  H       1.034063     -0.643015      1.414955
  H       1.511607     -2.326121      1.563335
  H       1.236069     -2.741379     -0.792057
  H       1.207589     -1.015907     -1.168502
  H      -2.180752     -1.752926     -1.806691
  H      -0.586759     -1.314109     -2.464617
  H      -1.063759      2.211177     -1.598518
  H       0.076853      1.048722     -2.333223
  H       1.713753      2.106181     -1.368049
  H       1.132981      3.071576     -0.002742
  H       2.305740      1.394532      1.558659
  H       3.332505      2.370582      0.531800
  H      -0.988978      2.370133      1.017398
  H       0.106467      1.257285      1.841155
  H      -2.278843     -2.157753      0.763058
  H      -0.784183     -1.943232      1.659656
  H      -3.074020      1.486892     -0.604986
  H      -3.538048     -0.222622     -0.688951
>
37
-937.70093556; 31P isotropic shielding: 350.143371 ppm
  C       3.178550      0.322253      0.708850
  C       3.204269     -1.092673      0.084639
  C       1.873563     -1.552375     -0.540102
  C       0.751601     -1.697655      0.491604
  N      -0.619077     -1.798586     -0.058115
  C      -0.955646     -1.289400     -1.387578
  N      -1.354403      0.131098     -1.540645
  C      -0.321464      1.127565     -1.315808
  N       0.213376      1.181859      0.060482
  C       1.359012      2.098619      0.171366
  C       2.708137      1.468501     -0.230940
  C      -0.821343      1.427315      1.071699
  P      -2.325916      0.286315      1.067061
  C      -1.639820     -1.500270      0.940284
  C      -2.584704      0.433721     -0.797000
  H       4.194426      0.542738      1.066203
  H       2.544561      0.315260      1.606141
  H       3.978203     -1.117801     -0.697907
  H       3.526290     -1.811787      0.854193
  H       2.023342     -2.502237     -1.074470
  H       1.592240     -0.816357     -1.297878
  H       0.809173     -0.847064      1.181952
  H       0.930912     -2.610539      1.085836
  H      -1.825225     -1.865636     -1.740477
  H      -0.129810     -1.489484     -2.073193
  H      -0.749380      2.113560     -1.603429
  H       0.516747      0.927725     -1.994493
  H       1.186784      3.023903     -0.419312
  H       1.431245      2.416528      1.220754
  H       3.451937      2.278494     -0.226900
  H       2.664757      1.118985     -1.272499
  H      -1.259557      2.448765      0.983400
  H      -0.359213      1.374038      2.066404
  H      -2.551133     -2.089546      0.735284
  H      -1.284571     -1.812101      1.929395
  H      -2.920212      1.450713     -1.042111
  H      -3.376551     -0.260845     -1.108591
>
37
-937.70113333; 31P isotropic shielding: 339.259248 ppm
  C       3.086873      0.265762      0.390422
  C       2.252827     -0.765929      1.205247
  C       1.864349     -2.029615      0.407938
  C       0.915287     -1.791448     -0.774038
  N      -0.531032     -1.745175     -0.474786
  C      -1.343284     -1.208179     -1.562689
  N      -1.744225      0.211777     -1.483751
  C      -0.664084      1.186948     -1.519242
  N       0.238896      1.176518     -0.346397
  C       1.418211      2.027047     -0.539429
  C       2.578446      1.723699      0.427946
  C      -0.472136      1.445993      0.902092
  P      -1.832479      0.213894      1.302904
  C      -1.068989     -1.492323      0.853554
  C      -2.675304      0.442014     -0.369736
  H       3.143801     -0.050636     -0.661833
  H       4.122193      0.251685      0.758961
  H       2.830722     -1.080737      2.086349
  H       1.350654     -0.289883      1.595856
  H       1.445426     -2.792592      1.080494
  H       2.784403     -2.474204     -0.001368
  H       1.054370     -2.613819     -1.495670
  H       1.233197     -0.867782     -1.281269
  H      -2.287043     -1.775177     -1.623793
  H      -0.797169     -1.358774     -2.501806
  H      -1.132684      2.188803     -1.640950
  H      -0.048927      0.993353     -2.408468
  H       1.774647      1.854864     -1.566790
  H       1.159295      3.107666     -0.472135
  H       2.306175      1.998423      1.457824
  H       3.400228      2.401393      0.151723
  H      -0.958781      2.449915      0.898897
  H       0.235881      1.455209      1.736849
  H      -1.930277     -2.165284      1.023090
  H      -0.336158     -1.747025      1.622030
  H      -3.075354      1.463936     -0.429649
  H      -3.521955     -0.251520     -0.459675
