14
-1455.00172491; 31P isotropic shielding: 223.919312 ppm
  C       2.819832      1.805173     -0.545373
  S       1.564361      1.141306      0.639641
  P       0.365422      0.048561     -0.722870
  C       0.338671     -1.662989      0.158079
  F       1.567468     -2.238796     -0.017352
  F      -0.586876     -2.475974     -0.430976
  F       0.083449     -1.647673      1.492599
  C      -1.374368      0.640233     -0.152192
  F      -2.339530     -0.158022     -0.695612
  F      -1.563659      1.906340     -0.631527
  F      -1.579892      0.678430      1.191306
  H       3.496546      2.409776      0.067830
  H       3.381440      0.993407     -1.014356
  H       2.347538      2.439627     -1.299597
>
14
-1455.00211593; 31P isotropic shielding: 203.442994 ppm
  C       2.717577      1.972165     -0.593929
  S       1.679275      1.016401      0.602138
  P       0.200529      0.306821     -0.737123
  C       0.214162     -1.561913     -0.276153
  F       0.201964     -1.851506      1.051890
  F       1.348870     -2.112970     -0.804652
  F      -0.855788     -2.189611     -0.846657
  C      -1.382871      0.785593      0.246850
  F      -1.377471      0.485216      1.572573
  F      -2.475769      0.185184     -0.309187
  F      -1.550482      2.138270      0.134774
  H       3.527088      2.396741      0.009287
  H       3.139474      1.313702     -1.357364
  H       2.141740      2.780806     -1.050947
>
14
-1455.00203396; 31P isotropic shielding: 203.533144 ppm
  C       2.705061      1.993181     -0.586353
  S       1.816451      0.816578      0.531338
  P       0.235238      0.252500     -0.758375
  C       0.147849     -1.616068     -0.309845
  F       0.208859     -1.913812      1.015823
  F       1.194910     -2.247515     -0.919384
  F      -1.005953     -2.155020     -0.802156
  C      -1.288439      0.817640      0.277803
  F      -1.285496      0.468960      1.590798
  F      -2.438820      0.333925     -0.276543
  F      -1.341621      2.184544      0.217157
  H       3.702093      2.111521     -0.149330
  H       2.799440      1.576765     -1.592521
  H       2.196527      2.960302     -0.613011
>
14
-1455.00186515; 31P isotropic shielding: 200.000835 ppm
  C       1.986219      1.710642      0.657429
  S       1.515157      1.203319     -1.058728
  P      -0.031871     -0.215623     -1.014967
  C       0.570183     -1.545820      0.242373
  F       1.678600     -2.149594     -0.274982
  F      -0.394848     -2.499662      0.392104
  F       0.897808     -1.104170      1.492421
  C      -1.389765      0.578511      0.098039
  F      -1.895808      1.663080     -0.556912
  F      -1.000174      1.001323      1.336463
  F      -2.407482     -0.314067      0.277752
  H       2.781855      2.448550      0.507360
  H       1.142774      2.172103      1.172691
  H       2.370254      0.859508      1.221858
