52
-1472.98077823; 31P isotropic shielding: 265.490496 ppm
  C      -0.092583      2.426235     -2.064311
  C       1.041853      3.140835     -1.320030
  N       2.264693      2.329721     -1.249686
  C       2.200758      1.157147     -0.368100
  C       2.253024     -0.097107     -1.240955
  P      -1.443767     -0.711591     -0.132153
  C      -1.021258      0.369034      1.300992
  C      -1.362794      1.734915      1.279729
  C      -0.894542      2.607539      2.264458
  C      -0.074293      2.134734      3.295190
  C       0.267076      0.779410      3.332148
  C      -0.199544     -0.093823      2.345217
  C      -3.173716     -0.169113     -0.497971
  C      -4.152543      0.001376      0.496890
  C      -5.453224      0.379157      0.158227
  C      -5.795979      0.593459     -1.183683
  C      -4.831412      0.429910     -2.181553
  C      -3.527722      0.052162     -1.837789
  C      -1.772559     -2.356191      0.705524
  C      -2.335573     -3.386535     -0.285966
  C       3.520863      3.086738     -1.179563
  C       3.726946      3.922756      0.101898
  I       2.381586     -1.938655     -0.008140
  H      -0.369821      1.487657     -1.570743
  H      -0.988404      3.060821     -2.102056
  H       0.212651      2.189677     -3.091786
  H       0.685194      3.441291     -0.315629
  H       1.296627      4.065670     -1.856315
  H       1.283121      1.161616      0.229407
  H       3.037858      1.150437      0.343355
  H       3.144002     -0.128083     -1.870381
  H       1.349108     -0.235971     -1.834741
  H      -1.996722      2.121042      0.484734
  H      -1.172082      3.659974      2.227210
  H       0.292481      2.815505      4.061472
  H       0.903430      0.397487      4.129198
  H       0.100165     -1.137158      2.381911
  H      -3.892093     -0.152180      1.542810
  H      -6.201801      0.507708      0.938957
  H      -6.810583      0.888565     -1.446731
  H      -5.090653      0.597666     -3.225864
  H      -2.774670     -0.072439     -2.614920
  H      -2.450282     -2.213586      1.558178
  H      -0.808683     -2.703691      1.097570
  H      -2.480021     -4.357473      0.206074
  H      -1.650991     -3.535274     -1.131222
  H      -3.304583     -3.066520     -0.688959
  H       3.566305      3.746735     -2.058432
  H       4.348477      2.371057     -1.287886
  H       4.708165      4.416734      0.082127
  H       2.960264      4.702206      0.197168
  H       3.684353      3.294715      1.001319
>
52
-1472.98244096; 31P isotropic shielding: 266.866875 ppm
  C       4.113764      3.115571     -1.390477
  C       2.810368      3.014716     -2.193322
  N       1.760629      2.268461     -1.489750
  C       2.040772      0.841184     -1.281403
  C       2.310386      0.606333      0.203983
  P      -1.365838     -0.592608     -0.279788
  C      -1.069428      0.156914      1.376868
  C      -1.252502      1.545392      1.531334
  C      -0.906855      2.188086      2.720411
  C      -0.362532      1.455590      3.783151
  C      -0.178804      0.077521      3.644742
  C      -0.530680     -0.567504      2.453746
  C      -3.095409     -0.028833     -0.614004
  C      -4.094561      0.004884      0.374535
  C      -5.395445      0.400591      0.056588
  C      -5.717746      0.768216     -1.256672
  C      -4.732447      0.740621     -2.247325
  C      -3.428105      0.346717     -1.924919
  C      -1.669855     -2.392361      0.141013
  C      -2.188986     -3.176652     -1.074810
  C       0.388929      2.564631     -1.929319
  C       0.032448      2.127090     -3.364631
  I       2.645625     -1.549291      0.592371
  H       4.566122      2.129262     -1.226080
  H       4.846757      3.725691     -1.935119
  H       3.929392      3.576872     -0.412028
  H       3.033933      2.575620     -3.188128
  H       2.422195      4.026653     -2.375571
  H       2.902505      0.510918     -1.881171
  H       1.183483      0.230154     -1.587828
  H       1.458586      0.870554      0.830084
  H       3.215456      1.098651      0.560677
  H      -1.673943      2.128137      0.714179
  H      -1.058699      3.262104      2.817434
  H      -0.085535      1.956271      4.709309
  H       0.243230     -0.502821      4.463824
  H      -0.366570     -1.637383      2.367707
  H      -3.849666     -0.270009      1.398996
  H      -6.159951      0.423299      0.832123
  H      -6.732274      1.077605     -1.503004
  H      -4.975544      1.028597     -3.269096
  H      -2.659112      0.331528     -2.695964
  H      -2.368510     -2.468317      0.985809
  H      -0.703928     -2.801690      0.464771
  H      -2.303477     -4.240114     -0.827123
  H      -1.493965     -3.101322     -1.921551
  H      -3.164757     -2.801374     -1.407119
  H       0.233824      3.648392     -1.823256
  H      -0.299347      2.077935     -1.227227
  H       0.154620      1.043529     -3.490496
  H      -1.015242      2.373248     -3.585232
  H       0.659990      2.632342     -4.109846
>
52
-1472.98285455; 31P isotropic shielding: 270.092996 ppm
  C       4.106770      2.149751     -2.797652
  C       2.827839      2.866553     -2.346949
  N       2.004000      2.052141     -1.446623
  C       1.418010      0.847744     -2.047263
  C       2.083501     -0.370973     -1.412449
  P      -0.714336     -0.441491      1.024998
  C      -1.059902      0.090521      2.760782
  C      -0.016764      0.693931      3.480663
  C      -0.204389      1.110315      4.804084
  C      -1.442056      0.921853      5.425135
  C      -2.491308      0.320039      4.717863
  C      -2.301111     -0.089606      3.396595
  C      -1.980783      0.503605      0.070681
  C      -2.566847      1.687632      0.551557
  C      -3.438135      2.431998     -0.250079
  C      -3.737020      2.011335     -1.549185
  C      -3.151876      0.839829     -2.043714
  C      -2.279067      0.097107     -1.245247
  C      -1.463870     -2.160634      1.007288
  C      -0.627388     -3.146103      1.837585
  C       1.089043      2.810476     -0.578751
  C      -0.042008      3.569429     -1.299951
  I       1.181655     -2.246452     -2.183593
  H       3.883415      1.255310     -3.393544
  H       4.713961      2.816500     -3.424609
  H       4.704276      1.843336     -1.929704
  H       2.261822      3.194015     -3.243807
  H       3.101650      3.778348     -1.797939
  H       1.557733      0.836522     -3.138179
  H       0.336758      0.808018     -1.869971
  H       1.902937     -0.416870     -0.338098
  H       3.145903     -0.452437     -1.645150
  H       0.950090      0.834103      2.998776
  H       0.615398      1.577037      5.348072
  H      -1.591389      1.240613      6.455548
  H      -3.457806      0.172165      5.197787
  H      -3.128424     -0.542362      2.853120
  H      -2.346646      2.031089      1.559369
  H      -3.883406      3.344493      0.144296
  H      -4.415378      2.591367     -2.172494
  H      -3.372189      0.503681     -3.055999
  H      -1.818009     -0.799735     -1.655385
  H      -1.481247     -2.474880     -0.043303
  H      -2.504094     -2.126584      1.357206
  H      -1.053079     -4.156906      1.783877
  H      -0.594191     -2.852248      2.894562
  H       0.404242     -3.195370      1.466018
  H       1.696525      3.518885      0.003925
  H       0.654110      2.103860      0.140133
  H      -0.687194      2.887812     -1.867225
  H      -0.676829      4.086074     -0.568816
  H       0.357205      4.323261     -1.991044
>
52
-1472.98323745; 31P isotropic shielding: 269.061420 ppm
  C       0.975856      3.062810      0.604009
  C       2.266245      3.210577     -0.209839
  N       2.252775      2.394533     -1.431482
  C       2.321450      0.942304     -1.231645
  C       1.142120      0.306671     -1.965734
  P      -0.424985     -0.539906      1.512749
  C      -1.106424      0.078104      3.118803
  C      -0.225875      0.694939      4.020505
  C      -0.676409      1.146477      5.267041
  C      -2.018686      0.988712      5.622331
  C      -2.908367      0.378177      4.728065
  C      -2.454750     -0.072969      3.487052
  C      -1.765190     -0.033845      0.351908
  C      -2.245367      1.289611      0.393499
  C      -3.160792      1.751682     -0.553269
  C      -3.613274      0.901051     -1.569532
  C      -3.145567     -0.414946     -1.622193
  C      -2.231448     -0.879595     -0.670379
  C      -0.745928     -2.376743      1.704612
  C       0.116228     -2.985951      2.821674
  C       3.091560      2.896952     -2.528598
  C       4.609330      2.943965     -2.250390
  I       1.283663     -1.902500     -1.916034
  H       0.841211      2.032224      0.953513
  H       1.004156      3.713864      1.488362
  H       0.106348      3.331562     -0.007556
  H       3.138381      2.978803      0.435510
  H       2.379841      4.257993     -0.523033
  H       2.258317      0.696830     -0.165492
  H       3.270498      0.519305     -1.598083
  H       1.127517      0.550331     -3.029429
  H       0.183433      0.545811     -1.505496
  H       0.819229      0.822227      3.741345
  H       0.019629      1.623224      5.955705
  H      -2.373399      1.341591      6.589473
  H      -3.956062      0.255557      4.999630
  H      -3.154887     -0.536464      2.794092
  H      -1.905100      1.960159      1.179822
  H      -3.522026      2.777739     -0.497982
  H      -4.324599      1.261595     -2.310705
  H      -3.491317     -1.087736     -2.405736
  H      -1.874342     -1.902816     -0.740232
  H      -0.491839     -2.839154      0.742851
  H      -1.814492     -2.551117      1.890986
  H      -0.045650     -4.070016      2.886541
  H      -0.128321     -2.550820      3.798679
  H       1.184617     -2.815360      2.634635
  H       2.737053      3.905721     -2.787220
  H       2.900701      2.268164     -3.409814
  H       5.006358      1.951382     -2.000844
  H       5.146705      3.304443     -3.138121
  H       4.842380      3.621846     -1.419553
>
52
-1472.98195542; 31P isotropic shielding: 268.763414 ppm
  C       0.649194      3.895295     -0.062890
  C       1.501475      2.625308      0.032088
  N       1.984376      2.152688     -1.272719
  C       2.210733      0.704853     -1.347849
  C       0.999275      0.092114     -2.048675
  P      -0.356099     -0.571939      1.447292
  C      -0.911183      0.247806      3.009790
  C       0.052513      0.901491      3.793251
  C      -0.301459      1.510958      5.003166
  C      -1.628537      1.475516      5.439699
  C      -2.600293      0.829427      4.663319
  C      -2.243401      0.221290      3.458340
  C      -1.715179     -0.086916      0.301781
  C      -2.082658      1.270491      0.214997
  C      -2.995578      1.707295     -0.745902
  C      -3.559540      0.795811     -1.647095
  C      -3.205710     -0.554224     -1.570368
  C      -2.292944     -0.992914     -0.605193
  C      -0.772905     -2.358266      1.827602
  C       0.094410     -2.907115      2.971862
  C       2.998386      2.984805     -1.933636
  C       4.374256      3.044418     -1.235895
  I       1.120044     -2.120486     -2.063656
  H       1.225843      4.753884     -0.430232
  H      -0.198122      3.735814     -0.741065
  H       0.260620      4.162640      0.929090
  H       0.898384      1.818693      0.464298
  H       2.335873      2.790165      0.744322
  H       2.338499      0.254433     -0.352555
  H       3.121172      0.485050     -1.919952
  H       0.935126      0.381818     -3.098976
  H       0.063614      0.310879     -1.535842
  H       1.086355      0.931013      3.450963
  H       0.457512      2.013894      5.600668
  H      -1.908355      1.950770      6.378572
  H      -3.636023      0.801857      4.999305
  H      -3.006233     -0.268613      2.855495
  H      -1.656673      1.991044      0.910111
  H      -3.267073      2.761007     -0.791717
  H      -4.267996      1.135768     -2.400535
  H      -3.638363     -1.272981     -2.264729
  H      -2.022519     -2.044465     -0.576722
  H      -0.579442     -2.924211      0.907239
  H      -1.842095     -2.454554      2.061974
  H      -0.123216     -3.969016      3.146412
  H      -0.091645     -2.367484      3.908793
  H       1.163269     -2.816331      2.737656
  H       2.596030      4.001494     -2.036990
  H       3.122649      2.602270     -2.956421
  H       4.814584      2.043617     -1.135419
  H       5.070580      3.661337     -1.820144
  H       4.301371      3.483903     -0.233109
>
52
-1472.98260601; 31P isotropic shielding: 268.908807 ppm
  C       0.158001      2.833598     -1.726863
  C       1.145842      3.250370     -0.615186
  N       2.456645      2.593348     -0.585123
  C       2.527287      1.260840      0.014217
  C       2.111640      0.125408     -0.930894
  P      -1.561476     -0.598655     -0.309767
  C      -1.216982      0.458137      1.161489
  C      -1.737048      1.764539      1.224279
  C      -1.386596      2.627370      2.264945
  C      -0.499178      2.206567      3.262475
  C       0.028991      0.913134      3.208786
  C      -0.325511      0.047199      2.169078
  C      -3.362241     -0.274803     -0.574817
  C      -4.303295     -0.294679      0.469780
  C      -5.658483     -0.084286      0.209186
  C      -6.094558      0.149916     -1.102152
  C      -5.168545      0.174900     -2.148280
  C      -3.809732     -0.035318     -1.882803
  C      -1.633968     -2.311113      0.448739
  C      -2.098370     -3.358650     -0.575304
  C       3.319616      2.865956     -1.740795
  C       4.799834      2.565334     -1.472891
  I       2.475250     -1.855462     -0.005540
  H      -0.146613      1.785412     -1.631278
  H      -0.748963      3.451467     -1.668218
  H       0.593436      2.974868     -2.724818
  H       0.674927      3.097246      0.364069
  H       1.334763      4.332465     -0.706343
  H       1.880994      1.254730      0.898916
  H       3.551412      1.077240      0.363799
  H       2.703877      0.090728     -1.847453
  H       1.047344      0.106971     -1.166511
  H      -2.426322      2.108700      0.455799
  H      -1.804935      3.632487      2.294354
  H      -0.223124      2.880012      4.071940
  H       0.722092      0.573309      3.977031
  H       0.110652     -0.947603      2.142044
  H      -3.972490     -0.464834      1.492935
  H      -6.377424     -0.102012      1.027237
  H      -7.151973      0.314131     -1.303598
  H      -5.500395      0.359972     -3.168780
  H      -3.086093     -0.013347     -2.696747
  H      -2.287120     -2.304915      1.332163
  H      -0.616853     -2.545290      0.785577
  H      -2.098635     -4.361021     -0.127222
  H      -1.433214     -3.380636     -1.448487
  H      -3.114900     -3.149387     -0.931443
  H       3.207364      3.937061     -1.964305
  H       3.003888      2.329847     -2.658102
  H       4.990610      1.491784     -1.351004
  H       5.407677      2.912049     -2.318592
  H       5.141798      3.079112     -0.565222
>
52
-1472.98209942; 31P isotropic shielding: 265.107115 ppm
  C       3.170778      3.540978     -0.733292
  C       2.936866      2.793078     -2.064535
  N       1.826048      1.834743     -2.115085
  C       2.112401      0.452082     -1.737248
  C       2.316277      0.234937     -0.230975
  P      -1.362221     -0.740819     -0.241578
  C      -1.007007      0.186589      1.312096
  C      -1.263944      1.570695      1.369615
  C      -0.874741      2.328489      2.475526
  C      -0.213907      1.720088      3.549702
  C       0.046853      0.347430      3.506355
  C      -0.345236     -0.412434      2.399362
  C      -3.052655     -0.108935     -0.648772
  C      -4.070443      0.035744      0.310466
  C      -5.338899      0.485761     -0.060503
  C      -5.610056      0.799292     -1.399317
  C      -4.606612      0.661135     -2.362018
  C      -3.335277      0.210708     -1.985781
  C      -1.785899     -2.446255      0.410032
  C      -2.334565     -3.353171     -0.702915
  C       0.499488      2.338375     -1.736421
  C      -0.006752      3.439588     -2.677321
  I       2.507570     -1.923965      0.230974
  H       3.402751      2.854994      0.089885
  H       4.012835      4.238585     -0.841645
  H       2.291372      4.128879     -0.441419
  H       3.847296      2.244594     -2.342743
  H       2.779124      3.543465     -2.854515
  H       3.008937      0.119595     -2.278328
  H       1.274852     -0.172881     -2.071069
  H       1.466382      0.556859      0.371057
  H       3.241601      0.665598      0.153667
  H      -1.779520      2.057479      0.544400
  H      -1.088673      3.396206      2.499604
  H       0.091792      2.310570      4.411728
  H       0.558800     -0.138358      4.335756
  H      -0.117701     -1.474456      2.383708
  H      -3.864916     -0.194533      1.354463
  H      -6.118271      0.593548      0.692740
  H      -6.599350      1.151529     -1.687217
  H      -4.810269      0.905279     -3.403553
  H      -2.552851      0.103652     -2.736177
  H      -2.500224     -2.363834      1.240692
  H      -0.854601     -2.867775      0.809173
  H      -2.534540     -4.361245     -0.316448
  H      -1.616901     -3.445452     -1.528763
  H      -3.272173     -2.959601     -1.115090
  H       0.464100      2.708440     -0.695152
  H      -0.187610      1.483879     -1.778483
  H       0.599225      4.352207     -2.609599
  H       0.010354      3.095190     -3.719406
  H      -1.038490      3.709553     -2.415631
>
52
-1472.98136811; 31P isotropic shielding: 268.025358 ppm
  C       0.304732      2.733312     -1.514441
  C       1.338664      2.938421     -0.387392
  N       2.648959      2.289543     -0.545533
  C       2.787204      0.931915     -0.025265
  C       2.165686     -0.146437     -0.921668
  P      -1.529919     -0.600245     -0.264705
  C      -1.166126      0.489068      1.178591
  C      -1.743060      1.766901      1.297071
  C      -1.357355      2.635578      2.321556
  C      -0.383462      2.247533      3.248168
  C       0.202315      0.982053      3.137808
  C      -0.181368      0.113340      2.112163
  C      -3.287676     -0.166347     -0.634702
  C      -4.300821     -0.170266      0.340594
  C      -5.619400      0.134885     -0.001617
  C      -5.946181      0.451007     -1.327314
  C      -4.948200      0.460778     -2.305296
  C      -3.626942      0.153042     -1.958299
  C      -1.749529     -2.265134      0.571058
  C      -2.217875     -3.336108     -0.426145
  C       3.405141      2.593742     -1.764372
  C       3.735763      4.086686     -1.898283
  I       2.437967     -2.167051     -0.048301
  H       0.012144      1.682578     -1.620906
  H      -0.602289      3.311194     -1.292039
  H       0.687928      3.080927     -2.482886
  H       0.919097      2.587808      0.561403
  H       1.508470      4.019004     -0.266688
  H       2.319649      0.896283      0.965385
  H       3.857674      0.717288      0.107498
  H       2.640488     -0.215929     -1.902584
  H       1.083549     -0.065071     -1.027989
  H      -2.502364      2.085446      0.586596
  H      -1.819951      3.618897      2.395234
  H      -0.082402      2.924923      4.045290
  H       0.964489      0.668686      3.849878
  H       0.304688     -0.856575      2.034448
  H      -4.055430     -0.402168      1.375506
  H      -6.394318      0.127554      0.763742
  H      -6.974865      0.689093     -1.593356
  H      -5.195751      0.706687     -3.336830
  H      -2.848951      0.158356     -2.720727
  H      -2.449328     -2.171771      1.412399
  H      -0.769813     -2.538930      0.980978
  H      -2.301308     -4.313459      0.067286
  H      -1.508325     -3.438288     -1.257628
  H      -3.199986     -3.088890     -0.848658
  H       2.893879      2.257025     -2.687910
  H       4.343162      2.022962     -1.707914
  H       2.834441      4.694324     -2.047348
  H       4.248786      4.450499     -0.998805
  H       4.389721      4.250031     -2.764950
>
52
-1472.98229893; 31P isotropic shielding: 265.272747 ppm
  C       0.426802      2.767192     -1.437990
  C       1.425414      2.954258     -0.276226
  N       2.738321      2.304720     -0.402069
  C       2.858818      0.943131      0.111995
  C       2.259682     -0.127240     -0.809047
  P      -1.446219     -0.552195     -0.154783
  C      -1.076717      0.517805      1.301224
  C      -1.638662      1.801924      1.425660
  C      -1.247819      2.658691      2.458256
  C      -0.283412      2.252268      3.387032
  C       0.286781      0.980117      3.271557
  C      -0.102569      0.123173      2.238005
  C      -3.205897     -0.113012     -0.509696
  C      -4.211223     -0.119212      0.473474
  C      -5.532042      0.188982      0.142606
  C      -5.868797      0.510246     -1.179275
  C      -4.878541      0.522192     -2.165029
  C      -3.554982      0.211655     -1.829505
  C      -1.663988     -2.227811      0.659592
  C      -2.141312     -3.284089     -0.349078
  C       3.531129      2.617834     -1.595083
  C       3.871990      4.110612     -1.703721
  I       2.517522     -2.155033      0.052775
  H       0.142482      1.717496     -1.574337
  H      -0.489168      3.336633     -1.230472
  H       0.836549      3.136900     -2.387225
  H       0.973984      2.589416      0.651982
  H       1.591671      4.032912     -0.134393
  H       2.361379      0.902044      1.087586
  H       3.924330      0.724583      0.274580
  H       2.756714     -0.186405     -1.779567
  H       1.179632     -0.047263     -0.937304
  H      -2.389538      2.134683      0.712608
  H      -1.698120      3.647449      2.536059
  H       0.021814      2.920750      4.190107
  H       1.040910      0.651816      3.985471
  H       0.370497     -0.852872      2.156853
  H      -3.957821     -0.355476      1.505465
  H      -6.300926      0.179691      0.913922
  H      -6.899205      0.750738     -1.436334
  H      -5.133620      0.771944     -3.193833
  H      -2.783033      0.218859     -2.597944
  H      -2.358387     -2.144505      1.506483
  H      -0.682559     -2.510007      1.059523
  H      -2.226022     -4.267304      0.132378
  H      -1.436548     -3.378334     -1.185533
  H      -3.124758     -3.027869     -0.762947
  H       3.045461      2.292960     -2.536498
  H       4.464652      2.042274     -1.517270
  H       2.977270      4.724087     -1.867761
  H       4.364245      4.461742     -0.787792
  H       4.547735      4.280552     -2.552187
>
52
-1472.98237462; 31P isotropic shielding: 265.334937 ppm
  C       2.659832      4.511393     -1.397298
  C       2.866508      3.012253     -1.640656
  N       1.698159      2.196544     -1.276847
  C       2.016491      0.773816     -1.102261
  C       2.423229      0.537031      0.351127
  P      -1.398597     -0.749151     -0.368047
  C      -1.014243      0.131636      1.203152
  C      -1.115194      1.536451      1.233824
  C      -0.698148      2.262287      2.349635
  C      -0.160933      1.598956      3.460108
  C      -0.058580      0.205191      3.444844
  C      -0.483597     -0.522696      2.328073
  C      -3.100488     -0.118509     -0.721499
  C      -4.066144      0.089174      0.278928
  C      -5.349378      0.528852     -0.052599
  C      -5.687611      0.766861     -1.391455
  C      -4.735541      0.565687     -2.394756
  C      -3.448711      0.128591     -2.058889
  C      -1.794258     -2.479167      0.232789
  C      -2.379661     -3.349304     -0.891085
  C       0.475940      2.442178     -2.060683
  C       0.543732      2.074487     -3.557150
  I       2.780759     -1.613959      0.706071
  H       2.344079      4.691618     -0.361738
  H       3.597244      5.053925     -1.577075
  H       1.901170      4.938107     -2.065150
  H       3.704181      2.667739     -1.020462
  H       3.175972      2.844731     -2.693479
  H       2.814682      0.428573     -1.784305
  H       1.126096      0.175064     -1.321592
  H       1.633741      0.813940      1.047861
  H       3.363029      1.019599      0.626988
  H      -1.526025      2.067668      0.377644
  H      -0.783409      3.347824      2.349206
  H       0.174077      2.164249      4.328072
  H       0.359049     -0.321715      4.301330
  H      -0.379273     -1.603515      2.336332
  H      -3.808385     -0.084248      1.322265
  H      -6.088059      0.686915      0.732126
  H      -6.688386      1.110631     -1.648199
  H      -4.990972      0.752268     -3.436829
  H      -2.704733     -0.023938     -2.840060
  H      -2.481149     -2.430416      1.089150
  H      -0.847865     -2.910662      0.585048
  H      -2.554149     -4.373006     -0.534588
  H      -1.696361     -3.404002     -1.748947
  H      -3.336657     -2.950428     -1.249504
  H       0.203396      3.500077     -1.951500
  H      -0.327813      1.865363     -1.587255
  H       0.772092      1.009578     -3.694328
  H      -0.424699      2.274236     -4.035904
  H       1.305359      2.658727     -4.089132
>
52
-1472.98254368; 31P isotropic shielding: 268.931045 ppm
  C       0.338253      3.109783     -1.234994
  C       1.540841      2.695413     -0.362294
  N       2.623703      1.947253     -1.021552
  C       2.528152      0.489751     -1.001299
  C       1.457674     -0.072395     -1.945744
  P      -0.206136     -0.463992      1.682957
  C      -0.812949      0.001257      3.366887
  C       0.107289      0.538288      4.279912
  C      -0.285512      0.869474      5.582684
  C      -1.608545      0.667307      5.984074
  C      -2.537334      0.134199      5.079885
  C      -2.141845     -0.195764      3.782408
  C      -1.530937      0.243406      0.611782
  C      -2.079021      1.507917      0.898000
  C      -2.991040      2.108398      0.027583
  C      -3.367408      1.463838     -1.155995
  C      -2.824196      0.210928     -1.457323
  C      -1.915525     -0.393981     -0.583062
  C      -0.638424     -2.289126      1.667180
  C       0.232531     -3.079450      2.656072
  C       3.198927      2.538456     -2.234132
  C       3.835332      3.911184     -1.976282
  I       1.456723     -2.290431     -1.926757
  H       0.649745      3.731464     -2.084372
  H      -0.207284      2.244209     -1.626104
  H      -0.367610      3.698232     -0.635353
  H       1.191261      2.077359      0.473900
  H       1.974551      3.603513      0.084071
  H       2.306638      0.166502      0.023117
  H       3.508541      0.076031     -1.276210
  H       1.626089      0.184555     -2.993523
  H       0.441582      0.186501     -1.649868
  H       1.138517      0.695280      3.965882
  H       0.440545      1.285331      6.279635
  H      -1.918641      0.924738      6.995620
  H      -3.569778     -0.023082      5.389304
  H      -2.872648     -0.599506      3.083760
  H      -1.796665      2.023355      1.813838
  H      -3.407139      3.084468      0.273559
  H      -4.076844      1.932927     -1.835473
  H      -3.109349     -0.302475     -2.374577
  H      -1.503061     -1.366329     -0.842165
  H      -0.457715     -2.645580      0.645998
  H      -1.706785     -2.420616      1.885923
  H      -0.002878     -4.150773      2.606493
  H       0.069635     -2.747456      3.689162
  H       1.299330     -2.958448      2.426667
  H       2.467681      2.633168     -3.061139
  H       3.974807      1.845198     -2.588747
  H       4.574977      3.847650     -1.167930
  H       4.338668      4.268006     -2.884455
  H       3.087376      4.663668     -1.696908
>
52
-1472.98163762; 31P isotropic shielding: 266.450386 ppm
  C       0.100125      2.815184     -1.711315
  C       1.113621      3.108988     -0.583945
  N       2.438522      2.483623     -0.676815
  C       2.575046      1.125707     -0.153248
  C       2.086757      0.032601     -1.112073
  P      -1.587184     -0.681944     -0.498912
  C      -1.319306      0.432924      0.945057
  C      -1.948803      1.689874      1.011633
  C      -1.645536      2.590751      2.035195
  C      -0.700910      2.257891      3.012790
  C      -0.062024      1.015158      2.953899
  C      -0.365118      0.113262      1.929394
  C      -3.377524     -0.397254     -0.860556
  C      -4.374216     -0.440634      0.130504
  C      -5.717090     -0.254484     -0.202248
  C      -6.085431     -0.021350     -1.534257
  C      -5.104230      0.025940     -2.528040
  C      -3.758079     -0.160672     -2.190195
  C      -1.671535     -2.363373      0.327675
  C      -2.048738     -3.462298     -0.677990
  C       3.221026      2.841616     -1.864775
  C       4.724849      2.589349     -1.696486
  I       2.416898     -1.981889     -0.248403
  H      -0.187986      1.758441     -1.744484
  H      -0.813621      3.403042     -1.548688
  H       0.501792      3.092953     -2.694580
  H       0.680787      2.817799      0.380014
  H       1.274744      4.199000     -0.542209
  H       2.009837      1.070390      0.783563
  H       3.627342      0.938488      0.096543
  H       2.641046      0.006554     -2.052667
  H       1.013535      0.054388     -1.303758
  H      -2.685427      1.964957      0.260044
  H      -2.148122      3.556470      2.068607
  H      -0.463653      2.960589      3.809596
  H       0.678439      0.744535      3.705274
  H       0.159351     -0.838587      1.892939
  H      -4.096983     -0.609835      1.169571
  H      -6.478861     -0.290382      0.575434
  H      -7.133152      0.124011     -1.792735
  H      -5.383615      0.208573     -3.564577
  H      -2.992681     -0.123634     -2.964343
  H      -2.379717     -2.333366      1.166729
  H      -0.674017     -2.560847      0.737786
  H      -2.060638     -4.445392     -0.189115
  H      -1.326901     -3.505820     -1.503990
  H      -3.043624     -3.289095     -1.107363
  H       3.056615      3.916459     -2.031716
  H       2.871922      2.335725     -2.787015
  H       5.099333      3.073643     -0.785465
  H       4.963328      1.519810     -1.638044
  H       5.268909      2.998459     -2.557643
>
52
-1472.98205100; 31P isotropic shielding: 264.967203 ppm
  C       0.592418      3.230196     -0.396495
  C       2.076931      3.428959     -0.716921
  N       2.675467      2.256359     -1.370967
  C       2.797935      1.052655     -0.542495
  C       2.093700     -0.089633     -1.272939
  P      -1.591732     -0.608775     -0.196597
  C      -1.308268      0.483772      1.263001
  C      -2.096471      1.619046      1.521971
  C      -1.761193      2.503041      2.552404
  C      -0.630886      2.272553      3.342595
  C       0.164326      1.148188      3.092226
  C      -0.167408      0.266067      2.061187
  C      -3.391498     -0.353593     -0.532169
  C      -4.395344     -0.570757      0.428312
  C      -5.741439     -0.384638      0.107176
  C      -6.106244      0.024521     -1.182416
  C      -5.118507      0.246297     -2.145735
  C      -3.770037      0.056395     -1.820042
  C      -1.618084     -2.298929      0.618163
  C      -1.940183     -3.405916     -0.397255
  C       3.846687      2.538732     -2.212254
  C       5.081487      3.106793     -1.480268
  I       2.385761     -2.020536     -0.219949
  H       0.436342      2.407811      0.308022
  H       0.178135      4.136258      0.064656
  H       0.025414      3.008342     -1.309294
  H       2.618036      3.707258      0.210755
  H       2.191439      4.274074     -1.410329
  H       2.328216      1.212157      0.435047
  H       3.849961      0.790001     -0.346971
  H       2.504936     -0.265020     -2.268739
  H       1.010185      0.035097     -1.320148
  H      -2.976362      1.817440      0.914811
  H      -2.386626      3.375693      2.735811
  H      -0.370603      2.962279      4.143707
  H       1.048774      0.957903      3.698851
  H       0.477691     -0.588652      1.867456
  H      -4.123743     -0.877190      1.436913
  H      -6.508141     -0.557347      0.861311
  H      -7.156263      0.168767     -1.432165
  H      -5.395160      0.564030     -3.149928
  H      -2.999625      0.224549     -2.571645
  H      -2.328862     -2.308168      1.455245
  H      -0.615859     -2.452455      1.035479
  H      -1.918195     -4.392544      0.084406
  H      -1.208168     -3.413857     -1.215172
  H      -2.936941     -3.269520     -0.836101
  H       3.533557      3.242125     -2.997915
  H       4.122231      1.606264     -2.724910
  H       4.860808      4.077512     -1.018745
  H       5.433249      2.428589     -0.691636
  H       5.908856      3.252409     -2.188102
>
52
-1472.98148298; 31P isotropic shielding: 266.997411 ppm
  C       1.602277      3.355578      0.737089
  C       2.769802      3.552614     -0.236101
  N       2.873178      2.475761     -1.229830
  C       3.184320      1.148521     -0.686747
  C       1.929202      0.283002     -0.784147
  P      -1.693295     -0.723050     -0.297514
  C      -1.382933      0.376688      1.152493
  C      -1.919409      1.679184      1.164837
  C      -1.623256      2.568516      2.199159
  C      -0.772072      2.181377      3.240842
  C      -0.220016      0.897499      3.233433
  C      -0.521116      0.003313      2.200078
  C      -3.513856     -0.481364     -0.533754
  C      -4.429083     -0.463121      0.533615
  C      -5.797493     -0.322241      0.295399
  C      -6.273935     -0.198764     -1.016797
  C      -5.374412     -0.215304     -2.086221
  C      -4.002320     -0.353811     -1.843138
  C      -1.700258     -2.418642      0.505591
  C      -2.160587     -3.504663     -0.479494
  C       3.595775      2.827563     -2.459769
  C       5.099512      3.133798     -2.292241
  I       2.322576     -1.762551     -0.028521
  H       1.726214      2.456459      1.351692
  H       1.534012      4.210110      1.423080
  H       0.653191      3.265670      0.196694
  H       3.709516      3.669284      0.343514
  H       2.624123      4.489912     -0.791364
  H       3.521365      1.211086      0.359061
  H       4.002649      0.678625     -1.248706
  H       1.594357      0.139649     -1.812245
  H       1.107817      0.650731     -0.171080
  H      -2.584804      1.995566      0.363346
  H      -2.056522      3.567770      2.190944
  H      -0.539532      2.875357      4.046751
  H       0.446725      0.584150      4.035761
  H      -0.073598     -0.986816      2.214952
  H      -4.067395     -0.548988      1.556781
  H      -6.495261     -0.308391      1.131810
  H      -7.341371     -0.088057     -1.201390
  H      -5.737747     -0.118054     -3.108261
  H      -3.300214     -0.363165     -2.676154
  H      -2.332112     -2.407008      1.404377
  H      -0.669304     -2.618218      0.822021
  H      -2.111295     -4.496591     -0.011235
  H      -1.524080     -3.523045     -1.373911
  H      -3.194760     -3.338244     -0.805692
  H       3.092922      3.698856     -2.904680
  H       3.466026      1.998905     -3.170338
  H       5.260827      3.998080     -1.635800
  H       5.639126      2.277888     -1.865516
  H       5.552525      3.362572     -3.266576
>
52
-1472.98077613; 31P isotropic shielding: 265.849306 ppm
  C       1.928816      3.253832      0.742773
  C       3.094962      3.019735     -0.240730
  N       2.920066      1.978590     -1.265055
  C       3.305120      0.616343     -0.901847
  C       2.318413     -0.063653      0.053838
  P      -1.365655     -0.241917     -0.327141
  C      -1.099089      0.661052      1.257758
  C      -1.526942      1.998420      1.363329
  C      -1.243221      2.755338      2.500911
  C      -0.511595      2.195792      3.555326
  C      -0.072406      0.872310      3.459769
  C      -0.363910      0.110621      2.322485
  C      -3.162035      0.078109     -0.625240
  C      -4.124125      0.036635      0.399187
  C      -5.475183      0.242414      0.113573
  C      -5.885930      0.491114     -1.202989
  C      -4.938679      0.534676     -2.229606
  C      -3.584105      0.331492     -1.939489
  C      -1.432740     -2.026009      0.244127
  C      -1.865203     -2.965145     -0.893026
  C       1.728017      2.088290     -2.119280
  C       1.699159      3.393033     -2.925387
  I       2.794859     -2.203463      0.370375
  H       1.716723      2.375388      1.360314
  H       2.174388      4.086489      1.416472
  H       1.002812      3.518057      0.218856
  H       4.005434      2.766735      0.319981
  H       3.309346      3.968074     -0.755866
  H       4.305577      0.641180     -0.448926
  H       3.381491      0.024223     -1.824623
  H       1.302078     -0.078540     -0.343106
  H       2.324410      0.355149      1.059316
  H      -2.094720      2.447783      0.549959
  H      -1.588979      3.786165      2.562854
  H      -0.285767      2.786794      4.441193
  H       0.496819      0.425003      4.273518
  H      -0.009102     -0.915925      2.273675
  H      -3.812675     -0.147322      1.425902
  H      -6.210327      0.209341      0.916602
  H      -6.939799      0.652472     -1.424243
  H      -5.251084      0.730097     -3.254345
  H      -2.844775      0.369741     -2.738654
  H      -2.105510     -2.117052      1.108299
  H      -0.421085     -2.291308      0.577212
  H      -1.849540     -4.009736     -0.555796
  H      -1.190379     -2.880562     -1.754865
  H      -2.881783     -2.737313     -1.237051
  H       0.781640      1.986801     -1.555682
  H       1.757626      1.237160     -2.813715
  H       1.577581      4.272428     -2.280569
  H       2.626191      3.515365     -3.500223
  H       0.853515      3.380005     -3.625453
>
52
-1472.98076524; 31P isotropic shielding: 265.532340 ppm
  C       1.862932      3.271231      0.616255
  C       3.028912      3.029679     -0.365712
  N       2.857672      1.973869     -1.375651
  C       3.253037      0.619296     -0.995325
  C       2.275770     -0.052397     -0.024204
  P      -1.406752     -0.277058     -0.393237
  C      -1.144024      0.652990      1.176672
  C      -1.582755      1.988218      1.261995
  C      -1.302474      2.765724      2.386526
  C      -0.563664      2.229151      3.447766
  C      -0.114102      0.907800      3.372479
  C      -0.402045      0.125529      2.248300
  C      -3.206715      0.022332     -0.691423
  C      -4.165931     -0.011353      0.335940
  C      -5.519466      0.177810      0.050342
  C      -5.935548      0.401697     -1.269042
  C      -4.991200      0.437144     -2.298644
  C      -3.634193      0.250770     -2.008557
  C      -1.456461     -2.052514      0.205644
  C      -1.884532     -3.012419     -0.915879
  C       1.662367      2.064689     -2.227392
  C       1.623338      3.358583     -3.050539
  I       2.769052     -2.183314      0.323841
  H       1.659253      2.401577      1.248969
  H       2.103147      4.116938      1.275381
  H       0.933818      3.519251      0.090092
  H       3.941441      2.788800      0.196979
  H       3.237712      3.972140     -0.893829
  H       4.255959      0.656283     -0.548733
  H       3.327401      0.014316     -1.909855
  H       1.257608     -0.079956     -0.415590
  H       2.284225      0.382454      0.974386
  H      -2.156079      2.419751      0.442838
  H      -1.656798      3.794470      2.432833
  H      -0.340596      2.836442      4.323269
  H       0.460508      0.478160      4.191925
  H      -0.038964     -0.898742      2.214907
  H      -3.850474     -0.176350      1.364689
  H      -6.252437      0.150997      0.855569
  H      -6.991328      0.550223     -1.490223
  H      -5.307779      0.613130     -3.325641
  H      -2.897093      0.282610     -2.810044
  H      -2.125466     -2.136482      1.073424
  H      -0.441353     -2.304045      0.538896
  H      -1.856443     -4.051801     -0.563816
  H      -1.214535     -2.933195     -1.781960
  H      -2.904860     -2.799953     -1.258490
  H       0.718346      1.965010     -1.659453
  H       1.694955      1.204785     -2.910810
  H       1.499911      4.245722     -2.416779
  H       2.547615      3.477857     -3.630445
  H       0.774989      3.332249     -3.746945
