48
-1343.73709436; 31P isotropic shielding: 308.528236 ppm
  C       1.864811     -2.421891      2.564640
  C       2.678099     -2.045564      1.313143
  C       2.018989     -2.456255     -0.010343
  O       0.667850     -2.000342     -0.190184
  P       0.053213     -0.408609      0.253206
  O       0.208782     -0.709394      1.872354
  C       0.385234     -2.030158      2.454022
  C       1.413410      0.404212     -0.711549
  C       2.225283      1.352463     -0.070561
  C       3.285080      1.956959     -0.750155
  C       3.520152      1.653079     -2.095833
  C       2.703648      0.723829     -2.747783
  C       1.670730      0.086546     -2.052768
  C      -0.659694      1.322731      0.707638
  C      -0.790491      1.850048      2.000249
  C      -1.308074      3.136791      2.208693
  C      -1.709221      3.920589      1.124991
  C      -1.586317      3.408210     -0.172995
  C      -1.064703      2.129709     -0.371200
  C      -1.524830     -0.935987     -0.556446
  C      -1.574179     -1.604905     -1.789464
  C      -2.800442     -1.979400     -2.346184
  C      -3.991873     -1.730515     -1.657527
  C      -3.949797     -1.095043     -0.412302
  C      -2.727142     -0.684410      0.124038
  H       2.315498     -1.938187      3.442730
  H       1.910697     -3.507862      2.740886
  H       2.856620     -0.963599      1.308835
  H       3.669897     -2.519419      1.360365
  H       2.645989     -2.103868     -0.845763
  H       1.966571     -3.554461     -0.076890
  H      -0.172783     -2.763931      1.865664
  H      -0.074001     -1.953616      3.448090
  H       2.019997      1.628335      0.961608
  H       3.916693      2.678754     -0.234482
  H       4.333151      2.138998     -2.632855
  H       2.876223      0.485174     -3.796301
  H       1.064849     -0.658542     -2.559545
  H      -0.488525      1.251391      2.854211
  H      -1.398189      3.523055      3.223757
  H      -2.113226      4.919052      1.285986
  H      -1.896249      4.006897     -1.028820
  H      -0.975181      1.753026     -1.390049
  H      -0.653112     -1.853963     -2.304982
  H      -2.822622     -2.479874     -3.313198
  H      -4.946004     -2.033321     -2.086168
  H      -4.870301     -0.906022      0.137769
  H      -2.709409     -0.160213      1.075975
>
48
-1343.74389255; 31P isotropic shielding: 324.204107 ppm
  C       1.859633     -3.646199      0.228793
  C       2.061600     -3.040938      1.626025
  C       2.250587     -1.523176      1.629084
  O       1.003253     -0.781815      1.516847
  P       0.285944     -0.301819      0.110770
  O       0.996298     -1.617574     -0.816900
  C       0.708682     -2.995720     -0.539260
  C      -0.499955      1.178142      1.064099
  C      -0.349818      1.449365      2.431289
  C      -0.976780      2.555378      3.023865
  C      -1.763828      3.415496      2.255401
  C      -1.922831      3.159549      0.887104
  C      -1.300924      2.053208      0.307996
  C       1.236245      0.826267     -1.004978
  C       1.936725      1.894880     -0.421693
  C       2.706650      2.756028     -1.207115
  C       2.755195      2.585258     -2.594617
  C       2.053611      1.529636     -3.185689
  C       1.317567      0.642980     -2.394311
  C      -1.414905     -0.922406     -0.308396
  C      -1.810696     -1.174288     -1.629502
  C      -3.105192     -1.623733     -1.908052
  C      -4.002110     -1.873800     -0.864158
  C      -3.604069     -1.652180      0.458878
  C      -2.326417     -1.157157      0.732180
  H       1.667673     -4.727047      0.314556
  H       2.781865     -3.527918     -0.359885
  H       1.208471     -3.282331      2.278600
  H       2.951544     -3.489187      2.094339
  H       2.653196     -1.196821      2.596601
  H       2.943182     -1.206739      0.839165
  H       0.563825     -3.499642     -1.506914
  H      -0.231390     -3.103934      0.025192
  H       0.262810      0.792456      3.041772
  H      -0.845469      2.742376      4.089455
  H      -2.249338      4.275852      2.713819
  H      -2.532449      3.822597      0.274172
  H      -1.440787      1.871400     -0.757503
  H       1.874548      2.060048      0.650866
  H       3.257135      3.568622     -0.735636
  H       3.337790      3.268655     -3.210528
  H       2.089345      1.386276     -4.264688
  H       0.822395     -0.204215     -2.856000
  H      -1.109160     -1.023512     -2.444709
  H      -3.408648     -1.790263     -2.940714
  H      -5.004969     -2.238763     -1.080124
  H      -4.293774     -1.850008      1.278012
  H      -2.038558     -0.944582      1.759489
>
48
-1343.74691510; 31P isotropic shielding: 318.484588 ppm
  C       1.944768      1.689265     -3.055448
  C       1.667459      2.635575     -1.872738
  C       2.298357      2.181806     -0.549481
  O       1.931459      0.862362     -0.108227
  P       0.356435      0.083564     -0.304509
  O       0.526324     -0.012870     -1.946071
  C       1.758771      0.215103     -2.685215
  C       1.051774     -1.253136      0.749455
  C       0.907950     -1.276616      2.142844
  C       1.407539     -2.351249      2.885013
  C       2.057561     -3.410559      2.244343
  C       2.200162     -3.391553      0.852845
  C       1.696445     -2.321499      0.109079
  C      -0.489715      1.522361      0.486567
  C      -0.006282      2.104158      1.667976
  C      -0.657601      3.205707      2.231617
  C      -1.770551      3.764692      1.594969
  C      -2.238864      3.208322      0.399259
  C      -1.613471      2.081921     -0.140039
  C      -1.282278     -0.916000     -0.498158
  C      -2.153891     -0.976454      0.604915
  C      -3.291939     -1.785899      0.597478
  C      -3.590378     -2.566192     -0.525066
  C      -2.735480     -2.524742     -1.629114
  C      -1.594858     -1.712099     -1.611892
  H       2.978799      1.814300     -3.412802
  H       1.283715      1.951129     -3.893512
  H       2.050168      3.640402     -2.105303
  H       0.584698      2.745333     -1.739138
  H       3.396079      2.168254     -0.643423
  H       2.044204      2.914822      0.233568
  H       1.654080     -0.405169     -3.585133
  H       2.608639     -0.150033     -2.101956
  H       0.401583     -0.465252      2.658831
  H       1.287986     -2.358481      3.967543
  H       2.447013     -4.245775      2.823925
  H       2.701429     -4.213272      0.343393
  H       1.796136     -2.327041     -0.974541
  H       0.887280      1.702877      2.138435
  H      -0.287147      3.635460      3.161148
  H      -2.269270      4.631207      2.026285
  H      -3.100375      3.642376     -0.105741
  H      -2.003422      1.629296     -1.049273
  H      -1.949925     -0.381386      1.492966
  H      -3.946339     -1.807380      1.468347
  H      -4.477425     -3.197915     -0.536956
  H      -2.953608     -3.126950     -2.510801
  H      -0.943994     -1.694572     -2.480564
>
48
-1343.74133509; 31P isotropic shielding: 318.394964 ppm
  C       2.440262     -3.158631     -0.992097
  C       2.350372     -2.333185     -2.282661
  C       0.976636     -1.707484     -2.524163
  O       0.739459     -0.477503     -1.783862
  P       0.193025     -0.302589     -0.231489
  O       0.708423     -1.926788      0.232042
  C       2.077628     -2.351418      0.254121
  C       1.345810      0.436197      0.993839
  C       2.394927      1.251693      0.547919
  C       3.307104      1.788703      1.461478
  C       3.158414      1.537526      2.829646
  C       2.106469      0.730426      3.278667
  C       1.213413      0.166919      2.362584
  C      -0.526076      1.392281     -0.816760
  C      -0.446711      2.574899     -0.064721
  C      -1.114632      3.740901     -0.463953
  C      -1.884875      3.747505     -1.628076
  C      -1.981962      2.575465     -2.388279
  C      -1.312191      1.419616     -1.983474
  C      -1.477148     -0.825132      0.366903
  C      -2.069237     -2.011367     -0.095202
  C      -3.363937     -2.359465      0.300222
  C      -4.069902     -1.548155      1.194069
  C      -3.477785     -0.376372      1.676186
  C      -2.200314     -0.006201      1.248315
  H       3.460199     -3.556437     -0.872632
  H       1.764907     -4.025225     -1.062051
  H       3.102304     -1.529154     -2.282296
  H       2.579493     -2.976455     -3.146417
  H       0.888656     -1.385847     -3.569644
  H       0.176315     -2.428649     -2.317770
  H       2.202476     -2.970653      1.155053
  H       2.760873     -1.493254      0.354476
  H       2.493665      1.470920     -0.513646
  H       4.127831      2.409823      1.105926
  H       3.860392      1.966263      3.543025
  H       1.987549      0.531171      4.342696
  H       0.417696     -0.488825      2.709186
  H       0.138626      2.605301      0.850147
  H      -1.027418      4.644000      0.139529
  H      -2.403897      4.652235     -1.941362
  H      -2.581182      2.563515     -3.298325
  H      -1.404548      0.519576     -2.588162
  H      -1.512368     -2.673370     -0.750923
  H      -3.815462     -3.274493     -0.080578
  H      -5.073343     -1.826207      1.512399
  H      -4.016348      0.261623      2.375303
  H      -1.774285      0.929800      1.598510
>
48
-1343.74456081; 31P isotropic shielding: 308.065025 ppm
  C       1.869719      1.045147      3.403882
  C       2.341945     -0.414420      3.355301
  C       1.457203     -1.295152      2.473188
  O       1.507727     -0.888784      1.099359
  P       0.264600      0.092077      0.320838
  O       0.559036      1.397169      1.296146
  C       1.774086      1.713062      2.032097
  C       1.169735     -0.275963     -1.250982
  C       2.555900     -0.074654     -1.352248
  C       3.216685     -0.279728     -2.566718
  C       2.510035     -0.729298     -3.686618
  C       1.133398     -0.955225     -3.587424
  C       0.464779     -0.708154     -2.385693
  C      -1.032854     -1.093676      0.856711
  C      -2.029319     -0.671164      1.747257
  C      -3.000850     -1.571173      2.196235
  C      -2.998857     -2.891857      1.734896
  C      -2.009507     -3.314363      0.839157
  C      -1.019281     -2.423415      0.414869
  C      -0.957613      1.247368     -0.629639
  C      -0.490384      2.503142     -1.059718
  C      -1.264604      3.333572     -1.871496
  C      -2.540215      2.925634     -2.281534
  C      -3.021241      1.681624     -1.870310
  C      -2.235612      0.853735     -1.055931
  H       2.569161      1.637132      4.014304
  H       0.886392      1.118287      3.893450
  H       3.373683     -0.454768      2.973358
  H       2.360299     -0.835580      4.372676
  H       1.807417     -2.337649      2.508115
  H       0.424130     -1.288519      2.855540
  H       1.715093      2.802665      2.148191
  H       2.654115      1.480096      1.419907
  H       3.122689      0.225528     -0.476659
  H       4.289100     -0.101491     -2.632530
  H       3.027608     -0.902011     -4.628882
  H       0.572788     -1.309072     -4.451306
  H      -0.611889     -0.845084     -2.341015
  H      -2.048752      0.363853      2.083647
  H      -3.763867     -1.238446      2.898292
  H      -3.762971     -3.589803      2.073239
  H      -2.003297     -4.341710      0.477870
  H      -0.230997     -2.762161     -0.253881
  H       0.499739      2.838384     -0.756742
  H      -0.873887      4.300982     -2.185921
  H      -3.148402      3.571359     -2.913348
  H      -4.011561      1.348486     -2.179555
  H      -2.639601     -0.110481     -0.760374
>
48
-1343.74463967; 31P isotropic shielding: 308.114041 ppm
  C      -4.005829     -0.603858     -0.737891
  C      -3.166806     -1.134044     -1.917722
  C      -2.159568     -0.116432     -2.458020
  O      -0.880123     -0.006057     -1.772374
  P      -0.371111     -0.091466     -0.212599
  O      -1.912112     -0.581883      0.455746
  C      -3.116409      0.160575      0.248459
  C       1.403531      0.330441     -0.842437
  C       1.786757      0.546939     -2.173024
  C       3.114821      0.851877     -2.504694
  C       4.086709      0.948907     -1.506622
  C       3.720012      0.736764     -0.171350
  C       2.396870      0.431000      0.148339
  C      -0.425291      1.484267      0.767479
  C      -0.798516      1.515068      2.119294
  C      -0.827063      2.723843      2.821725
  C      -0.530157      3.923709      2.167165
  C      -0.188570      3.905879      0.810287
  C      -0.115298      2.692226      0.122435
  C       0.239612     -1.702951      0.475629
  C       0.926670     -2.562698     -0.395287
  C       1.391998     -3.802616      0.049030
  C       1.214413     -4.181180      1.384207
  C       0.544630     -3.323038      2.262213
  C       0.041380     -2.100926      1.805333
  H      -4.497257     -1.445109     -0.230381
  H      -4.802214      0.063958     -1.101971
  H      -2.628402     -2.043808     -1.625917
  H      -3.831919     -1.411696     -2.748818
  H      -1.867112     -0.391130     -3.479160
  H      -2.602584      0.890327     -2.494456
  H      -2.898766      1.172246     -0.130810
  H      -3.616582      0.290346      1.219917
  H       1.042567      0.478330     -2.961158
  H       3.386045      1.014128     -3.547710
  H       5.118269      1.186561     -1.762523
  H       4.466548      0.809019      0.618843
  H       2.134680      0.267805      1.193577
  H      -1.081384      0.595322      2.622532
  H      -1.093497      2.728691      3.877730
  H      -0.566447      4.866841      2.710173
  H       0.035362      4.836191      0.290449
  H       0.193068      2.681534     -0.920316
  H       1.106455     -2.258711     -1.424025
  H       1.907252     -4.465735     -0.644246
  H       1.595655     -5.138023      1.737510
  H       0.401617     -3.609574      3.303245
  H      -0.513405     -1.463658      2.486295
>
48
-1343.73970887; 31P isotropic shielding: 321.456842 ppm
  C       1.596285     -3.514958     -0.474947
  C       1.833999     -3.138147     -1.951343
  C       1.108989     -1.833232     -2.293523
  O       1.338474     -0.877951     -1.255568
  P       0.119455     -0.398304     -0.091409
  O      -0.206409     -1.938025      0.424505
  C       0.158729     -3.281812     -0.004412
  C       1.435978      0.750032      0.535133
  C       2.692759      0.263450      0.924445
  C       3.646488      1.122445      1.478237
  C       3.370207      2.486589      1.615606
  C       2.125705      2.981808      1.212485
  C       1.157192      2.116037      0.697447
  C      -0.970120      0.215247     -1.433299
  C      -2.227239     -0.376882     -1.620212
  C      -3.048918      0.030392     -2.676185
  C      -2.629633      1.051171     -3.535573
  C      -1.377785      1.649462     -3.347504
  C      -0.543413      1.221445     -2.311188
  C      -1.018797      0.146425      1.365474
  C      -0.714410     -0.308556      2.662014
  C      -1.414487      0.149231      3.778970
  C      -2.443458      1.087915      3.628512
  C      -2.755414      1.556689      2.351482
  C      -2.047895      1.090527      1.234067
  H       2.276242     -2.957493      0.180924
  H       1.823487     -4.580716     -0.324126
  H       2.911745     -3.031570     -2.135530
  H       1.471186     -3.939197     -2.614139
  H       1.480636     -1.405932     -3.236650
  H       0.031673     -2.016943     -2.434682
  H      -0.557993     -3.591136     -0.780095
  H      -0.038344     -3.882682      0.891832
  H       2.931052     -0.787277      0.785778
  H       4.611812      0.726341      1.790594
  H       4.117667      3.158167      2.034922
  H       1.900083      4.042472      1.312846
  H       0.179945      2.510482      0.431938
  H      -2.566050     -1.149131     -0.932156
  H      -4.018721     -0.443067     -2.821407
  H      -3.273735      1.377789     -4.350436
  H      -1.046840      2.443125     -4.015752
  H       0.443363      1.661754     -2.187467
  H       0.086565     -1.032300      2.801695
  H      -1.156637     -0.223526      4.769899
  H      -2.991612      1.448348      4.497788
  H      -3.552525      2.287293      2.216458
  H      -2.313483      1.480201      0.255152
>
48
-1343.73817338; 31P isotropic shielding: 304.568373 ppm
  C       0.298548     -3.571803     -0.456449
  C       1.334700     -3.417568     -1.584179
  C       1.885635     -1.989714     -1.695689
  O       0.842012     -0.986528     -1.557005
  P       0.359824     -0.324712     -0.121061
  O       1.141955     -1.587494      0.829572
  C       0.735285     -2.965364      0.883855
  C       1.533299      0.847022      0.698534
  C       2.172224      1.806454     -0.104060
  C       3.094323      2.698639      0.447714
  C       3.364376      2.669590      1.819884
  C       2.730181      1.720966      2.628230
  C       1.837937      0.802102      2.067906
  C      -0.488107      1.084782     -1.124692
  C      -0.566416      1.172880     -2.521987
  C      -1.233315      2.237906     -3.144603
  C      -1.832097      3.240296     -2.378803
  C      -1.761579      3.168374     -0.981537
  C      -1.101884      2.101675     -0.370683
  C      -1.276511     -0.748525      0.647279
  C      -2.362904     -1.043855     -0.190486
  C      -3.599456     -1.405796      0.348249
  C      -3.778754     -1.433759      1.735855
  C      -2.706743     -1.121669      2.577863
  C      -1.457021     -0.803445      2.036627
  H       0.085202     -4.638794     -0.294193
  H      -0.648227     -3.114992     -0.767502
  H       2.187626     -4.093706     -1.417255
  H       0.874729     -3.716647     -2.536735
  H       2.665510     -1.809057     -0.950350
  H       2.304916     -1.809292     -2.693830
  H      -0.083617     -3.083769      1.612149
  H       1.608148     -3.511625      1.274627
  H       1.943665      1.861015     -1.165311
  H       3.591046      3.425380     -0.193195
  H       4.067136      3.378277      2.255390
  H       2.939694      1.685643      3.696350
  H       1.395031      0.035006      2.693465
  H      -0.101218      0.404814     -3.132393
  H      -1.280571      2.281367     -4.232570
  H      -2.348355      4.068863     -2.861466
  H      -2.222528      3.943494     -0.370242
  H      -1.062838      2.064550      0.717857
  H      -2.244872     -0.978806     -1.270124
  H      -4.427944     -1.649013     -0.315355
  H      -4.747945     -1.695157      2.157472
  H      -2.838829     -1.136496      3.658804
  H      -0.622967     -0.597709      2.700972
>
48
-1343.74389639; 31P isotropic shielding: 324.338889 ppm
  C      -2.733650     -1.347499     -2.782030
  C      -1.324759     -1.856758     -3.146685
  C      -0.261770     -0.756248     -3.182520
  O       0.354736     -0.363435     -1.921659
  P      -0.163119     -0.139838     -0.367554
  O      -1.766429     -0.799216     -0.636282
  C      -2.655226     -0.320516     -1.647979
  C       1.666304      0.342470      0.002448
  C       2.688347     -0.552556     -0.364532
  C       4.017486     -0.331568     -0.000678
  C       4.362723      0.797970      0.752518
  C       3.362342      1.694190      1.132142
  C       2.029703      1.465447      0.761154
  C      -0.869746      1.515730     -0.012184
  C      -1.793270      1.704455      1.025502
  C      -2.337090      2.970368      1.260680
  C      -1.990016      4.049064      0.438389
  C      -1.088046      3.859081     -0.613756
  C      -0.519148      2.599808     -0.829446
  C      -0.092405     -1.372985      1.016701
  C      -0.273944     -2.741613      0.768598
  C      -0.129170     -3.675403      1.798691
  C       0.162675     -3.249893      3.098712
  C       0.327039     -1.885003      3.356760
  C       0.222529     -0.955023      2.318869
  H      -3.364797     -2.194932     -2.481489
  H      -3.212067     -0.884237     -3.659035
  H      -1.001894     -2.634992     -2.444516
  H      -1.346484     -2.324954     -4.141935
  H       0.597368     -1.092435     -3.775764
  H      -0.660606      0.153825     -3.655304
  H      -2.327525      0.657453     -2.035964
  H      -3.641249     -0.160778     -1.187046
  H       2.440595     -1.440419     -0.943337
  H       4.786599     -1.042293     -0.301910
  H       5.398647      0.973305      1.039110
  H       3.613052      2.577947      1.718237
  H       1.275583      2.180733      1.077836
  H      -2.091434      0.859967      1.642725
  H      -3.040385      3.112913      2.079857
  H      -2.423198      5.032158      0.615626
  H      -0.819836      4.692453     -1.261315
  H       0.206584      2.459560     -1.628377
  H      -0.537058     -3.079400     -0.229860
  H      -0.257598     -4.735973      1.586520
  H       0.263092     -3.975918      3.903903
  H       0.552809     -1.542199      4.365457
  H       0.396806      0.096985      2.528420
>
48
-1343.73825709; 31P isotropic shielding: 304.260660 ppm
  C       2.756083     -2.293707     -0.718071
  C       2.144183     -2.701670     -2.070304
  C       0.685005     -2.260046     -2.219008
  O       0.467423     -0.889136     -1.779733
  P       0.102870     -0.416662     -0.233071
  O       0.532104     -1.997503      0.430203
  C       1.852797     -2.562303      0.494660
  C       1.381142      0.397038      0.808679
  C       2.396303      1.150396      0.202437
  C       3.405620      1.728359      0.976807
  C       3.390408      1.583311      2.368634
  C       2.373073      0.841583      2.979435
  C       1.381877      0.235741      2.201231
  C      -0.544885      1.225292     -1.013219
  C      -0.417484      2.468812     -0.371417
  C      -1.046079      3.617460     -0.868575
  C      -1.825645      3.548515     -2.025084
  C      -1.971078      2.317958     -2.675667
  C      -1.341119      1.177239     -2.172582
  C      -1.547570     -0.709730      0.537450
  C      -2.074357      0.197694      1.468367
  C      -3.347274     -0.000665      2.009680
  C      -4.125498     -1.088234      1.599949
  C      -3.613246     -1.985991      0.657800
  C      -2.326771     -1.807207      0.141478
  H       3.017454     -1.230128     -0.746395
  H       3.700970     -2.835039     -0.561265
  H       2.749244     -2.275792     -2.883001
  H       2.172715     -3.795853     -2.191823
  H       0.382114     -2.255950     -3.274045
  H       0.022959     -2.932338     -1.667059
  H       1.702950     -3.646982      0.616064
  H       2.361989     -2.196735      1.401768
  H       2.389769      1.293415     -0.876546
  H       4.196336      2.301651      0.495385
  H       4.168481      2.045320      2.974153
  H       2.356923      0.725241      4.062084
  H       0.611279     -0.369453      2.673178
  H       0.179101      2.561178      0.531911
  H      -0.920895      4.566924     -0.348817
  H      -2.314382      4.440108     -2.415267
  H      -2.577901      2.246251     -3.577907
  H      -1.471720      0.231433     -2.692412
  H      -1.499093      1.068922      1.769918
  H      -3.735799      0.704805      2.742678
  H      -5.123502     -1.233735      2.010065
  H      -4.211132     -2.835632      0.331036
  H      -1.929943     -2.530156     -0.565778
>
48
-1343.74218928; 31P isotropic shielding: 313.551031 ppm
  C       2.002328     -1.930824     -2.900588
  C       2.891070     -1.274346     -1.829004
  C       2.706305      0.244171     -1.696231
  O       1.359956      0.694286     -1.466399
  P       0.150683     -0.104285     -0.453458
  O       0.027317     -1.389328     -1.492297
  C       0.551920     -1.440266     -2.848960
  C       1.332090     -0.165804      0.955339
  C       1.653839     -1.399451      1.538683
  C       2.590439     -1.469310      2.573182
  C       3.190144     -0.300217      3.054994
  C       2.863881      0.934874      2.483941
  C       1.951938      1.000259      1.425883
  C      -0.830392      1.441622     -0.669574
  C      -1.224730      2.205279      0.438881
  C      -2.016186      3.344318      0.268604
  C      -2.452975      3.714769     -1.007442
  C      -2.077917      2.946710     -2.114485
  C      -1.259703      1.825771     -1.948790
  C      -1.308704     -0.902177      0.525401
  C      -2.406215     -1.442611     -0.169952
  C      -3.554635     -1.875291      0.497695
  C      -3.640798     -1.774035      1.890717
  C      -2.566337     -1.233018      2.600156
  C      -1.418750     -0.802315      1.922998
  H       2.034087     -3.022495     -2.777316
  H       2.388993     -1.712747     -3.908387
  H       2.700174     -1.749345     -0.860333
  H       3.949762     -1.466396     -2.058809
  H       3.356973      0.609957     -0.884708
  H       3.028116      0.741627     -2.625104
  H       0.464762     -0.455304     -3.315389
  H      -0.116786     -2.137307     -3.370315
  H       1.161996     -2.305139      1.188843
  H       2.842829     -2.433757      3.011152
  H       3.909234     -0.351801      3.870936
  H       3.327759      1.847612      2.854928
  H       1.724851      1.956094      0.959398
  H      -0.924529      1.912064      1.441275
  H      -2.302103      3.935105      1.137597
  H      -3.081907      4.593894     -1.137639
  H      -2.413309      3.226032     -3.112284
  H      -0.952370      1.254744     -2.820613
  H      -2.363148     -1.528518     -1.252703
  H      -4.384991     -2.292658     -0.071279
  H      -4.533801     -2.112121      2.414450
  H      -2.614937     -1.146615      3.685266
  H      -0.604323     -0.385105      2.508942
>
48
-1343.74222393; 31P isotropic shielding: 313.659919 ppm
  C       1.435528     -3.700319      0.835250
  C       0.728195     -3.597699     -0.526747
  C       1.289866     -2.520002     -1.465953
  O       1.464670     -1.224894     -0.879792
  P       0.310267     -0.354022      0.132804
  O       0.439778     -1.475921      1.359105
  C       1.603339     -2.337572      1.525001
  C       1.566906      0.972802      0.268552
  C       1.917325      1.406831      1.555987
  C       2.917235      2.367057      1.732206
  C       3.561595      2.918503      0.619842
  C       3.217597      2.488144     -0.666476
  C       2.236938      1.507572     -0.841593
  C      -0.848029     -0.245973     -1.318633
  C      -1.723006     -1.295107     -1.636813
  C      -2.624310     -1.177680     -2.700262
  C      -2.667285     -0.007122     -3.462009
  C      -1.810208      1.050680     -3.140481
  C      -0.913317      0.936501     -2.074978
  C      -1.052869      0.480473      1.189911
  C      -1.197265      1.877247      1.223977
  C      -2.291813      2.480861      1.853469
  C      -3.277732      1.696181      2.457747
  C      -3.154859      0.302807      2.426235
  C      -2.057177     -0.293597      1.799170
  H       2.433905     -4.149708      0.723593
  H       0.853027     -4.374057      1.479699
  H       0.783295     -4.564476     -1.049136
  H      -0.337197     -3.409539     -0.347260
  H       2.292386     -2.817753     -1.810886
  H       0.640558     -2.446650     -2.355533
  H       1.694955     -2.460882      2.611671
  H       2.492656     -1.820343      1.154747
  H       1.402372      0.994066      2.420654
  H       3.187308      2.688251      2.736946
  H       4.332750      3.675519      0.754770
  H       3.724017      2.905772     -1.535475
  H       2.006845      1.142367     -1.837860
  H      -1.735151     -2.203282     -1.039693
  H      -3.297175     -2.003622     -2.927329
  H      -3.368771      0.085789     -4.289350
  H      -1.842828      1.975038     -3.715950
  H      -0.274689      1.780816     -1.830371
  H      -0.450657      2.515538      0.757589
  H      -2.370663      3.567563      1.870620
  H      -4.131119      2.163359      2.947212
  H      -3.915311     -0.322668      2.893217
  H      -1.975984     -1.377845      1.795208
