34
-1421.08226258; 31P isotropic shielding: 185.108369 ppm
  C       0.132998     -0.359277      2.292088
  N      -0.550526      0.277363      1.165561
  N      -0.244761      1.673460      0.998145
  C      -1.424011      2.427980      0.572450
  N      -2.096081      2.000893     -0.673311
  N      -2.521818      0.610143     -0.639472
  P      -1.351522     -0.496462     -0.092263
  S      -1.939299     -2.304629      0.326760
  N      -0.279039     -0.353931     -1.446815
  N       0.900556     -1.150444     -1.332974
  C       2.021849     -0.511075     -0.770237
  C       2.307503      0.839019     -1.048158
  C       3.452552      1.435946     -0.514463
  C       4.334142      0.705073      0.289884
  C       4.057490     -0.642260      0.551886
  C       2.909955     -1.246170      0.035720
  C      -3.931535      0.470711     -0.246715
  H      -0.121997      0.175009      3.215621
  H      -0.207199     -1.395879      2.364959
  H       1.223965     -0.344860      2.157239
  H       0.528354      1.768627      0.326958
  H      -2.162135      2.377439      1.381461
  H      -1.116927      3.472107      0.430627
  H      -1.463739      2.096534     -1.470861
  H      -0.753598     -0.559222     -2.327418
  H       0.701083     -2.068223     -0.921779
  H       1.642052      1.397249     -1.701724
  H       3.660728      2.481372     -0.738164
  H       5.223807      1.175673      0.702567
  H       4.731429     -1.225648      1.177371
  H       2.689136     -2.288884      0.263209
  H      -4.198477     -0.589296     -0.266970
  H      -4.543010      1.020293     -0.970760
  H      -4.131128      0.865470      0.762077
>
34
-1421.08864428; 31P isotropic shielding: 192.962047 ppm
  C      -3.376653     -0.393749      2.080493
  N      -1.927539     -0.337032      1.840356
  N      -1.287069      0.734945      2.588769
  C      -1.120094      1.970508      1.794156
  N      -0.366813      1.873333      0.542925
  N      -0.944692      0.897247     -0.342704
  P      -1.288961     -0.620575      0.289403
  S      -2.299281     -1.774094     -0.910160
  N       0.243863     -1.241666      0.809046
  N       1.125724     -1.574357     -0.263598
  C       2.011151     -0.555790     -0.666513
  C       2.357377     -0.430995     -2.024009
  C       3.278967      0.535365     -2.429900
  C       3.859634      1.403557     -1.497456
  C       3.517076      1.278176     -0.146372
  C       2.605399      0.306429      0.274102
  C      -0.894635      1.265083     -1.758371
  H      -3.792251     -1.235294      1.519828
  H      -3.538122     -0.547550      3.153047
  H      -3.895082      0.526890      1.769041
  H      -0.375296      0.379595      2.884632
  H      -2.120369      2.349701      1.554196
  H      -0.604864      2.697685      2.434848
  H       0.617536      1.629454      0.712792
  H       0.135108     -2.043355      1.432104
  H       0.626753     -2.016361     -1.042522
  H       1.891784     -1.088189     -2.758274
  H       3.532180      0.620408     -3.485562
  H       4.569842      2.162422     -1.818442
  H       3.969898      1.937937      0.592533
  H       2.364651      0.186666      1.327306
  H      -1.396145      0.485866     -2.338730
  H       0.142926      1.365640     -2.107512
  H      -1.415900      2.219799     -1.900954
>
34
-1421.08866486; 31P isotropic shielding: 193.113328 ppm
  C       0.211734     -0.140860      2.201785
  N      -0.638278      0.413842      1.144746
  N      -0.447010      1.831386      0.935730
  C      -1.688067      2.468858      0.512828
  N      -2.155973      1.914839     -0.779014
  N      -2.603625      0.528984     -0.657354
  P      -1.309005     -0.456303     -0.138318
  S      -1.746368     -2.299334      0.314914
  N      -0.258959     -0.251892     -1.483328
  N       0.891250     -1.090555     -1.451744
  C       2.023936     -0.541742     -0.814788
  C       2.329470      0.826868     -0.926548
  C       3.476025      1.338571     -0.315295
  C       4.340059      0.502930      0.402369
  C       4.041480     -0.861438      0.500679
  C       2.891115     -1.382264     -0.094461
  C      -3.913005      0.343676      0.003539
  H      -0.030847     -1.200409      2.320844
  H       1.280020     -0.040163      1.963260
  H       0.000084      0.390706      3.137275
  H       0.273863      1.961050      0.214260
  H      -2.413901      2.355427      1.333352
  H      -1.487861      3.536279      0.353614
  H      -2.930692      2.447710     -1.181465
  H      -0.730507     -0.296747     -2.385838
  H       0.660883     -2.035668     -1.125685
  H       1.669303      1.468867     -1.504453
  H       3.699369      2.400620     -0.407532
  H       5.231581      0.907603      0.876754
  H       4.699752     -1.524837      1.059707
  H       2.649742     -2.439983      0.008891
  H      -3.949069      0.749972      1.025996
  H      -4.134223     -0.726270      0.045282
  H      -4.676972      0.839076     -0.610302
>
34
-1421.08246998; 31P isotropic shielding: 186.654440 ppm
  C       0.221879     -0.131598      2.207597
  N      -0.618471      0.424794      1.143954
  N      -0.419187      1.840645      0.932218
  C      -1.655818      2.483900      0.505032
  N      -2.123579      1.929536     -0.786551
  N      -2.580265      0.547028     -0.662424
  P      -1.294171     -0.445284     -0.136110
  S      -1.746026     -2.283178      0.323823
  N      -0.239631     -0.253819     -1.479436
  N       0.907816     -1.095697     -1.437558
  C       2.041362     -0.545014     -0.803975
  C       2.350589      0.821902     -0.926025
  C       3.498401      1.335050     -0.318356
  C       4.359884      0.502584      0.405985
  C       4.057518     -0.860142      0.514632
  C       2.905987     -1.382372     -0.076972
  C      -3.893999      0.372267     -0.007558
  H       1.292010     -0.034906      1.975839
  H       0.006060      0.401559      3.141270
  H      -0.025245     -1.190155      2.326150
  H       0.304086      1.964677      0.212200
  H      -2.384159      2.375798      1.324076
  H      -1.449558      3.549903      0.344095
  H      -2.893364      2.466260     -1.193254
  H      -0.708673     -0.305203     -2.382942
  H       0.674220     -2.037644     -1.104837
  H       1.692461      1.461168     -1.509237
  H       3.724742      2.395727     -0.418714
  H       5.252420      0.908392      0.877469
  H       4.713801     -1.521068      1.078897
  H       2.661937     -2.438703      0.034057
  H      -4.652643      0.865945     -0.629365
  H      -3.933688      0.787009      1.011372
  H      -4.119997     -0.696361      0.041648
>
34
-1421.08246929; 31P isotropic shielding: 186.845734 ppm
  C      -2.827724     -0.165949      2.738096
  N      -2.112460      0.415458      1.601833
  N      -1.527181      1.708972      1.894205
  C      -1.356426      2.480099      0.650902
  N      -0.497651      1.888799     -0.380287
  N      -0.932440      0.572272     -0.745860
  P      -1.281156     -0.531285      0.463562
  S      -2.151106     -2.171595     -0.120836
  N       0.258826     -0.751159      1.241140
  N       1.234338     -1.424792      0.432889
  C       2.040730     -0.577648     -0.355973
  C       2.550828      0.626956      0.164100
  C       3.388289      1.426782     -0.617169
  C       3.740263      1.041598     -1.915976
  C       3.244264     -0.163889     -2.426221
  C       2.395189     -0.964632     -1.660157
  C      -1.051068      0.341211     -2.185266
  H      -3.265606     -1.117976      2.423449
  H      -2.170457     -0.343371      3.607662
  H      -3.625028      0.522520      3.041306
  H      -0.603732      1.563249      2.326357
  H      -2.353712      2.632705      0.223612
  H      -0.917854      3.448311      0.924641
  H       0.482406      1.840790     -0.077120
  H       0.173993     -1.241033      2.133851
  H       0.805949     -2.185060     -0.106069
  H       2.303906      0.909475      1.184434
  H       3.776517      2.355762     -0.201696
  H       4.393164      1.668507     -2.519338
  H       3.505409     -0.476961     -3.435971
  H       1.992878     -1.889290     -2.073613
  H      -1.729230      1.081952     -2.628834
  H      -1.454146     -0.661621     -2.349135
  H      -0.066574      0.418842     -2.667016
>
34
-1421.08714119; 31P isotropic shielding: 193.380350 ppm
  C      -2.850858     -0.143189      2.682374
  N      -2.116748      0.407426      1.542930
  N      -1.569901      1.725096      1.796661
  C      -1.379184      2.449042      0.528657
  N      -0.480973      1.834993     -0.455122
  N      -0.880774      0.496643     -0.779843
  P      -1.237388     -0.565082      0.463999
  S      -2.060173     -2.245313     -0.073036
  N       0.288057     -0.718744      1.285191
  N       1.296516     -1.402689      0.527683
  C       2.103505     -0.570356     -0.276220
  C       2.579395      0.662720      0.208419
  C       3.417121      1.449643     -0.585462
  C       3.803409      1.023792     -1.861555
  C       3.341416     -0.209471     -2.336051
  C       2.492169     -0.998067     -1.557720
  C      -0.966741      0.209796     -2.211279
  H      -2.214154     -0.271212      3.575749
  H      -3.670177      0.539440      2.935987
  H      -3.259967     -1.116643      2.395809
  H      -0.657934      1.621463      2.264051
  H      -2.366491      2.565211      0.068110
  H      -0.965440      3.435243      0.775725
  H       0.490680      1.817203     -0.123136
  H       0.191964     -1.173629      2.195141
  H       0.897952     -2.193515      0.010421
  H       2.305528      0.978016      1.212198
  H       3.778528      2.401171     -0.197641
  H       4.456318      1.641013     -2.474846
  H       3.629270     -0.554513     -3.328003
  H       2.116188     -1.945154     -1.944423
  H      -1.343666     -0.807694     -2.344750
  H       0.024704      0.292572     -2.677726
  H      -1.652952      0.916986     -2.695491
>
34
-1421.08717642; 31P isotropic shielding: 193.589055 ppm
  C      -1.584831     -0.850825      2.763380
  N      -0.773256     -0.517291      1.577421
  N       0.073087      0.637186      1.821170
  C      -0.440003      1.887862      1.241410
  N      -0.747803      1.862633     -0.188340
  N      -1.791760      0.893325     -0.449632
  P      -1.460290     -0.710225      0.021520
  S      -2.982965     -1.906121     -0.156259
  N      -0.112786     -1.276069     -0.934638
  N       1.170272     -1.485567     -0.368430
  C       2.116952     -0.457967     -0.505120
  C       2.077886      0.444425     -1.585074
  C       3.052792      1.439647     -1.698372
  C       4.075800      1.557515     -0.751056
  C       4.118842      0.654215      0.318298
  C       3.150047     -0.342296      0.447047
  C      -2.473189      1.161376     -1.720319
  H      -2.281475     -0.042726      3.033808
  H      -2.160233     -1.757381      2.560811
  H      -0.898691     -1.025645      3.599032
  H       1.004945      0.435459      1.455603
  H      -1.357557      2.171092      1.769638
  H       0.329106      2.652367      1.408718
  H       0.097891      1.625300     -0.729916
  H      -0.402846     -2.092513     -1.471493
  H       1.124721     -1.884708      0.571003
  H       1.296931      0.340869     -2.333093
  H       3.010595      2.128778     -2.540594
  H       4.829397      2.336137     -0.845402
  H       4.907739      0.728855      1.065052
  H       3.189814     -1.039234      1.284803
  H      -2.861988      2.185161     -1.687541
  H      -3.299546      0.454446     -1.833630
  H      -1.796401      1.065020     -2.586806
>
34
-1421.08337765; 31P isotropic shielding: 188.597203 ppm
  C      -1.192239     -0.163145      2.775158
  N      -1.033746      0.620513      1.543349
  N      -1.650377      1.931961      1.643488
  C      -2.949116      2.008808      0.951993
  N      -2.970026      1.722728     -0.490425
  N      -2.464578      0.400351     -0.811015
  P      -1.044059     -0.090144     -0.008678
  S      -0.698000     -1.998651     -0.014808
  N       0.013294      1.025988     -0.770923
  N       1.341748      1.206286     -0.310661
  C       2.310107      0.180973     -0.464608
  C       2.271412     -0.722466     -1.537307
  C       3.299302     -1.652281     -1.701406
  C       4.379614     -1.694044     -0.812799
  C       4.417486     -0.790309      0.255327
  C       3.391255      0.138821      0.432260
  C      -3.534400     -0.534488     -1.182921
  H      -2.248557     -0.361581      3.016357
  H      -0.675730     -1.118030      2.653725
  H      -0.741992      0.399383      3.601137
  H      -0.999111      2.608274      1.236966
  H      -3.632047      1.306149      1.444885
  H      -3.331974      3.028755      1.088444
  H      -2.391911      2.400268     -0.993446
  H      -0.061601      1.092130     -1.782998
  H       1.325718      1.601228      0.626639
  H       1.426558     -0.725791     -2.219957
  H       3.249236     -2.356727     -2.530206
  H       5.176334     -2.422760     -0.946592
  H       5.245135     -0.813338      0.962703
  H       3.423205      0.836771      1.269638
  H      -4.263042     -0.681544     -0.370493
  H      -3.087603     -1.500005     -1.432223
  H      -4.058197     -0.132281     -2.058003
>
34
-1421.08011387; 31P isotropic shielding: 203.479506 ppm
  C      -1.156996     -0.048021      2.809415
  N      -1.014770      0.684186      1.544346
  N      -1.637826      1.995147      1.595920
  C      -2.941594      2.038167      0.911466
  N      -2.971955      1.692699     -0.517913
  N      -2.465604      0.358523     -0.786748
  P      -1.035201     -0.091083      0.023560
  S      -0.678735     -1.996350      0.094935
  N       0.008647      0.996544     -0.795747
  N       1.341438      1.199379     -0.357622
  C       2.311571      0.171756     -0.482963
  C       2.263675     -0.772405     -1.519596
  C       3.292677     -1.704943     -1.659476
  C       4.383122     -1.709263     -0.782332
  C       4.430301     -0.764750      0.249560
  C       3.403093      0.167574      0.402266
  C      -3.539732     -0.596003     -1.091514
  H      -0.635850     -1.004260      2.723496
  H      -0.702524      0.551192      3.606794
  H      -2.209830     -0.242051      3.068641
  H      -0.992677      2.659159      1.160457
  H      -3.617723      1.353268      1.437618
  H      -3.328329      3.061105      1.008939
  H      -2.397426      2.348945     -1.052145
  H      -0.077018      1.020272     -1.808841
  H       1.334111      1.629646      0.564113
  H       1.411151     -0.804003     -2.191893
  H       3.235606     -2.441088     -2.459779
  H       5.180565     -2.440461     -0.896853
  H       5.266025     -0.758058      0.947716
  H       3.442130      0.897836      1.211289
  H      -4.082065     -0.237389     -1.974136
  H      -4.251318     -0.704758     -0.258235
  H      -3.095039     -1.571513     -1.302637
>
34
-1421.08009111; 31P isotropic shielding: 203.345561 ppm
  C      -1.036367      0.271869      2.868903
  N      -0.953705      0.855027      1.523776
  N      -1.584916      2.160363      1.449015
  C      -2.908028      2.122921      0.802904
  N      -2.979160      1.616520     -0.576381
  N      -2.476656      0.260056     -0.705224
  P      -1.016311     -0.088299      0.102633
  S      -0.641335     -1.971412      0.377446
  N      -0.010589      0.903304     -0.871156
  N       1.332604      1.166829     -0.503320
  C       2.310136      0.139284     -0.537585
  C       2.242727     -0.920067     -1.454993
  C       3.278360     -1.853695     -1.517232
  C       4.394529     -1.746215     -0.679871
  C       4.460947     -0.687282      0.233068
  C       3.427520      0.247639      0.307975
  C      -3.557959     -0.723999     -0.846813
  H      -2.075809      0.109139      3.194899
  H      -0.514729     -0.687948      2.868482
  H      -0.550046      0.957148      3.572816
  H      -0.957841      2.776488      0.925680
  H      -3.565339      1.501784      1.423414
  H      -3.296908      3.149664      0.794844
  H      -2.421177      2.206425     -1.198192
  H      -0.129087      0.810512     -1.876916
  H       1.349144      1.703034      0.360982
  H       1.371197     -1.036453     -2.092683
  H       3.206268     -2.678415     -2.224540
  H       5.196824     -2.479116     -0.733216
  H       5.316944     -0.592260      0.899493
  H       3.481888      1.067668      1.024866
  H      -3.118010     -1.718376     -0.954104
  H      -4.137341     -0.475972     -1.743777
  H      -4.235073     -0.729162      0.021703
>
34
-1421.08007461; 31P isotropic shielding: 203.247883 ppm
  C      -3.551692     -0.691904      1.709592
  N      -2.207539     -0.103106      1.651617
  N      -2.173261      1.249985      2.171130
  C      -2.319635      2.266296      1.108371
  N      -1.354404      2.238572      0.006551
  N      -1.353387      0.947439     -0.650885
  P      -1.157418     -0.399877      0.350490
  S      -1.399742     -2.133366     -0.497049
  N       0.349846     -0.124778      1.160880
  N       1.314904      0.721244      0.560876
  C       2.322725      0.175269     -0.277111
  C       2.159316     -1.048077     -0.943672
  C       3.163704     -1.504176     -1.804430
  C       4.328976     -0.760815     -2.011200
  C       4.488349      0.458974     -1.340312
  C       3.496612      0.925537     -0.478454
  C      -0.869221      1.009168     -2.031841
  H      -3.498230     -1.722681      1.351153
  H      -3.883341     -0.678737      2.753808
  H      -4.283468     -0.143442      1.094918
  H      -1.277209      1.353754      2.654451
  H      -3.319786      2.151658      0.674857
  H      -2.245263      3.251712      1.586296
  H      -0.401510      2.426415      0.346935
  H       0.743007     -0.973280      1.580893
  H       1.699408      1.354931      1.260302
  H       1.253447     -1.632978     -0.807134
  H       3.025014     -2.454458     -2.317638
  H       5.104458     -1.124326     -2.682189
  H       5.391919      1.049140     -1.484926
  H       3.625949      1.875955      0.040720
  H      -0.909652      0.003600     -2.460241
  H       0.164856      1.380944     -2.089967
  H      -1.525032      1.677510     -2.602590
>
34
-1421.08270531; 31P isotropic shielding: 189.013697 ppm
  C      -3.186328      0.294206      2.460197
  N      -1.850179      0.415120      1.859715
  N      -1.380189      1.790865      1.833596
  C      -1.594271      2.448577      0.527839
  N      -1.022880      1.800364     -0.655008
  N      -1.549096      0.462261     -0.805792
  P      -1.392831     -0.548944      0.538021
  S      -2.258566     -2.280564      0.369390
  N       0.304017     -0.558696      0.853742
  N       1.038187     -1.100901     -0.219592
  C       2.241968     -0.497299     -0.602956
  C       2.632594      0.765898     -0.122122
  C       3.814328      1.354732     -0.583264
  C       4.625076      0.704082     -1.517731
  C       4.239304     -0.558887     -1.987972
  C       3.063077     -1.157300     -1.539904
  C      -1.547032     -0.006987     -2.192890
  H      -3.951892      0.853598      1.900063
  H      -3.468165     -0.761781      2.479505
  H      -3.137998      0.683459      3.483144
  H      -0.383557      1.766411      2.058901
  H      -2.674911      2.534570      0.366694
  H      -1.158874      3.453626      0.599877
  H       0.002518      1.755897     -0.582537
  H       0.547805     -0.959792      1.766227
  H       0.967410     -2.111128     -0.333555
  H       2.017979      1.265975      0.620847
  H       4.103176      2.332260     -0.199511
  H       5.543767      1.167339     -1.870699
  H       4.860912     -1.083975     -2.711662
  H       2.767449     -2.136343     -1.917129
  H      -2.152372      0.679521     -2.796648
  H      -1.987780     -1.007255     -2.221168
  H      -0.528248     -0.052311     -2.607815
>
34
-1421.08576001; 31P isotropic shielding: 195.589256 ppm
  C      -3.172223     -0.382734      2.471649
  N      -1.831866     -0.141154      1.919565
  N      -1.283704      1.137848      2.339559
  C      -1.454114      2.199871      1.326320
  N      -0.915267      1.947247     -0.012540
  N      -1.514294      0.763532     -0.586131
  P      -1.425364     -0.640230      0.347509
  S      -2.389208     -2.168186     -0.368790
  N       0.266685     -0.848861      0.619180
  N       0.979874     -1.033993     -0.580566
  C       2.204675     -0.380635     -0.760911
  C       2.994951     -0.716187     -1.879180
  C       4.191348     -0.043516     -2.121132
  C       4.628269      0.974026     -1.261699
  C       3.848273      1.300709     -0.148792
  C       2.646769      0.633025      0.108955
  C      -1.550577      0.781742     -2.049466
  H      -3.903840      0.374306      2.148632
  H      -3.516571     -1.365918      2.140208
  H      -3.100988     -0.364709      3.564833
  H      -0.291283      0.984895      2.530292
  H      -2.527483      2.393088      1.218281
  H      -0.962261      3.099168      1.718929
  H       0.105624      1.825899      0.026955
  H       0.483145     -1.544679      1.341282
  H       0.864169     -1.942252     -1.027445
  H       2.659782     -1.500560     -2.557930
  H       4.788456     -0.316295     -2.989976
  H       5.562427      1.496542     -1.455266
  H       4.177164      2.081542      0.535641
  H       2.056585      0.874736      0.988215
  H      -2.125302      1.656515     -2.376399
  H      -2.042882     -0.131179     -2.395708
  H      -0.540069      0.830497     -2.483876
>
34
-1421.08582626; 31P isotropic shielding: 195.642738 ppm
  C      -0.027833     -0.244381      2.600343
  N      -0.484218      0.281574      1.314634
  N       0.006758      1.574277      0.967339
  C      -1.081229      2.488596      0.566584
  N      -2.239799      1.831261     -0.065000
  N      -1.798968      0.679979     -0.819232
  P      -1.315790     -0.639605      0.174718
  S      -2.636481     -1.884265      0.885390
  N      -0.247867     -1.481182     -0.843699
  N       0.705999     -0.821744     -1.651539
  C       1.860030     -0.328578     -1.000732
  C       2.441677     -1.012245      0.080121
  C       3.601180     -0.513383      0.674188
  C       4.202896      0.661756      0.205345
  C       3.624484      1.340363     -0.871742
  C       2.456010      0.857323     -1.467859
  C      -2.697828      0.378476     -1.941319
  H      -0.245559      0.484829      3.390413
  H      -0.567209     -1.173268      2.811977
  H       1.053185     -0.444581      2.587198
  H       0.703595      1.495587      0.222781
  H      -1.474780      3.027852      1.439535
  H      -0.633911      3.214598     -0.126240
  H      -2.890903      1.517068      0.664851
  H      -0.501747     -2.416767     -1.144457
  H       0.269069     -0.114077     -2.244503
  H       1.973065     -1.920852      0.447793
  H       4.040684     -1.050681      1.513258
  H       5.106045      1.043715      0.676210
  H       4.074701      2.258754     -1.245041
  H       2.003146      1.394777     -2.301641
  H      -2.747795      1.259182     -2.590291
  H      -3.713316      0.113626     -1.606857
  H      -2.293793     -0.469685     -2.506827
>
34
-1421.08807675; 31P isotropic shielding: 181.468818 ppm
  C      -2.947510     -1.044973      2.294629
  N      -2.402445     -0.029862      1.387179
  N      -2.058979      1.182419      2.109036
  C      -1.906826      2.304656      1.173988
  N      -0.858981      2.176773      0.150351
  N      -0.987599      0.963585     -0.625925
  P      -1.237454     -0.476769      0.214057
  S      -1.710343     -2.063095     -0.804171
  N       0.246764     -0.690391      1.102228
  N       1.304696      0.249065      0.963637
  C       2.272057      0.058248     -0.059014
  C       2.012119     -0.718420     -1.198279
  C       2.983070     -0.820475     -2.200307
  C       4.210582     -0.162181     -2.084642
  C       4.467468      0.607104     -0.942260
  C       3.509080      0.717938      0.064407
  C      -1.506536      1.184374     -1.979655
  H      -3.235802     -1.922056      1.708838
  H      -2.219925     -1.352630      3.066645
  H      -3.829230     -0.622001      2.788636
  H      -1.178644      1.026580      2.625991
  H      -2.871609      2.437658      0.671452
  H      -1.676525      3.201408      1.763923
  H       0.069779      2.137641      0.581380
  H       0.562458     -1.661961      1.014693
  H       1.727065      0.426753      1.873816
  H       1.062767     -1.234636     -1.311166
  H       2.769982     -1.425127     -3.080430
  H       4.959374     -0.248218     -2.869225
  H       5.420827      1.121399     -0.831807
  H       3.713606      1.319530      0.950794
  H      -1.547614      0.226260     -2.504353
  H      -0.823145      1.860733     -2.505928
  H      -2.514426      1.627171     -1.969419
>
34
-1421.08193154; 31P isotropic shielding: 187.802661 ppm
  C      -0.452934      0.339685      2.697232
  N      -0.566344      0.624968      1.263102
  N      -0.680336      2.034248      0.958617
  C      -2.045883      2.418282      0.568957
  N      -2.655323      1.663987     -0.533908
  N      -2.762443      0.259001     -0.180972
  P      -1.252998     -0.466687      0.177582
  S      -1.380485     -2.331615      0.708904
  N      -0.297370     -0.259419     -1.264876
  N       0.794847      0.650503     -1.274000
  C       2.080879      0.195614     -0.877921
  C       3.202414      0.949764     -1.270596
  C       4.480311      0.575207     -0.857177
  C       4.661646     -0.554875     -0.049143
  C       3.545637     -1.304068      0.334058
  C       2.257538     -0.940086     -0.073059
  C      -3.712347     -0.431976     -1.059200
  H      -0.334907     -0.738230      2.835450
  H       0.432946      0.857153      3.082853
  H      -1.338830      0.674985      3.258289
  H      -0.021553      2.209552      0.193653
  H      -2.702742      2.304204      1.438654
  H      -2.013347      3.475081      0.273343
  H      -2.078663      1.750763     -1.386217
  H      -0.055133     -1.177609     -1.651659
  H       0.813058      1.155839     -2.158669
  H       3.066770      1.832007     -1.897219
  H       5.338765      1.167312     -1.170343
  H       5.659255     -0.846600      0.272341
  H       3.670363     -2.187112      0.958799
  H       1.403906     -1.534595      0.240751
  H      -4.683729      0.066787     -0.969562
  H      -3.798741     -1.472518     -0.734557
  H      -3.397929     -0.411253     -2.117904
>
34
-1421.08181289; 31P isotropic shielding: 187.685997 ppm
  C      -3.007640     -0.289991      2.433201
  N      -1.598962     -0.241734      2.016820
  N      -0.876048      0.854200      2.643872
  C      -0.801536      2.059212      1.790792
  N      -0.205171      1.913387      0.462319
  N      -0.888776      0.910864     -0.311358
  P      -1.151146     -0.582800      0.411511
  S      -2.294178     -1.778371     -0.615409
  N       0.435505     -1.185697      0.766393
  N       1.183897     -1.561543     -0.390251
  C       2.006888     -0.557831     -0.937375
  C       2.709568      0.338184     -0.109534
  C       3.552841      1.298122     -0.674436
  C       3.721240      1.377699     -2.061465
  C       3.035329      0.474698     -2.882613
  C       2.179566     -0.480107     -2.330985
  C      -1.018999      1.231363     -1.733493
  H      -3.037047     -0.408077      3.521994
  H      -3.563630      0.620192      2.157668
  H      -3.485914     -1.149568      1.955918
  H       0.062576      0.506282      2.850970
  H      -1.822420      2.436821      1.659654
  H      -0.210664      2.804429      2.338736
  H       0.791454      1.666969      0.519698
  H       0.404029     -1.962478      1.428404
  H       0.596460     -2.034037     -1.085241
  H       2.605532      0.253445      0.969162
  H       4.090144      1.984678     -0.021543
  H       4.378933      2.127657     -2.495377
  H       3.153003      0.523426     -3.964066
  H       1.630239     -1.163372     -2.978351
  H      -1.594228      0.437910     -2.218239
  H      -0.034403      1.311547     -2.215915
  H      -1.550343      2.185222     -1.839660
>
34
-1421.08860586; 31P isotropic shielding: 192.915034 ppm
  C      -2.444252     -1.412065      2.599585
  N      -1.746625     -0.366658      1.851008
  N      -0.988504      0.535729      2.691780
  C      -0.832983      1.841642      2.029117
  N      -0.157692      1.847963      0.727456
  N      -0.797481      0.969507     -0.208002
  P      -1.162896     -0.590824      0.274338
  S      -2.291614     -1.605401     -0.944596
  N       0.408299     -1.276623      0.565986
  N       1.189659     -1.471661     -0.622770
  C       2.005721     -0.378506     -0.983687
  C       2.144198     -0.026073     -2.337454
  C       2.998130      1.013249     -2.711075
  C       3.713853      1.729662     -1.744639
  C       3.577064      1.378247     -0.396583
  C       2.737096      0.330379     -0.012179
  C      -1.089622      1.564097     -1.511883
  H      -3.130623     -0.938473      3.311241
  H      -3.013282     -2.024824      1.894093
  H      -1.752080     -2.062810      3.162372
  H      -0.057743      0.129649      2.862873
  H      -1.836743      2.260414      1.896519
  H      -0.249397      2.481660      2.703269
  H       0.830203      1.579826      0.809419
  H       0.356030     -2.160839      1.075403
  H       0.604091     -1.804161     -1.396658
  H       1.569057     -0.562242     -3.092058
  H       3.090216      1.275785     -3.763895
  H       4.369711      2.546590     -2.037736
  H       4.137536      1.918752      0.365069
  H       2.655291      0.036139      1.031292
  H      -0.156644      1.840875     -2.021578
  H      -1.712396      2.459436     -1.385537
  H      -1.628780      0.832559     -2.119589
>
34
-1421.08720536; 31P isotropic shielding: 193.866784 ppm
  C       0.157910      0.449981      2.372631
  N      -0.773122      0.771321      1.290518
  N      -0.785521      2.168774      0.925780
  C      -2.110278      2.560392      0.433860
  N      -2.646651      1.780267     -0.690987
  N      -2.782081      0.389214     -0.311277
  P      -1.311951     -0.352582      0.160651
  S      -1.496413     -2.200936      0.733231
  N      -0.273161     -0.176665     -1.236821
  N       0.886963      0.637491     -1.137210
  C       2.117506      0.052834     -0.738889
  C       2.176505     -1.170110     -0.053335
  C       3.415121     -1.666404      0.368724
  C       4.596598     -0.965138      0.115370
  C       4.532614      0.253262     -0.574441
  C       3.306087      0.760937     -0.999419
  C      -3.676231     -0.323482     -1.229165
  H      -0.115877      1.039799      3.255624
  H       0.070790     -0.614890      2.606152
  H       1.200397      0.671082      2.099632
  H      -0.076316      2.305972      0.192930
  H      -2.823676      2.473187      1.260268
  H      -2.041011      3.606257      0.108196
  H      -2.011104      1.845523     -1.503124
  H      -0.089672     -1.082589     -1.679991
  H       0.979672      1.215202     -1.971691
  H       1.268933     -1.727817      0.162868
  H       3.447911     -2.615644      0.901081
  H       5.554915     -1.359847      0.446100
  H       5.443725      0.811191     -0.784599
  H       3.262186      1.711734     -1.531585
  H      -3.780968     -1.357283     -0.889105
  H      -3.302687     -0.322945     -2.269017
  H      -4.651814      0.174313     -1.206162
>
34
-1421.08223248; 31P isotropic shielding: 184.993144 ppm
  C       0.160465      0.473218      2.371244
  N      -0.759993      0.784283      1.277360
  N      -0.769628      2.177427      0.897329
  C      -2.094856      2.567249      0.404965
  N      -2.636337      1.776314     -0.709731
  N      -2.775057      0.389662     -0.314430
  P      -1.305703     -0.351021      0.163352
  S      -1.494008     -2.191996      0.757877
  N      -0.269471     -0.197615     -1.238828
  N       0.888512      0.621175     -1.154842
  C       2.120040      0.048088     -0.743107
  C       2.181653     -1.161879     -0.035140
  C       3.420957     -1.646065      0.398815
  C       4.600606     -0.945515      0.135242
  C       4.534089      0.259753     -0.577065
  C       3.306837      0.755365     -1.013958
  C      -3.668831     -0.330774     -1.226783
  H       0.070972     -0.589361      2.614129
  H       1.205285      0.691519      2.105218
  H      -0.120833      1.071278      3.246361
  H      -0.062714      2.303813      0.160424
  H      -2.806123      2.490922      1.234294
  H      -2.023877      3.609334      0.067742
  H      -2.002853      1.830885     -1.524268
  H      -0.083771     -1.111507     -1.664373
  H       0.980480      1.182677     -2.000366
  H       1.275583     -1.718852      0.189036
  H       3.455703     -2.585209      0.948651
  H       5.559491     -1.330737      0.475373
  H       5.443792      0.816836     -0.795401
  H       3.260845      1.696033     -1.563642
  H      -3.291712     -0.344416     -2.265279
  H      -4.642364      0.171328     -1.213099
  H      -3.778980     -1.359912     -0.874502
