18
-1930.98285147; 31P isotropic shielding: 141.329787 ppm
  Cl     -3.039870     -0.276155      1.052155
  P      -1.271392      0.132867      0.009611
  S      -1.231322      1.807102     -0.929061
  C      -0.000283     -0.164822      1.327324
  C       1.404044     -0.081846      0.791662
  C       2.034703      1.162545      0.634675
  C       3.327765      1.238359      0.113068
  C       4.003930      0.071664     -0.261015
  C       3.381646     -1.171811     -0.107788
  C       2.087667     -1.247476      0.413279
  Cl     -1.100864     -1.570380     -1.182552
  H      -0.226808     -1.144714      1.761649
  H      -0.206895      0.608600      2.077934
  H       1.505905      2.071655      0.913808
  H       3.807364      2.208622     -0.002882
  H       5.011962      0.131350     -0.667551
  H       3.903226     -2.083258     -0.394425
  H       1.603423     -2.215902      0.526407
>
18
-1930.98358679; 31P isotropic shielding: 143.556463 ppm
  Cl     -1.325121      0.071830      1.714593
  P      -1.368062      0.331184     -0.353146
  S      -2.943323      1.188632     -1.046227
  C       0.245033      1.179928     -0.718395
  C       1.489838      0.532027     -0.180162
  C       1.973455      0.867160      1.094233
  C       3.121346      0.254202      1.601481
  C       3.800737     -0.702667      0.839720
  C       3.329976     -1.037350     -0.434582
  C       2.182098     -0.423482     -0.940670
  Cl     -1.049551     -1.621812     -1.008807
  H       0.094187      2.190568     -0.318115
  H       0.250689      1.250008     -1.813533
  H       1.447347      1.609843      1.691245
  H       3.486552      0.524878      2.590590
  H       4.695656     -1.180500      1.234347
  H       3.857717     -1.775537     -1.035859
  H       1.818128     -0.688113     -1.931712
>
18
-1930.98286649; 31P isotropic shielding: 141.330376 ppm
  Cl     -2.083285     -1.583277      0.590520
  P      -1.349159      0.314277      0.066269
  S      -2.661005      1.717883     -0.005844
  C       0.050400      0.538084      1.297052
  C       1.413942      0.152217      0.803141
  C       2.221892      1.092685      0.146375
  C       3.473513      0.725682     -0.351116
  C       3.931406     -0.587611     -0.197939
  C       3.133801     -1.529410      0.460710
  C       1.882264     -1.161075      0.959083
  Cl     -0.431445     -0.138795     -1.745418
  H      -0.257869     -0.064997      2.158169
  H      -0.013276      1.597032      1.569314
  H       1.862817      2.112743      0.016697
  H       4.091549      1.463767     -0.858989
  H       4.907318     -0.874047     -0.585393
  H       3.487089     -2.551126      0.587175
  H       1.259547     -1.897233      1.464994
>
18
-1930.97863350; 31P isotropic shielding: 136.585252 ppm
  Cl     -1.271834      1.551104     -0.072825
  P      -0.942118     -0.331038     -0.911200
  S      -0.336989     -0.330738     -2.733008
  C       0.118098     -1.163743      0.363865
  C       1.498564     -0.567358      0.431220
  C       1.795787      0.426889      1.376029
  C       3.068429      1.001142      1.423045
  C       4.056386      0.590102      0.521798
  C       3.766974     -0.400449     -0.423482
  C       2.494920     -0.974623     -0.470104
  Cl     -2.788957     -1.255887     -0.572338
  H       0.133697     -2.215896      0.052695
  H      -0.420545     -1.085714      1.314562
  H       1.026566      0.751450      2.074615
  H       3.288328      1.769059      2.162578
  H       5.048124      1.037509      0.557531
  H       4.532229     -0.724872     -1.126357
  H       2.267540     -1.735840     -1.213624
>
18
-1930.98357469; 31P isotropic shielding: 143.656946 ppm
  Cl     -0.791272      0.838183      2.339312
  P      -1.270840      0.576758      0.327725
  S      -2.910516      1.402484     -0.243388
  C       0.267303      1.124976     -0.560909
  C       1.561413      0.492864     -0.130700
  C       2.329301      1.067906      0.894083
  C       3.524505      0.473048      1.304265
  C       3.967365     -0.705501      0.693845
  C       3.211848     -1.281645     -0.333296
  C       2.016782     -0.685749     -0.742416
  Cl     -1.210576     -1.501119      0.167823
  H       0.266194      2.213030     -0.417954
  H       0.035374      0.924478     -1.614596
  H       1.986689      1.983089      1.373203
  H       4.110865      0.930401      2.099243
  H       4.899124     -1.169296      1.012675
  H       3.554168     -2.194480     -0.817547
  H       1.430572     -1.137726     -1.540365
