17
-2277.44018253; 31P isotropic shielding: 153.208801 ppm
  Cl     -3.206098      1.058993     -0.598713
  C      -2.871639     -0.644777     -0.017822
  C      -1.594821     -1.228985     -0.610199
  P      -0.023719     -0.520723      0.076290
  S      -0.029856     -0.250389      1.995259
  C       0.368183      0.974635     -0.941298
  C       1.404011      1.906926     -0.327919
  Cl      3.091967      1.221666     -0.388709
  Cl      1.320139     -1.960909     -0.659595
  H      -2.814563     -0.588927      1.072226
  H      -3.741782     -1.233169     -0.320631
  H      -1.554425     -2.296725     -0.353618
  H      -1.575296     -1.148828     -1.704657
  H       0.653712      0.652244     -1.949616
  H      -0.588242      1.513621     -1.008232
  H       1.186832      2.098460      0.726335
  H       1.438896      2.850689     -0.878902
>
17
-2277.44454041; 31P isotropic shielding: 149.717711 ppm
  Cl     -2.574171      1.464351     -0.443816
  C      -2.420617     -0.354950     -0.597856
  C      -0.983308     -0.804270     -0.821331
  P       0.124828     -0.544634      0.642852
  S      -0.680170     -0.976923      2.352815
  C       0.882097      1.149675      0.581936
  C       0.970431      1.891894     -0.748308
  Cl      2.022613      1.072155     -1.995296
  Cl      1.735094     -1.774989      0.089580
  H      -2.825189     -0.766007      0.330173
  H      -3.052497     -0.634358     -1.445077
  H      -0.985838     -1.892783     -0.974417
  H      -0.529122     -0.348834     -1.709137
  H       0.245965      1.742815      1.253351
  H       1.866919      1.053366      1.054860
  H       1.415820      2.877942     -0.587813
  H      -0.011355      2.015652     -1.207615
>
17
-2277.44277368; 31P isotropic shielding: 152.308158 ppm
  Cl     -2.370378      1.098130     -1.260703
  C      -2.437717     -0.159031      0.064163
  C      -1.217386     -0.148503      0.977401
  P       0.422646     -0.726825      0.340928
  S       1.676576     -1.167897      1.750516
  C       1.085687      0.433669     -0.938457
  C       1.862151      1.612830     -0.364918
  Cl      0.786351      2.803543      0.512219
  Cl     -0.146067     -2.334974     -0.910266
  H      -3.334685      0.077238      0.643561
  H      -2.567927     -1.120835     -0.435498
  H      -1.030533      0.850300      1.390022
  H      -1.412868     -0.824100      1.822869
  H       1.778449     -0.177986     -1.533872
  H       0.263587      0.754692     -1.586375
  H       2.341794      2.180381     -1.166978
  H       2.608719      1.283969      0.362188
>
17
-2277.44497252; 31P isotropic shielding: 140.239074 ppm
  Cl     -3.687262      0.460791     -0.501780
  C      -2.205932     -0.395426      0.139071
  C      -0.950492      0.190316     -0.495171
  P       0.580662     -0.615524      0.142111
  S       0.798889     -0.636538      2.066507
  C       2.018961      0.066313     -0.805461
  C       2.598710      1.352962     -0.229617
  Cl      1.495968      2.788092     -0.485488
  Cl      0.435454     -2.511464     -0.787456
  H      -2.210508     -0.261213      1.222514
  H      -2.334089     -1.452852     -0.102103
  H      -0.965445      0.077407     -1.586004
  H      -0.848334      1.255180     -0.255463
  H       2.787278     -0.717881     -0.749307
  H       1.731637      0.181091     -1.858014
  H       3.538630      1.607432     -0.726721
  H       2.754373      1.273014      0.849282
>
17
-2277.44646148; 31P isotropic shielding: 148.742440 ppm
  Cl     -2.916669      0.707956     -1.458940
  C      -2.653856     -0.860375     -0.554974
  C      -1.902951     -0.672208      0.757955
  P      -0.087905     -0.295441      0.736128
  S       0.712273     -0.403096      2.498122
  C       0.147765      1.325260     -0.127850
  C       1.495537      1.986016      0.136055
  Cl      2.862985      1.148010     -0.728534
  Cl      0.586163     -1.708269     -0.670458
  H      -3.655254     -1.255084     -0.362462
  H      -2.123961     -1.525616     -1.239830
  H      -2.367682      0.106292      1.377024
  H      -1.957716     -1.610492      1.328891
  H      -0.046008      1.197265     -1.197181
  H      -0.643697      1.973516      0.277516
  H       1.746086      1.967752      1.199943
  H       1.488990      3.016115     -0.230603
>
17
-2277.44282145; 31P isotropic shielding: 150.590945 ppm
  Cl     -3.127703      1.130003     -0.308087
  C      -2.848377     -0.638798      0.067742
  C      -1.640039     -1.200348     -0.669565
  P      -0.006128     -0.582935     -0.041054
  S       0.183258     -0.676539      1.878444
  C       0.311824      1.033075     -0.889744
  C       1.767320      1.464006     -1.045615
  Cl      2.555959      1.910792      0.531503
  Cl      1.260568     -1.857515     -1.170805
  H      -2.722541     -0.707324      1.151320
  H      -3.762637     -1.154465     -0.238185
  H      -1.605013     -2.285796     -0.499448
  H      -1.705001     -1.030139     -1.751130
  H      -0.128476      0.939411     -1.893210
  H      -0.268182      1.781175     -0.337843
  H       1.818057      2.358526     -1.673028
  H       2.379811      0.676172     -1.489696
>
17
-2277.44261164; 31P isotropic shielding: 149.616228 ppm
  Cl     -3.490188      0.767038     -0.592088
  C      -1.772152      0.222952     -0.903006
  C      -1.087067     -0.118580      0.413697
  P       0.634469     -0.773029      0.275174
  S       1.518782     -1.091401      1.965994
  C       1.610400      0.252145     -0.919883
  C       2.148575      1.552288     -0.334733
  Cl      0.820321      2.776022     -0.038800
  Cl      0.319104     -2.474668     -0.940990
  H      -1.840132     -0.639019     -1.569692
  H      -1.285906      1.057266     -1.412759
  H      -1.009694      0.764535      1.057830
  H      -1.640893     -0.891531      0.960506
  H       2.461548     -0.386355     -1.195839
  H       1.018003      0.427062     -1.825920
  H       2.844234      2.031253     -1.028897
  H       2.635695      1.386623      0.629505
>
17
-2277.44560266; 31P isotropic shielding: 151.293522 ppm
  Cl     -3.429869      0.831948     -0.506804
  C      -1.833477      0.438366      0.293889
  C      -0.993031     -0.420371     -0.647122
  P       0.658413     -0.863786      0.070337
  S       0.746233     -0.976217      2.003426
  C       1.981238      0.187856     -0.693807
  C       2.144514      1.569755     -0.076265
  Cl      0.790701      2.701262     -0.558420
  Cl      1.055106     -2.647983     -0.989963
  H      -1.360874      1.393921      0.521341
  H      -2.066601     -0.090274      1.219280
  H      -1.504894     -1.366280     -0.855708
  H      -0.815586      0.090162     -1.601171
  H       2.906192     -0.381223     -0.523464
  H       1.814437      0.242080     -1.776562
  H       3.064326      2.043852     -0.428859
  H       2.142572      1.526331      1.016071
>
17
-2277.44501562; 31P isotropic shielding: 146.844865 ppm
  Cl     -2.944286     -1.943007      0.074243
  C      -2.976023     -0.140868     -0.179773
  C      -1.784689      0.362787     -0.987833
  P      -0.175669      0.405794     -0.063121
  S      -0.318323      0.967723      1.787520
  C       0.885551      1.495928     -1.126283
  C       2.143760      2.028001     -0.448394
  Cl      3.435193      0.758742     -0.262444
  Cl      0.613489     -1.496253     -0.406295
  H      -3.910010      0.075951     -0.705484
  H      -2.994093      0.313051      0.814916
  H      -1.652393     -0.207151     -1.915294
  H      -1.980409      1.413202     -1.254064
  H       1.118823      0.971417     -2.060728
  H       0.244382      2.358288     -1.366589
  H       1.921798      2.395412      0.557358
  H       2.587398      2.827883     -1.047636
>
17
-2277.44062176; 31P isotropic shielding: 160.192095 ppm
  Cl     -3.229586     -1.822725     -0.171711
  C      -3.033077     -0.014524     -0.245926
  C      -1.720792      0.401370     -0.900441
  P      -0.213593      0.130864      0.143892
  S      -0.441953      0.468818      2.038102
  C       1.084829      1.141394     -0.697509
  C       2.446522      0.999545     -0.029034
  Cl      3.672203      2.063753     -0.868115
  Cl      0.409929     -1.807288     -0.381576
  H      -3.882653      0.362735     -0.821666
  H      -3.091049      0.346159      0.784723
  H      -1.576439     -0.086953     -1.871425
  H      -1.748792      1.490373     -1.064186
  H       1.128022      0.838235     -1.751176
  H       0.740903      2.182933     -0.643858
  H       2.828626     -0.021283     -0.093562
  H       2.416799      1.317393      1.014969
>
17
-2277.44358079; 31P isotropic shielding: 160.577556 ppm
  Cl     -4.237522     -0.113024     -0.677209
  C      -2.606316      0.293683      0.040830
  C      -1.534233     -0.626908     -0.533803
  P       0.142309     -0.244448      0.145916
  S       0.237650     -0.060662      2.073243
  C       0.706951      1.239501     -0.813061
  C       1.887990      1.984684     -0.202960
  Cl      3.451965      1.071082     -0.383583
  Cl      1.235711     -1.817106     -0.705630
  H      -2.430642      1.346700     -0.195339
  H      -2.698135      0.176165      1.121897
  H      -1.743731     -1.670888     -0.274249
  H      -1.483332     -0.553153     -1.627754
  H       0.905425      0.939389     -1.848741
  H      -0.160343      1.918335     -0.813994
  H       1.742540      2.141112      0.869495
  H       2.034613      2.945337     -0.704259
>
17
-2277.44272126; 31P isotropic shielding: 161.902403 ppm
  Cl     -2.372567      0.949853     -1.449110
  C      -2.467370     -0.134758      0.022517
  C      -1.237566     -0.057176      0.917698
  P       0.397359     -0.683389      0.301829
  S       1.603705     -1.199053      1.720069
  C       1.073242      0.499151     -0.959168
  C       0.930242      1.989131     -0.653962
  Cl      1.647495      2.492808      0.945867
  Cl     -0.192266     -2.278757     -0.972929
  H      -3.353962      0.196310      0.570501
  H      -2.626115     -1.143515     -0.362562
  H      -1.052809      0.964968      1.273625
  H      -1.424625     -0.673098      1.808971
  H       2.127023      0.215303     -1.067011
  H       0.557133      0.300166     -1.906508
  H      -0.116175      2.296498     -0.632981
  H       1.456457      2.570959     -1.416046
>
17
-2277.44060010; 31P isotropic shielding: 155.645421 ppm
  Cl     -2.710507      1.008436     -1.297849
  C      -2.726456     -0.612069     -0.453826
  C      -1.967357     -0.598539      0.868693
  P      -0.115775     -0.579207      0.865628
  S       0.649244     -0.871715      2.621391
  C       0.474209      0.928809     -0.015652
  C       1.996428      1.016942     -0.010049
  Cl      2.533948      2.544655     -0.855844
  Cl      0.307756     -2.077978     -0.571171
  H      -3.781409     -0.839510     -0.277767
  H      -2.311775     -1.334930     -1.159585
  H      -2.276512      0.246241      1.498062
  H      -2.205965     -1.517053      1.424823
  H       0.074731      0.916724     -1.034232
  H       0.033594      1.782874      0.515356
  H       2.455402      0.186786     -0.551847
  H       2.397246      1.059934      1.004070
>
17
-2277.44467250; 31P isotropic shielding: 149.218115 ppm
  Cl     -3.301505      0.851569     -1.027347
  C      -1.898362      0.624075      0.120129
  C      -0.930182     -0.412148     -0.441829
  P       0.474828     -0.723233      0.710797
  S      -0.027342     -1.318550      2.483756
  C       1.621529      0.731400      0.739487
  C       2.185209      1.262975     -0.574223
  Cl      0.963101      2.242436     -1.519305
  Cl      1.603527     -2.087370     -0.444147
  H      -1.433640      1.607352      0.222006
  H      -2.320930      0.307030      1.075479
  H      -1.427212     -1.382398     -0.561788
  H      -0.530682     -0.097675     -1.411211
  H       1.106235      1.520949      1.300941
  H       2.452687      0.384909      1.370672
  H       2.521568      0.461908     -1.236274
  H       3.016170      1.946371     -0.379943
>
17
-2277.44473899; 31P isotropic shielding: 152.274442 ppm
  Cl     -4.263381     -0.375714     -0.770356
  C      -2.671025     -0.757981      0.037493
  C      -1.584432      0.176195     -0.481027
  P       0.038061     -0.122447      0.346762
  S       0.028978     -0.088638      2.283017
  C       1.209571      1.037847     -0.483056
  C       2.637103      0.868680      0.022474
  Cl      3.735902      2.081714     -0.787293
  Cl      0.605170     -1.963960     -0.529053
  H      -2.825847     -0.638929      1.111554
  H      -2.452611     -1.803671     -0.189799
  H      -1.445181      0.062187     -1.562954
  H      -1.843804      1.221997     -0.267451
  H       1.149361      0.871756     -1.565580
  H       0.840534      2.048186     -0.260617
  H       3.039121     -0.118675     -0.214694
  H       2.708678      1.047452      1.097078
>
17
-2277.44581342; 31P isotropic shielding: 159.755859 ppm
  Cl     -4.116591     -0.248757     -0.985709
  C      -2.289132     -0.162983     -1.006646
  C      -1.745661     -0.172318      0.417154
  P       0.094463     -0.061456      0.577070
  S       0.740940     -0.112719      2.400468
  C       0.571817      1.452257     -0.383368
  C       1.965139      1.988453     -0.074023
  Cl      3.278972      0.944883     -0.779716
  Cl      0.702402     -1.645384     -0.664351
  H      -1.946980     -1.026188     -1.579844
  H      -2.043106      0.755007     -1.546217
  H      -2.138660      0.672998      0.997269
  H      -2.031810     -1.091845      0.941263
  H       0.445065      1.261652     -1.455308
  H      -0.164430      2.213667     -0.079307
  H       2.142913      2.024608      1.004082
  H       2.096759      2.983026     -0.508917
>
17
-2277.44191160; 31P isotropic shielding: 163.619332 ppm
  Cl     -2.554075     -0.171944     -1.913140
  C      -2.872823      0.091624     -0.137464
  C      -1.935040     -0.682908      0.785141
  P      -0.113586     -0.301085      0.766923
  S       0.741269     -0.584408      2.485641
  C       0.049731      1.418367      0.094401
  C       1.405270      2.070693      0.343810
  Cl      2.713605      1.400484     -0.729731
  Cl      0.571978     -1.518933     -0.784196
  H      -2.814327      1.171001      0.023961
  H      -3.904594     -0.230555      0.030788
  H      -2.239275     -0.481594      1.822387
  H      -2.021603     -1.763576      0.622463
  H      -0.220190      1.420051     -0.967515
  H      -0.705410      2.003250      0.643431
  H       1.736215      1.911079      1.373671
  H       1.354754      3.141654      0.128930
>
17
-2277.43823910; 31P isotropic shielding: 163.349014 ppm
  Cl     -3.035578     -1.866725     -0.347631
  C      -2.955446     -0.090865      0.047108
  C      -1.868313      0.629952     -0.740422
  P      -0.136917      0.289950     -0.164333
  S       0.066859      0.087169      1.745135
  C       0.827244      1.617047     -1.023189
  C       2.349682      1.484662     -0.972695
  Cl      3.052042      2.062787      0.603132
  Cl      0.447648     -1.367012     -1.334175
  H      -3.939646      0.319903     -0.194059
  H      -2.773748     -0.020862      1.123174
  H      -1.940175      0.422718     -1.814687
  H      -1.998707      1.713727     -0.590177
  H       0.504792      1.587232     -2.074764
  H       0.509092      2.576264     -0.594814
  H       2.805819      2.105148     -1.748680
  H       2.674951      0.449805     -1.105323
>
17
-2277.43944968; 31P isotropic shielding: 162.627466 ppm
  Cl     -2.710288      1.131992     -1.081802
  C      -2.505074     -0.651054     -0.729907
  C      -1.041543     -1.069483     -0.662326
  P      -0.139286     -0.421202      0.817243
  S      -1.122595     -0.562107      2.480967
  C       0.518256      1.280765      0.499835
  C       1.646322      1.487892     -0.503482
  Cl      1.139315      1.223599     -2.239338
  Cl      1.618310     -1.591022      0.693645
  H      -3.018723     -0.835485      0.216810
  H      -3.014412     -1.174928     -1.543324
  H      -0.999974     -2.162745     -0.554537
  H      -0.488610     -0.789550     -1.564787
  H      -0.360468      1.888193      0.251770
  H       0.874086      1.603238      1.489251
  H       2.483701      0.810703     -0.324949
  H       1.996183      2.523096     -0.458069
>
17
-2277.44496278; 31P isotropic shielding: 140.294389 ppm
  Cl     -3.138418     -1.006253     -0.002353
  C      -2.045949     -0.047175     -1.097539
  C      -1.102343      0.885251     -0.347955
  P       0.149238      0.111929      0.779704
  S      -0.425063     -0.316694      2.574735
  C       1.640235      1.222343      0.770224
  C       2.540251      1.311185     -0.457311
  Cl      1.796813      2.241373     -1.848076
  Cl      0.835365     -1.519400     -0.385538
  H      -1.497303     -0.773084     -1.701370
  H      -2.703678      0.539730     -1.745066
  H      -0.536250      1.465306     -1.088974
  H      -1.663016      1.582840      0.287375
  H       1.275650      2.214387      1.070010
  H       2.239537      0.838399      1.608120
  H       2.793099      0.326031     -0.853485
  H       3.456934      1.853530     -0.209601
