34
-1098.70919432; 31P isotropic shielding: 234.040563 ppm
  C      -2.659128      2.454062      1.401733
  C      -2.198326      2.461663     -0.051589
  O      -1.145099      1.471615     -0.283089
  P      -1.541382     -0.038187     -0.729265
  O      -2.708940     -0.136765     -1.648681
  C       0.051833     -0.638883     -1.280118
  Sn      1.731779     -0.027807      0.027208
  C       2.348491      1.964047     -0.606836
  C       3.331094     -1.481141     -0.319877
  C       1.118865     -0.055321      2.115866
  O      -1.788549     -0.784119      0.699716
  C      -2.862738     -1.766116      0.835851
  C      -2.442388     -3.134643      0.311647
  H      -3.135752      1.502329      1.661498
  H      -1.811339      2.612068      2.079825
  H      -3.386403      3.261940      1.562531
  H      -3.026172      2.259877     -0.742803
  H      -1.742951      3.422264     -0.319313
  H       0.011516     -1.732606     -1.332350
  H       0.244216     -0.248942     -2.286861
  H       1.489306      2.637196     -0.527853
  H       2.692518      1.936564     -1.646750
  H       3.162043      2.332244      0.028024
  H       3.607161     -1.490532     -1.380254
  H       2.994965     -2.483033     -0.029759
  H       4.213110     -1.216986      0.274608
  H       0.320134      0.676901      2.262591
  H       1.972143      0.190602      2.757787
  H       0.739572     -1.048400      2.375661
  H      -3.749227     -1.397934      0.306148
  H      -3.072410     -1.798738      1.911484
  H      -2.280828     -3.102964     -0.772819
  H      -1.520977     -3.475178      0.801102
  H      -3.232737     -3.870680      0.513837
>
34
-1098.70855676; 31P isotropic shielding: 232.402557 ppm
  C      -2.620210      2.867924      0.385904
  C      -1.920026      2.516593     -0.922365
  O      -0.953570      1.431257     -0.747315
  P      -1.457922     -0.111963     -0.804058
  O      -2.578998     -0.365895     -1.751346
  C       0.101410     -0.953312     -1.048104
  Sn      1.748476     -0.149509      0.195037
  C       1.014967      0.450219      2.154899
  C       2.601997      1.539620     -0.886456
  C       3.212221     -1.765270      0.386534
  O      -1.843064     -0.435876      0.746399
  C      -3.056978     -1.187471      1.059150
  C      -2.832584     -2.689552      0.929159
  H      -3.263977      3.745436      0.234180
  H      -3.245906      2.039827      0.736864
  H      -1.889420      3.105609      1.168731
  H      -2.637457      2.220984     -1.697866
  H      -1.324516      3.359153     -1.292360
  H      -0.039079     -2.016392     -0.822566
  H       0.393489     -0.854739     -2.100494
  H       0.311092      1.278494      2.034670
  H       1.855123      0.765504      2.783827
  H       0.496560     -0.388692      2.628936
  H       1.806146      2.263496     -1.087568
  H       3.032419      1.201113     -1.835496
  H       3.387280      2.016180     -0.289106
  H       4.082752     -1.416472      0.953657
  H       3.542520     -2.092520     -0.605706
  H       2.763988     -2.616013      0.912071
  H      -3.863630     -0.853481      0.395957
  H      -3.298404     -0.906888      2.091138
  H      -1.989928     -3.015174      1.552490
  H      -3.731379     -3.231485      1.254593
  H      -2.632689     -2.962206     -0.114288
>
34
-1098.70857694; 31P isotropic shielding: 232.300025 ppm
  C      -3.067691      1.871874      1.760577
  C      -2.687435      2.283148      0.342202
  O      -1.463553      1.620825     -0.105208
  P      -1.533372      0.133511     -0.745502
  O      -2.754493     -0.143058     -1.552910
  C       0.082279      0.033988     -1.502936
  Sn      1.740877      0.036987     -0.034692
  C       3.485148      0.840055     -1.082970
  C       2.076080     -2.041994      0.535677
  C       1.251770      1.250517      1.704604
  O      -1.388299     -0.869096      0.538793
  C      -2.367380     -1.931090      0.760537
  C      -2.026550     -3.174922     -0.050634
  H      -3.348535      0.813587      1.807647
  H      -2.232910      2.040130      2.451666
  H      -3.926039      2.468237      2.099631
  H      -3.489140      2.058734     -0.372662
  H      -2.456293      3.353375      0.290043
  H       0.137780     -0.912503     -2.054093
  H       0.202991      0.860424     -2.211633
  H       4.360543      0.822694     -0.424041
  H       3.291485      1.873962     -1.389737
  H       3.698070      0.237725     -1.973184
  H       2.197072     -2.662679     -0.359193
  H       1.212488     -2.396769      1.106715
  H       2.977851     -2.127824      1.152105
  H       1.005340      2.268116      1.387660
  H       2.105882      1.274963      2.390592
  H       0.384934      0.811291      2.206142
  H      -3.366081     -1.558887      0.503204
  H      -2.324512     -2.128951      1.838302
  H      -1.011494     -3.524245      0.176182
  H      -2.731373     -3.982951      0.189898
  H      -2.102537     -2.964074     -1.123781
>
34
-1098.70849917; 31P isotropic shielding: 232.277041 ppm
  C      -2.321571      3.232900      0.407124
  C      -2.774579      1.899054      0.989904
  O      -1.737177      0.877007      0.861336
  P      -1.571453      0.052066     -0.534492
  O      -2.786459      0.114512     -1.393962
  C      -0.007290      0.592325     -1.217328
  Sn      1.746297      0.054081      0.021392
  C       2.284700     -1.997676     -0.478312
  C       1.274057      0.273758      2.135126
  C       3.344533      1.434586     -0.553980
  O      -1.164847     -1.426665     -0.005004
  C      -2.225016     -2.327032      0.457535
  C      -2.717446     -3.210878     -0.680730
  H      -1.376302      3.557660      0.860357
  H      -2.189739      3.158859     -0.679421
  H      -3.080546      4.002897      0.602868
  H      -2.954814      1.975645      2.068616
  H      -3.685716      1.542375      0.495535
  H       0.118267      0.132990     -2.205328
  H      -0.042791      1.680007     -1.345500
  H       3.136417     -2.327427      0.126923
  H       2.553046     -2.066393     -1.538427
  H       1.422955     -2.642507     -0.280971
  H       0.926573      1.292790      2.331375
  H       2.165134      0.068504      2.738907
  H       0.477705     -0.427752      2.399170
  H       3.042732      2.466042     -0.339671
  H       3.555660      1.339956     -1.625036
  H       4.256779      1.207611      0.009386
  H      -3.043826     -1.734431      0.886307
  H      -1.766786     -2.914667      1.261793
  H      -3.472367     -3.915970     -0.305415
  H      -3.167501     -2.598874     -1.469807
  H      -1.887829     -3.788954     -1.106971
>
34
-1098.70852779; 31P isotropic shielding: 232.262673 ppm
  C      -1.522325      3.740447     -0.508887
  C      -2.166777      2.368730     -0.389413
  O      -1.123534      1.363191     -0.579166
  P      -1.552284     -0.186925     -0.799899
  O      -2.659148     -0.411988     -1.769724
  C       0.048349     -0.913499     -1.137360
  Sn      1.667577     -0.141505      0.159094
  C       0.925200      0.234977      2.170909
  C       2.423335      1.679828     -0.770376
  C       3.215338     -1.689192      0.190418
  O      -1.921479     -0.657215      0.716599
  C      -3.045396     -1.562790      0.948569
  C      -2.641109     -3.018048      0.743454
  H      -2.279730      4.522309     -0.364075
  H      -0.739664      3.874284      0.248271
  H      -1.074241      3.872819     -1.501294
  H      -2.613387      2.219447      0.603980
  H      -2.943387      2.216540     -1.149921
  H      -0.031513     -1.999623     -1.016753
  H       0.315654     -0.700635     -2.179455
  H       1.748720      0.562539      2.815293
  H       0.482058     -0.678461      2.579073
  H       0.156786      1.011885      2.128098
  H       3.205380      2.128196     -0.147538
  H       1.595803      2.386577     -0.883389
  H       2.841796      1.450943     -1.756838
  H       4.074478     -1.349340      0.779838
  H       3.548903     -1.906941     -0.830388
  H       2.817995     -2.606655      0.639048
  H      -3.868115     -1.284351      0.279743
  H      -3.343934     -1.373723      1.986486
  H      -1.778327     -3.277031      1.370469
  H      -3.475367     -3.679730      1.014465
  H      -2.388255     -3.207560     -0.307033
>
34
-1098.70881582; 31P isotropic shielding: 234.662053 ppm
  C      -1.843986      3.629678     -1.071159
  C      -2.094969      2.476838     -0.110504
  O      -1.080560      1.443888     -0.328675
  P      -1.547513     -0.071722     -0.669220
  O      -2.695620     -0.187581     -1.610810
  C       0.023364     -0.794854     -1.131538
  Sn      1.707477     -0.172984      0.164281
  C       1.048606      0.004284      2.231273
  C       2.450373      1.723546     -0.611772
  C       3.230755     -1.732926     -0.027606
  O      -1.871332     -0.675571      0.809867
  C      -2.992090     -1.594916      0.998075
  C      -2.619547     -3.021706      0.611644
  H      -2.563166      4.438630     -0.882640
  H      -0.831079      4.031763     -0.943131
  H      -1.960662      3.295729     -2.109026
  H      -2.002971      2.791043      0.937183
  H      -3.091954      2.046563     -0.266640
  H      -0.075375     -1.885771     -1.102882
  H       0.255755     -0.495881     -2.160788
  H       0.620650     -0.946062      2.564840
  H       0.279368      0.779002      2.294139
  H       1.897108      0.269217      2.871894
  H       1.626270      2.443294     -0.623862
  H       2.828107      1.588621     -1.631445
  H       3.260251      2.103765      0.020699
  H       4.116704     -1.466525      0.559982
  H       3.521931     -1.846026     -1.077918
  H       2.836601     -2.687797      0.338172
  H      -3.845617     -1.238281      0.409650
  H      -3.233363     -1.520659      2.064926
  H      -1.728374     -3.356068      1.158150
  H      -3.447654     -3.702220      0.853491
  H      -2.426987     -3.095812     -0.465750
>
34
-1098.70736126; 31P isotropic shielding: 233.451246 ppm
  C      -1.579274      3.732186     -0.374334
  C      -2.201397      2.348725     -0.275524
  O      -1.153262      1.363701     -0.533406
  P      -1.571584     -0.184526     -0.785754
  O      -2.707628     -0.394719     -1.724711
  C       0.024839     -0.882011     -1.196568
  Sn      1.678591     -0.132103      0.068332
  C       0.997820      0.168007      2.114446
  C       2.378444      1.728916     -0.826674
  C       3.246363     -1.658105     -0.003376
  O      -1.884133     -0.704500      0.727038
  C      -2.997661     -1.619173      0.971464
  C      -2.610431     -3.063998      0.679277
  H      -1.173917      3.904722     -1.378844
  H      -2.339636      4.498214     -0.171909
  H      -0.768155      3.850627      0.354932
  H      -2.609916      2.162572      0.728001
  H      -3.002595      2.209070     -1.012583
  H      -0.041050     -1.972049     -1.106033
  H       0.254195     -0.636052     -2.240440
  H       1.831839      0.509093      2.737956
  H       0.602143     -0.770230      2.515222
  H       0.201686      0.917570      2.118059
  H       1.536666      2.424661     -0.892241
  H       2.768766      1.536289     -1.832214
  H       3.172602      2.171463     -0.215216
  H       3.550465     -1.836819     -1.040763
  H       2.876736     -2.595769      0.426696
  H       4.118727     -1.324549      0.570003
  H      -3.851975     -1.308949      0.358478
  H      -3.243464     -1.478018      2.030618
  H      -3.433954     -3.735360      0.959143
  H      -2.409748     -3.204350     -0.389944
  H      -1.719907     -3.354438      1.251369
>
34
-1098.70879815; 31P isotropic shielding: 234.632823 ppm
  C      -3.997782      1.822080      0.973019
  C      -2.595743      2.193351      0.507800
  O      -1.690428      1.045666      0.584833
  P      -1.526536      0.064281     -0.707311
  O      -2.710442      0.081892     -1.609855
  C       0.075328      0.473544     -1.394093
  Sn      1.768062     -0.029820     -0.059174
  C       3.451394      1.206796     -0.713887
  C       2.218587     -2.143776     -0.338897
  C       1.262610      0.424883      2.009539
  O      -1.199874     -1.362688     -0.011258
  C      -2.294858     -2.171299      0.529226
  C      -2.384556     -2.011903      2.041838
  H      -4.638456      2.715172      0.975028
  H      -4.437842      1.079937      0.298024
  H      -3.973612      1.415083      1.991970
  H      -2.616793      2.576673     -0.520613
  H      -2.143469      2.951544      1.158764
  H       0.204774     -0.068356     -2.338578
  H       0.092028      1.548535     -1.609979
  H       3.675739      1.009903     -1.768222
  H       4.339401      0.979256     -0.113183
  H       3.204510      2.267769     -0.593921
  H       2.498526     -2.331498     -1.381480
  H       1.327846     -2.729821     -0.093014
  H       3.046978     -2.445235      0.311903
  H       0.433913     -0.212950      2.328427
  H       0.954762      1.471964      2.092100
  H       2.133935      0.249432      2.650526
  H      -2.056418     -3.204231      0.249077
  H      -3.227995     -1.884519      0.028214
  H      -3.181457     -2.657429      2.436545
  H      -1.440366     -2.300412      2.520565
  H      -2.608667     -0.974725      2.313466
>
34
-1098.70838423; 31P isotropic shielding: 229.743581 ppm
  C      -2.077384      3.020243      1.706213
  C      -2.517607      1.703307      1.087236
  O      -1.404920      1.186208      0.292891
  P      -1.645733     -0.125426     -0.633146
  O      -2.883927     -0.106002     -1.459309
  C      -0.060550     -0.228961     -1.458030
  Sn      1.664537      0.172334     -0.130311
  C       3.390768     -0.794500     -1.066471
  C       1.313414     -0.658942      1.851004
  C       1.935540      2.333722     -0.057571
  O      -1.627611     -1.327399      0.468227
  C      -2.553116     -2.451976      0.338415
  C      -2.024105     -3.501214     -0.632325
  H      -2.889809      3.434703      2.317838
  H      -1.199763      2.877260      2.348813
  H      -1.824741      3.750212      0.927369
  H      -2.767030      0.960991      1.858752
  H      -3.386942      1.831373      0.429757
  H       0.037772     -1.230430     -1.891676
  H      -0.041304      0.503932     -2.273611
  H       3.537992     -0.403591     -2.079469
  H       3.227475     -1.876738     -1.121847
  H       4.294214     -0.602098     -0.476681
  H       1.102961     -1.729777      1.770693
  H       0.449622     -0.161865      2.301162
  H       2.198393     -0.505556      2.478744
  H       1.007423      2.790518      0.298629
  H       2.167485      2.716447     -1.057700
  H       2.755762      2.591802      0.621510
  H      -3.528837     -2.072072      0.013796
  H      -2.641974     -2.855418      1.354004
  H      -1.023907     -3.841841     -0.335263
  H      -2.695022     -4.371290     -0.644344
  H      -1.976377     -3.098155     -1.651403
>
34
-1098.70878459; 31P isotropic shielding: 234.633778 ppm
  C      -2.482548      3.218325     -0.229614
  C      -2.866013      1.982093      0.575470
  O      -1.763645      1.024365      0.642378
  P      -1.534755     -0.042228     -0.569419
  O      -2.723170     -0.173740     -1.457648
  C       0.039218      0.410268     -1.292318
  Sn      1.765636      0.051684      0.047681
  C       3.335197      1.421717     -0.624008
  C       2.363846     -2.026702     -0.235495
  C       1.223809      0.452324      2.118436
  O      -1.110013     -1.386909      0.234939
  C      -2.151066     -2.195750      0.871498
  C      -2.683339     -3.256483     -0.083583
  H      -3.296915      3.955094     -0.194531
  H      -1.575781      3.685630      0.175399
  H      -2.309641      2.957623     -1.281177
  H      -3.079424      2.235267      1.620787
  H      -3.741132      1.486093      0.139694
  H       0.183139     -0.174476     -2.208846
  H       0.000635      1.471438     -1.562835
  H       3.565446      1.238022     -1.679509
  H       4.244706      1.273854     -0.030597
  H       3.000114      2.458580     -0.506958
  H       1.461189     -2.628287     -0.382636
  H       2.898336     -2.390014      0.649198
  H       3.013865     -2.122934     -1.112008
  H       0.683851     -0.413744      2.513604
  H       0.566827      1.325509      2.165631
  H       2.124128      0.628971      2.717072
  H      -2.954781     -1.538014      1.229177
  H      -1.664334     -2.645134      1.745314
  H      -1.870018     -3.906866     -0.429730
  H      -3.427747     -3.879686      0.431592
  H      -3.156022     -2.786288     -0.952558
>
34
-1098.70842250; 31P isotropic shielding: 231.978797 ppm
  C      -3.005574      3.365061      0.550632
  C      -3.620137      1.983946      0.352457
  O      -2.755335      0.924364      0.869906
  P      -1.479964      0.417035     -0.009685
  O      -1.620526      0.718759     -1.462712
  C       0.023314      1.001910      0.757755
  Sn      1.771467     -0.188317      0.087842
  C       1.464453     -0.856628     -1.962804
  C       1.953191     -1.857439      1.479186
  C       3.501458      1.142333      0.236058
  O      -1.419278     -1.149351      0.401238
  C      -2.464985     -2.056681     -0.075042
  C      -2.093699     -2.659986     -1.424071
  H      -2.744671      3.530185      1.603565
  H      -2.103551      3.482104     -0.062258
  H      -3.723389      4.139182      0.245914
  H      -4.552051      1.878161      0.920253
  H      -3.819856      1.789904     -0.708107
  H       0.173533      2.048296      0.471133
  H      -0.047745      0.934084      1.849163
  H       0.675775     -0.248548     -2.415806
  H       1.152578     -1.905796     -1.961880
  H       2.394686     -0.755032     -2.532078
  H       1.002756     -2.400196      1.496048
  H       2.176493     -1.487305      2.486012
  H       2.754951     -2.533438      1.161716
  H       3.375475      1.991187     -0.445368
  H       4.414924      0.601252     -0.035606
  H       3.601447      1.517384      1.260761
  H      -3.418230     -1.513789     -0.125202
  H      -2.549593     -2.823760      0.703646
  H      -2.000116     -1.875460     -2.182333
  H      -1.142850     -3.203141     -1.357449
  H      -2.872349     -3.368480     -1.739783
>
34
-1098.70871868; 31P isotropic shielding: 232.379935 ppm
  C      -2.952511      3.305492     -1.087477
  C      -2.203405      2.653121      0.067377
  O      -1.163982      1.747922     -0.426704
  P      -1.526179      0.189352     -0.663804
  O      -2.789520     -0.082819     -1.404353
  C       0.021125     -0.400829     -1.342277
  Sn      1.715024     -0.293554      0.077914
  C       1.561798      1.468536      1.345850
  C       3.530088     -0.221084     -1.141271
  C       1.683453     -2.112715      1.282085
  O      -1.555776     -0.405292      0.859916
  C      -2.601236     -1.349656      1.254915
  C      -2.300472     -2.762547      0.768756
  H      -3.687639      4.022619     -0.695859
  H      -2.256405      3.846926     -1.740395
  H      -3.477370      2.548031     -1.679539
  H      -1.667958      3.392453      0.674651
  H      -2.885786      2.099120      0.726229
  H      -0.115711     -1.452071     -1.623070
  H       0.256903      0.169407     -2.248007
  H       1.478528      2.364835      0.723991
  H       2.448399      1.545107      1.985198
  H       0.665366      1.378914      1.966407
  H       4.414684     -0.200437     -0.494660
  H       3.524530      0.680141     -1.764591
  H       3.583647     -1.102890     -1.789488
  H       1.586926     -2.992707      0.636477
  H       0.831880     -2.072694      1.968388
  H       2.609825     -2.197102      1.861308
  H      -3.561988     -0.997818      0.861617
  H      -2.618672     -1.297436      2.349899
  H      -1.320786     -3.103249      1.125122
  H      -3.064927     -3.455517      1.146770
  H      -2.318853     -2.805358     -0.326974
>
34
-1098.70817954; 31P isotropic shielding: 232.627520 ppm
  C      -2.139306      3.849117     -0.698134
  C      -2.398368      2.429328     -0.221189
  O      -1.305880      1.582640     -0.695762
  P      -1.549739     -0.011401     -0.838195
  O      -2.769846     -0.412195     -1.591993
  C       0.055291     -0.524964     -1.437601
  Sn      1.677082     -0.252018      0.043332
  C       1.326355      1.515032      1.265732
  C       3.533799     -0.063249     -1.098141
  C       1.722918     -2.043725      1.287968
  O      -1.575697     -0.520245      0.716748
  C      -2.613185     -1.447950      1.167751
  C      -2.290209     -2.885249      0.778174
  H      -1.177441      4.219327     -0.321994
  H      -2.126934      3.893851     -1.793894
  H      -2.932197      4.515556     -0.332665
  H      -2.419105      2.370612      0.876227
  H      -3.346053      2.040266     -0.616199
  H      -0.001037     -1.594165     -1.674627
  H       0.291250      0.022582     -2.356819
  H       0.384186      1.384624      1.805754
  H       1.256627      2.401168      0.627973
  H       2.147753      1.640829      1.980023
  H       3.485280      0.819678     -1.745172
  H       3.684485     -0.953143     -1.719332
  H       4.384395      0.042449     -0.415445
  H       0.825145     -2.066692      1.913347
  H       2.610409     -2.034964      1.930573
  H       1.748676     -2.940853      0.659459
  H      -3.575605     -1.135153      0.746653
  H      -2.638130     -1.322507      2.256705
  H      -1.309126     -3.187149      1.164989
  H      -3.047930     -3.562745      1.195751
  H      -2.297962     -2.998789     -0.312296
>
34
-1098.70863974; 31P isotropic shielding: 234.440689 ppm
  C      -2.848516      3.338295     -1.175966
  C      -2.126250      2.669562     -0.013359
  O      -1.072611      1.774011     -0.493246
  P      -1.427495      0.221902     -0.781111
  O      -2.655845     -0.029687     -1.585189
  C       0.149922     -0.356341     -1.396565
  Sn      1.762756     -0.311051      0.118745
  C       1.523918      1.391595      1.452952
  C       3.642604     -0.179105     -0.992684
  C       1.668083     -2.186053      1.230945
  O      -1.530369     -0.409152      0.724900
  C      -2.616018     -1.331346      1.058523
  C      -2.319912     -2.746556      0.577208
  H      -3.592918      4.049624     -0.791362
  H      -2.137590      3.889380     -1.804338
  H      -3.358721      2.589637     -1.791454
  H      -1.607664      3.400741      0.617956
  H      -2.823110      2.104401      0.620618
  H       0.023016     -1.395258     -1.723822
  H       0.438050      0.245767     -2.265729
  H       2.361192      1.432374      2.158551
  H       0.583406      1.278793      1.999854
  H       1.490284      2.316051      0.868757
  H       3.666236      0.748391     -1.575644
  H       3.736506     -1.031698     -1.674489
  H       4.490203     -0.183982     -0.298089
  H       2.561604     -2.300869      1.854704
  H       1.606962     -3.033005      0.538506
  H       0.780250     -2.177894      1.870680
  H      -3.546907     -0.956096      0.618081
  H      -2.689627     -1.285841      2.151552
  H      -1.368185     -3.110881      0.982613
  H      -3.117970     -3.426056      0.907136
  H      -2.279483     -2.779852     -0.518235
>
34
-1098.70814934; 31P isotropic shielding: 232.587831 ppm
  C      -2.842638      3.342104     -1.175099
  C      -2.122062      2.670266     -0.013248
  O      -1.066072      1.777769     -0.493482
  P      -1.418481      0.226803     -0.791045
  O      -2.642558     -0.021583     -1.602691
  C       0.162632     -0.346951     -1.401037
  Sn      1.766404     -0.310733      0.124106
  C       1.516635      1.381403      1.469580
  C       3.652824     -0.166939     -0.974644
  C       1.667565     -2.194894      1.220381
  O      -1.528457     -0.412565      0.711011
  C      -2.618117     -1.333065      1.035979
  C      -2.320432     -2.748024      0.555125
  H      -3.588618      4.051256     -0.789552
  H      -2.131019      3.896159     -1.800036
  H      -3.350703      2.595092     -1.794316
  H      -1.605811      3.399983      0.621658
  H      -2.819497      2.102016      0.617357
  H       0.038159     -1.383785     -1.735695
  H       0.455708      0.260973     -2.264456
  H       2.349472      1.418144      2.180607
  H       0.572912      1.263250      2.009745
  H       1.485344      2.310049      0.891953
  H       3.678303      0.765032     -1.550323
  H       3.752535     -1.014092     -1.662360
  H       4.496142     -0.175573     -0.274923
  H       0.777502     -2.192112      1.857018
  H       2.558876     -2.315152      1.846245
  H       1.608761     -3.035904      0.520549
  H      -3.545118     -0.955886      0.589070
  H      -2.699665     -1.288644      2.128500
  H      -1.372368     -3.114249      0.967304
  H      -3.121974     -3.426843      0.877929
  H      -2.271483     -2.779905     -0.540008
>
34
-1098.70816646; 31P isotropic shielding: 232.570760 ppm
  C      -1.564374      2.995650     -1.355980
  C      -2.184769      2.247500     -0.182163
  O      -1.380291      1.088740      0.205746
  P      -1.492766     -0.305917     -0.642475
  O      -2.662526     -0.316242     -1.564669
  C       0.148021     -0.549792     -1.314179
  Sn      1.768597     -0.057544      0.110412
  C       1.206515     -0.588266      2.144678
  C       2.161005      2.083026     -0.051214
  C       3.518944     -1.200300     -0.535064
  O      -1.497372     -1.429443      0.521793
  C      -2.719605     -1.642579      1.299168
  C      -3.592022     -2.716089      0.661253
  H      -0.536981      3.305212     -1.129190
  H      -1.559494      2.365903     -2.253848
  H      -2.154932      3.895509     -1.577340
  H      -2.220625      2.871660      0.718519
  H      -3.198105      1.908608     -0.426782
  H       0.247605     -1.588308     -1.649545
  H       0.255460      0.106144     -2.186334
  H       0.351768      0.024671      2.445280
  H       2.048201     -0.408801      2.822864
  H       0.921210     -1.643796      2.183619
  H       3.107944      2.331289      0.441075
  H       1.348266      2.634075      0.432004
  H       2.220487      2.377467     -1.104876
  H       3.303107     -2.273328     -0.483096
  H       4.372147     -0.977572      0.115672
  H       3.780473     -0.938438     -1.566410
  H      -3.260731     -0.691461      1.395623
  H      -2.371647     -1.940000      2.295477
  H      -3.926678     -2.396991     -0.331646
  H      -3.035425     -3.656631      0.563352
  H      -4.473706     -2.900457      1.291077
>
34
-1098.70811135; 31P isotropic shielding: 232.580121 ppm
  C      -2.874343      2.271740      1.423166
  C      -2.265893      2.450960      0.037552
  O      -1.199534      1.476323     -0.208481
  P      -1.557287      0.038248     -0.862143
  O      -2.664485      0.045492     -1.856849
  C       0.060635     -0.514201     -1.398949
  Sn      1.685338     -0.042195      0.028766
  C       2.250023      2.039650     -0.277330
  C       3.346560     -1.374756     -0.477294
  C       1.015445     -0.405264      2.068619
  O      -1.889275     -0.840392      0.471112
  C      -2.616075     -2.099445      0.336205
  C      -3.232886     -2.436890      1.685157
  H      -3.611093      3.065967      1.607460
  H      -3.378581      1.303073      1.508908
  H      -2.101276      2.329798      2.199401
  H      -3.018957      2.349930     -0.753678
  H      -1.777302      3.427245     -0.061389
  H       0.021829     -1.599283     -1.555485
  H       0.293166     -0.041411     -2.360624
  H       3.037610      2.327932      0.427699
  H       1.367804      2.666996     -0.118637
  H       2.617156      2.182099     -1.299743
  H       3.656622     -1.211713     -1.515537
  H       3.038268     -2.419506     -0.357131
  H       4.199006     -1.178540      0.182969
  H       0.142352      0.219401      2.275058
  H       1.820698     -0.164602      2.771787
  H       0.735180     -1.457044      2.186672
  H      -1.906152     -2.880224      0.021786
  H      -3.379119     -1.986870     -0.443879
  H      -3.954411     -1.666708      1.984011
  H      -3.758771     -3.399281      1.624908
  H      -2.461354     -2.510629      2.461514
>
34
-1098.70834898; 31P isotropic shielding: 233.678756 ppm
  C      -2.803004      3.421575     -0.684238
  C      -3.463302      2.091274     -0.339352
  O      -2.601682      1.259208      0.499905
  P      -1.415004      0.373366     -0.186794
  O      -1.682554      0.061305     -1.618869
  C       0.161953      1.142199      0.149277
  Sn      1.815931     -0.311548     -0.127281
  C       2.367338     -0.988014      1.872587
  C       3.457688      0.790332     -1.061174
  C       1.158624     -1.965927     -1.379664
  O      -1.336778     -0.889042      0.824870
  C      -2.446937     -1.843755      0.867938
  C      -3.272683     -1.640166      2.131308
  H      -3.514693      4.061808     -1.223593
  H      -2.483761      3.947183      0.224471
  H      -1.929890      3.269704     -1.330640
  H      -4.369006      2.241579      0.260061
  H      -3.720202      1.530140     -1.245680
  H       0.298558      1.975296     -0.548143
  H       0.198523      1.520669      1.176894
  H       2.742937     -0.147309      2.466599
  H       3.144788     -1.757954      1.814049
  H       1.480487     -1.406861      2.359913
  H       3.747944      1.639639     -0.432531
  H       3.142376      1.161954     -2.042579
  H       4.323901      0.131907     -1.192226
  H       2.011274     -2.387657     -1.922916
  H       0.405818     -1.599498     -2.083998
  H       0.710581     -2.739159     -0.747432
  H      -1.980248     -2.836025      0.847842
  H      -3.052633     -1.735545     -0.041058
  H      -4.071929     -2.392960      2.179027
  H      -2.645330     -1.746370      3.025152
  H      -3.727284     -0.643449      2.140676
>
34
-1098.70839780; 31P isotropic shielding: 231.978137 ppm
  C      -3.307546      2.570925      0.130831
  C      -1.911871      2.405033     -0.455930
  O      -1.285858      1.164544      0.002664
  P      -1.484683     -0.216126     -0.854333
  O      -2.570673     -0.102735     -1.866802
  C       0.166977     -0.633494     -1.403410
  Sn      1.732216     -0.264721      0.115920
  C       1.019586     -0.761470      2.111440
  C       2.253270      1.848891     -0.024534
  C       3.438112     -1.517574     -0.437419
  O      -1.703197     -1.334040      0.293610
  C      -3.014602     -1.475331      0.928776
  C      -3.011465     -0.838998      2.313392
  H      -3.728847      3.537752     -0.178450
  H      -3.969178      1.775947     -0.231184
  H      -3.277505      2.545422      1.227409
  H      -1.949556      2.408858     -1.551866
  H      -1.237354      3.201538     -0.118630
  H       0.185322     -1.681756     -1.721926
  H       0.398032     -0.005776     -2.272991
  H       0.222291     -0.065166      2.385673
  H       1.843307     -0.682763      2.829746
  H       0.622648     -1.780940      2.118104
  H       1.375094      2.448283      0.235795
  H       2.567826      2.092718     -1.045507
  H       3.070555      2.087112      0.665317
  H       3.150598     -2.574444     -0.404368
  H       4.267342     -1.352879      0.259948
  H       3.771693     -1.270025     -1.451395
  H      -3.194645     -2.555524      0.986301
  H      -3.778789     -1.035925      0.275177
  H      -2.813089      0.236220      2.248862
  H      -3.990463     -0.984947      2.790884
  H      -2.245047     -1.295909      2.950893
>
34
-1098.70794697; 31P isotropic shielding: 230.406713 ppm
  C      -1.804812      3.240101      1.175099
  C      -2.367695      1.967881      0.561638
  O      -1.352262      0.924099      0.682404
  P      -1.479058     -0.411838     -0.227454
  O      -1.677565     -0.192502     -1.687785
  C       0.034450     -1.242793      0.231641
  Sn      1.769303      0.120021     -0.003471
  C       1.357663      1.579553     -1.567493
  C       3.479231     -1.141322     -0.523346
  C       2.069651      1.069554      1.936931
  O      -2.734580     -1.166356      0.486365
  C      -3.656633     -1.965360     -0.320040
  C      -3.084183     -3.341722     -0.640196
  H      -0.903644      3.562673      0.639610
  H      -2.549538      4.044962      1.115272
  H      -1.547671      3.085081      2.230300
  H      -3.271410      1.630448      1.087652
  H      -2.607650      2.105410     -0.500832
  H      -0.006147     -1.573242      1.275695
  H       0.165045     -2.114355     -0.418298
  H       1.040767      2.522536     -1.110079
  H       0.551607      1.199259     -2.202389
  H       2.258655      1.752599     -2.165955
  H       3.635479     -1.901258      0.250483
  H       4.383941     -0.528653     -0.608296
  H       3.295990     -1.638950     -1.482261
  H       2.871599      1.813876      1.877342
  H       2.336398      0.318306      2.688667
  H       1.137636      1.561887      2.231989
  H      -3.892327     -1.412957     -1.237484
  H      -4.560598     -2.043942      0.295307
  H      -2.211172     -3.257974     -1.298976
  H      -2.788677     -3.866052      0.277287
  H      -3.840393     -3.948171     -1.157627
