59
-4114.76337221; 31P isotropic shielding: 227.293761 ppm
  C       2.566839     -3.401043      0.003286
  C       3.083457     -2.289312     -0.901529
  O       2.816327     -1.017027     -0.191344
  P       2.482123      0.313622     -1.031229
  O       3.500239      0.769677     -2.012764
  Se      0.478635     -0.045814     -2.050524
  Sn     -0.961095     -0.120133      0.122299
  C      -2.820988     -0.960239     -0.593295
  C      -2.830003     -2.053961     -1.474190
  C      -4.040448     -2.598713     -1.918430
  C      -5.254495     -2.052585     -1.486842
  C      -5.255803     -0.960786     -0.612116
  C      -4.044134     -0.417335     -0.167876
  C      -0.123056     -1.376658      1.663952
  C      -0.751476     -2.601609      1.939811
  C      -0.245344     -3.450610      2.931527
  C       0.889319     -3.076067      3.658473
  C       1.515572     -1.853296      3.392107
  C       1.014798     -1.006848      2.397538
  C      -1.302321      1.888396      0.835498
  C      -1.864387      2.853265     -0.014827
  C      -2.079651      4.159822      0.437436
  C      -1.731098      4.513614      1.746095
  C      -1.175388      3.556766      2.601912
  C      -0.963713      2.248868      2.148323
  O       2.189177      1.290786      0.217882
  C       2.702497      2.687790      0.203513
  C       2.792089      3.103052      1.666433
  C       1.786391      3.573745     -0.633683
  C       4.576116     -2.377733     -1.208573
  H       1.494527     -3.289494      0.190623
  H       2.741593     -4.375474     -0.471345
  H       3.087901     -3.385497      0.968265
  H       2.504246     -2.274376     -1.836345
  H      -1.891924     -2.482005     -1.827173
  H      -4.035714     -3.446062     -2.602925
  H      -6.196393     -2.474539     -1.834056
  H      -6.198821     -0.530233     -0.277540
  H      -4.060316      0.437190      0.508506
  H      -1.638238     -2.902839      1.382444
  H      -0.736641     -4.401256      3.134913
  H       1.285252     -3.735513      4.429429
  H       2.402491     -1.561249      3.953105
  H       1.532265     -0.076739      2.178113
  H      -2.126498      2.596281     -1.040921
  H      -2.513135      4.901788     -0.231821
  H      -1.893350      5.531373      2.097543
  H      -0.904995      3.827831      3.621745
  H      -0.529395      1.513926      2.824959
  H       3.701151      2.648093     -0.248166
  H       1.797244      3.107597      2.127099
  H       3.441363      2.419172      2.225837
  H       3.211112      4.115178      1.737968
  H       1.744243      3.221274     -1.670031
  H       2.177214      4.600203     -0.638112
  H       0.772320      3.588944     -0.221995
  H       5.157782     -2.363591     -0.277633
  H       4.792241     -3.314994     -1.738829
  H       4.892096     -1.537623     -1.836017
>
59
-4114.76442458; 31P isotropic shielding: 224.788351 ppm
  C      -0.191088      3.822932     -2.017168
  C       0.476433      2.670557     -2.754803
  O       0.582957      1.556280     -1.775633
  P       1.855684      0.570326     -1.805259
  O       3.110870      1.106561     -2.393606
  Se      2.113787     -0.039189      0.364049
  Sn     -0.429609     -0.187052      0.915344
  C      -1.531969     -1.381060     -0.504715
  C      -1.872750     -0.883568     -1.771133
  C      -2.581037     -1.681285     -2.675202
  C      -2.949882     -2.984743     -2.323485
  C      -2.615590     -3.487189     -1.061643
  C      -1.911550     -2.686272     -0.154105
  C      -0.424397     -1.168729      2.842263
  C      -1.203809     -0.657545      3.892237
  C      -1.225512     -1.297253      5.137646
  C      -0.466320     -2.454070      5.344105
  C       0.317027     -2.968589      4.304877
  C       0.338091     -2.327923      3.060513
  C      -1.235950      1.808556      1.052748
  C      -2.543242      2.069378      0.614660
  C      -3.073355      3.363213      0.697091
  C      -2.299012      4.404428      1.219578
  C      -0.994808      4.150395      1.659187
  C      -0.465151      2.858306      1.573331
  O       1.209057     -0.695864     -2.571870
  C       2.023064     -1.915418     -2.778549
  C       2.742397     -1.808045     -4.120353
  C       1.062749     -3.094170     -2.676825
  C      -0.299603      2.183337     -3.975284
  H      -0.293106      4.683836     -2.691060
  H      -1.188359      3.536498     -1.663450
  H       0.404714      4.127176     -1.150780
  H       1.501390      2.938202     -3.040390
  H      -1.566727      0.116540     -2.064912
  H      -2.837260     -1.288514     -3.658500
  H      -3.496457     -3.606810     -3.030770
  H      -2.902641     -4.500225     -0.782679
  H      -1.661303     -3.087101      0.827860
  H      -1.794795      0.246855      3.747467
  H      -1.832216     -0.890983      5.945998
  H      -0.481361     -2.950848      6.312993
  H       0.913746     -3.865949      4.463748
  H       0.962092     -2.733813      2.264355
  H      -3.156055      1.268964      0.200252
  H      -4.088167      3.557254      0.351747
  H      -2.709550      5.411028      1.282500
  H      -0.387856      4.959833      2.062896
  H       0.558956      2.677467      1.898536
  H       2.757407     -1.965436     -1.961143
  H       3.360226     -2.701103     -4.285228
  H       2.014402     -1.735833     -4.939197
  H       3.389436     -0.924729     -4.140011
  H       0.285000     -3.025173     -3.447064
  H       0.575045     -3.118268     -1.697307
  H       1.611837     -4.034208     -2.819430
  H       0.192090      1.319189     -4.435898
  H      -1.322363      1.897915     -3.696875
  H      -0.358504      2.986335     -4.722156
>
59
-4114.76436090; 31P isotropic shielding: 223.561275 ppm
  C       0.077669     -0.020803     -4.185787
  C       0.984661     -1.160188     -3.727019
  O       0.965723     -1.239241     -2.250960
  P       2.080288     -0.494323     -1.353082
  O       3.441499     -0.471394     -1.950024
  Se      1.294640      1.576666     -0.840709
  Sn     -0.658801      0.660421      0.627422
  C      -1.656996     -0.963082     -0.383514
  C      -2.538262     -0.707364     -1.444634
  C      -3.116997     -1.763991     -2.157091
  C      -2.817838     -3.086684     -1.812590
  C      -1.944967     -3.349525     -0.751010
  C      -1.367271     -2.291713     -0.041355
  C       0.178791     -0.045556      2.493073
  C      -0.586263     -0.868382      3.333859
  C      -0.040021     -1.374283      4.520906
  C       1.275289     -1.057542      4.875226
  C       2.041889     -0.233842      4.042236
  C       1.496440      0.267671      2.855491
  C      -2.009242      2.341222      0.815293
  C      -1.520397      3.649776      0.956323
  C      -2.402980      4.727849      1.086887
  C      -3.785039      4.507309      1.077437
  C      -4.281866      3.207482      0.936417
  C      -3.397443      2.129396      0.805287
  O       1.866594     -1.236325      0.054987
  C       2.544166     -2.486852      0.475363
  C       3.983475     -2.173695      0.876089
  C       2.417472     -3.582431     -0.580802
  C       0.527985     -2.530705     -4.217368
  H      -0.951616     -0.196191     -3.851032
  H       0.414101      0.940660     -3.783507
  H       0.084865      0.039673     -5.282307
  H       2.022959     -0.972191     -4.030113
  H      -2.772734      0.317501     -1.730852
  H      -3.797768     -1.555099     -2.981502
  H      -3.264761     -3.909533     -2.368558
  H      -1.711487     -4.378286     -0.479067
  H      -0.678430     -2.508023      0.773028
  H      -1.612141     -1.128613      3.072043
  H      -0.641234     -2.014592      5.165316
  H       1.701722     -1.450331      5.797063
  H       3.066554      0.015613      4.315445
  H       2.107174      0.889974      2.202946
  H      -0.447176      3.840207      0.962553
  H      -2.012160      5.738796      1.194959
  H      -4.471872      5.346267      1.178018
  H      -5.356847      3.031442      0.926840
  H      -3.800476      1.123346      0.690814
  H       1.963479     -2.760219      1.365591
  H       4.450083     -3.070898      1.304814
  H       4.565720     -1.849727      0.006511
  H       4.003052     -1.380047      1.630960
  H       3.010859     -3.342302     -1.471315
  H       1.373323     -3.721763     -0.879667
  H       2.792507     -4.527073     -0.164628
  H       1.209860     -3.314786     -3.868621
  H      -0.479713     -2.749828     -3.842956
  H       0.507758     -2.550049     -5.314927
>
59
-4114.76100680; 31P isotropic shielding: 228.591383 ppm
  C       2.653287     -2.896851     -0.493391
  C       3.499552     -1.628516     -0.436144
  O       2.614784     -0.451793     -0.253698
  P       2.141165      0.425428     -1.528960
  O       3.131116      0.482661     -2.635915
  Se      0.128936     -0.342058     -2.227339
  Sn     -1.081582     -0.284265      0.079739
  C      -3.029885     -1.100921     -0.394134
  C      -3.807475     -1.675172      0.625131
  C      -5.076348     -2.196119      0.344207
  C      -5.579500     -2.148134     -0.960174
  C      -4.812179     -1.578306     -1.981997
  C      -3.544034     -1.057381     -1.699464
  C      -0.155509     -1.554607      1.560742
  C       0.825563     -1.051631      2.428388
  C       1.445553     -1.890022      3.361124
  C       1.092522     -3.242453      3.431681
  C       0.114004     -3.752528      2.571459
  C      -0.507437     -2.911040      1.641070
  C      -1.136838      1.750246      0.807909
  C      -1.119457      2.832249     -0.083551
  C      -1.157041      4.144723      0.397511
  C      -1.205550      4.387441      1.775587
  C      -1.224798      3.313412      2.671085
  C      -1.193652      1.998777      2.187623
  O       1.736379      1.801283     -0.809564
  C       2.793058      2.642815     -0.188231
  C       2.587242      2.607575      1.321986
  C       2.666052      4.031602     -0.803597
  C       4.479040     -1.602478      0.731832
  H       1.931542     -2.850586     -1.316402
  H       3.305337     -3.765515     -0.656272
  H       2.105026     -3.043493      0.443046
  H       4.033861     -1.480303     -1.382938
  H      -3.429885     -1.725408      1.646367
  H      -5.669915     -2.639264      1.142913
  H      -6.565783     -2.553927     -1.179882
  H      -5.199831     -1.539359     -2.999132
  H      -2.959982     -0.617253     -2.507457
  H       1.121651     -0.006440      2.373648
  H       2.206397     -1.489036      4.029678
  H       1.578498     -3.896543      4.153999
  H      -0.162770     -4.804785      2.621741
  H      -1.263565     -3.323353      0.973820
  H      -1.049461      2.656754     -1.155594
  H      -1.143665      4.979121     -0.302627
  H      -1.228264      5.409969      2.149386
  H      -1.262173      3.496259      3.744270
  H      -1.205833      1.173533      2.899276
  H       3.767170      2.208871     -0.451914
  H       1.599301      3.001306      1.585795
  H       2.673394      1.581275      1.693975
  H       3.351850      3.221233      1.817261
  H       3.434444      4.697689     -0.388839
  H       1.679802      4.456600     -0.581991
  H       2.796809      3.982201     -1.890364
  H       5.051343     -0.667167      0.739568
  H       3.943306     -1.698853      1.684227
  H       5.185827     -2.438367      0.645626
>
59
-4114.76239941; 31P isotropic shielding: 226.557278 ppm
  C       2.660109     -3.387665     -0.034003
  C       3.162700     -2.242763     -0.904917
  O       2.904404     -0.998802     -0.143690
  P       2.575377      0.368436     -0.925161
  O       3.597494      0.865104     -1.882620
  Se      0.574437      0.059793     -1.964746
  Sn     -0.870875     -0.097481      0.200475
  C      -2.731918     -0.904235     -0.549783
  C      -3.954230     -0.385584     -0.092790
  C      -5.166910     -0.909245     -0.557545
  C      -5.167507     -1.956789     -1.484789
  C      -3.954385     -2.478274     -1.948265
  C      -2.742912     -1.953335     -1.483355
  C      -0.039610     -1.417172      1.692052
  C      -0.670716     -2.651527      1.914863
  C      -0.168364     -3.542179      2.871409
  C       0.965141     -3.200442      3.616108
  C       1.593926     -1.968690      3.402661
  C       1.097062     -1.080491      2.443131
  C      -1.207087      1.886397      0.980045
  C      -0.848947      2.210667      2.297024
  C      -1.051759      3.505881      2.789202
  C      -1.618949      4.486190      1.968091
  C      -1.987151      4.168354      0.655555
  C      -1.780346      2.874480      0.164610
  O       2.280646      1.290317      0.364968
  C       2.815698      2.677548      0.425908
  C       2.963157      2.992707      1.909227
  C       1.882713      3.627929     -0.316254
  C       4.650576     -2.319449     -1.237564
  H       1.589799     -3.286225      0.170037
  H       2.831887     -4.344203     -0.544727
  H       3.193008     -3.403834      0.924432
  H       2.569347     -2.193544     -1.829700
  H      -3.968920      0.434727      0.624754
  H      -6.109177     -0.497765     -0.197806
  H      -6.110169     -2.363363     -1.847913
  H      -3.951207     -3.291027     -2.673516
  H      -1.805720     -2.361707     -1.861209
  H      -1.556423     -2.928060      1.343130
  H      -0.661680     -4.499744      3.033169
  H       1.358128     -3.892448      4.359533
  H       2.479925     -1.702150      3.977655
  H       1.617485     -0.143545      2.263711
  H      -0.406178      1.457016      2.947099
  H      -0.765980      3.748723      3.811935
  H      -1.774201      5.494319      2.349165
  H      -2.429362      4.928737      0.013222
  H      -2.057530      2.645870     -0.864209
  H       3.796680      2.655855     -0.063813
  H       1.986132      2.968432      2.406320
  H       3.629201      2.270661      2.396239
  H       3.389524      3.996602      2.033745
  H       0.888527      3.638672      0.141057
  H       1.786664      3.337402     -1.368185
  H       2.294923      4.645356     -0.279855
  H       4.959421     -1.453320     -1.832265
  H       5.246606     -2.347621     -0.316006
  H       4.856217     -3.232995     -1.811645
>
59
-4114.76441758; 31P isotropic shielding: 224.769926 ppm
  C       1.481032      3.626104     -0.942087
  C       0.947166      2.950468     -2.200546
  O       0.640159      1.520812     -1.921392
  P       1.829082      0.431034     -1.908812
  O       3.133180      0.855286     -2.480594
  Se      2.069749     -0.236479      0.254540
  Sn     -0.463914     -0.198853      0.868854
  C      -1.722403     -1.174154     -0.588713
  C      -1.977811     -0.614985     -1.850466
  C      -2.804419     -1.281799     -2.760595
  C      -3.377025     -2.512904     -2.421793
  C      -3.127367     -3.075397     -1.165762
  C      -2.305326     -2.405916     -0.250982
  C      -0.496065     -1.294847      2.732776
  C      -1.246194     -0.811146      3.816848
  C      -1.287235     -1.518418      5.024729
  C      -0.577556     -2.716518      5.159153
  C       0.174983     -3.205127      4.085203
  C       0.215996     -2.496553      2.878719
  C      -1.091933      1.836534      1.217585
  C      -2.178175      2.378584      0.514506
  C      -2.573938      3.704155      0.732719
  C      -1.887748      4.496534      1.659106
  C      -0.808163      3.960640      2.370701
  C      -0.412055      2.637044      2.148711
  O       1.046122     -0.751956     -2.666772
  C       1.713403     -2.059639     -2.865925
  C       2.405971     -2.046686     -4.225688
  C       0.630808     -3.121842     -2.722136
  C      -0.353268      3.551613     -2.718949
  H       2.403906      3.143235     -0.602841
  H       1.706552      4.678441     -1.161237
  H       0.743111      3.588376     -0.134709
  H       1.714665      2.956917     -2.983965
  H      -1.512566      0.323189     -2.140281
  H      -2.993985     -0.843292     -3.739594
  H      -4.015030     -3.032898     -3.134940
  H      -3.571075     -4.033103     -0.896643
  H      -2.121034     -2.853255      0.725615
  H      -1.799317      0.123855      3.728525
  H      -1.870861     -1.132817      5.859792
  H      -0.607760     -3.266058      6.098762
  H       0.732397     -4.135376      4.187612
  H       0.815709     -2.883289      2.054927
  H      -2.720909      1.772715     -0.210145
  H      -3.416152      4.117326      0.178936
  H      -2.193528      5.527992      1.827320
  H      -0.271628      4.574425      3.093022
  H       0.440785      2.238222      2.697462
  H       2.457750     -2.180080     -2.065443
  H       1.670717     -1.899388     -5.027554
  H       3.145935     -1.240477     -4.270572
  H       2.916913     -3.004213     -4.394149
  H      -0.163015     -2.967085     -3.462809
  H       0.179334     -3.087386     -1.725829
  H       1.065242     -4.118077     -2.877374
  H      -0.703647      3.011867     -3.606631
  H      -1.130855      3.512430     -1.947040
  H      -0.190615      4.602014     -2.993351
>
59
-4114.76448575; 31P isotropic shielding: 224.915602 ppm
  C       1.028012      3.448912     -3.297213
  C       0.836750      2.981476     -1.856881
  O       0.522621      1.525329     -1.856129
  P       1.627838      0.371875     -2.059013
  O       2.903042      0.734735     -2.730110
  Se      2.019219     -0.491011      0.015575
  Sn     -0.427764     -0.212505      0.869942
  C      -1.897930     -1.043886     -0.474770
  C      -2.242338     -0.420352     -1.684269
  C      -3.205601     -0.992479     -2.521501
  C      -3.826364     -2.194269     -2.163289
  C      -3.487261     -2.821977     -0.960289
  C      -2.529120     -2.246015     -0.117021
  C      -0.405383     -1.324264      2.724726
  C       0.199507     -2.589503      2.801756
  C       0.191731     -3.309531      4.002099
  C      -0.419703     -2.768977      5.138900
  C      -1.021371     -1.507682      5.073297
  C      -1.013891     -0.789036      3.871478
  C      -0.805610      1.876539      1.266205
  C      -1.871612      2.542390      0.642028
  C      -2.094351      3.904620      0.878836
  C      -1.253133      4.611899      1.744572
  C      -0.193103      3.953519      2.377991
  C       0.028795      2.592742      2.138273
  O       0.677820     -0.679364     -2.820722
  C       1.199409     -2.023619     -3.161511
  C       1.856022     -1.962389     -4.537856
  C       0.013372     -2.976293     -3.076854
  C       2.005476      3.324947     -0.936295
  H       0.169968      3.158134     -3.915244
  H       1.114279      4.543828     -3.320014
  H       1.938152      3.015597     -3.726938
  H      -0.086551      3.400540     -1.441057
  H      -1.741109      0.492789     -1.993609
  H      -3.464056     -0.504230     -3.460390
  H      -4.571294     -2.641041     -2.820172
  H      -3.967170     -3.757790     -0.676639
  H      -2.277165     -2.742816      0.819775
  H       0.688993     -3.018380      1.927420
  H       0.664807     -4.289541      4.050425
  H      -0.424200     -3.327607      6.073609
  H      -1.494776     -1.081980      5.957207
  H      -1.481887      0.194775      3.836943
  H      -2.533903      2.005136     -0.035590
  H      -2.923111      4.412472      0.386907
  H      -1.424597      5.671524      1.927752
  H       0.462887      4.499686      3.054600
  H       0.865972      2.097096      2.629728
  H       1.943481     -2.293080     -2.397799
  H       2.678920     -1.239970     -4.540149
  H       2.252447     -2.951067     -4.805736
  H       1.121524     -1.665758     -5.298006
  H      -0.768390     -2.683062     -3.787879
  H      -0.418857     -2.975566     -2.071446
  H       0.340143     -3.996063     -3.319101
  H       1.841743      2.926001      0.068601
  H       2.949169      2.932616     -1.329806
  H       2.083599      4.417526     -0.860947
>
59
-4114.76321469; 31P isotropic shielding: 227.366847 ppm
  C       2.494361      2.688579     -3.746534
  C       2.319392      2.587813     -2.237043
  O       3.036578      1.357977     -1.812935
  P       2.326668      0.419715     -0.725064
  O       1.848262      1.090026      0.524084
  Se      0.601023     -0.619930     -1.768274
  Sn     -0.966250     -0.051624      0.257192
  C      -2.771598     -1.121511     -0.305175
  C      -3.519526     -1.807638      0.665751
  C      -4.696480     -2.481984      0.316839
  C      -5.138524     -2.477580     -1.010300
  C      -4.401626     -1.797774     -1.986694
  C      -3.226062     -1.124580     -1.634373
  C      -0.135046     -1.028344      1.993732
  C      -0.160324     -2.430624      2.052668
  C       0.430852     -3.107105      3.126811
  C       1.045698     -2.383405      4.154037
  C       1.068324     -0.984879      4.104133
  C       0.484830     -0.310034      3.026395
  C      -1.470433      2.050288      0.345587
  C      -0.551784      3.058984      0.677517
  C      -0.960144      4.397818      0.705529
  C      -2.282882      4.740985      0.403378
  C      -3.202279      3.739976      0.073640
  C      -2.797897      2.399574      0.045308
  O       3.502040     -0.650644     -0.545560
  C       3.322709     -1.695956      0.500699
  C       4.088664     -1.262026      1.744195
  C       3.801242     -3.003674     -0.113628
  C       2.887892      3.766617     -1.454768
  H       1.986434      3.585845     -4.123552
  H       3.558462      2.754239     -4.007367
  H       2.064769      1.810667     -4.242501
  H       1.254633      2.458431     -1.997686
  H      -3.187496     -1.825586      1.703761
  H      -5.266052     -3.010675      1.080320
  H      -6.052590     -3.002751     -1.283335
  H      -4.740931     -1.793191     -3.021867
  H      -2.663439     -0.601762     -2.408148
  H      -0.630908     -3.007048      1.256458
  H       0.410164     -4.195741      3.160343
  H       1.507440     -2.907118      4.989828
  H       1.551459     -0.418908      4.899591
  H       0.539360      0.775369      2.983684
  H       0.478884      2.798571      0.900470
  H      -0.241767      5.174769      0.965332
  H      -2.595876      5.783941      0.424959
  H      -4.233515      3.999410     -0.162786
  H      -3.524905      1.630516     -0.213452
  H       2.252553     -1.765615      0.730599
  H       5.158120     -1.156563      1.519838
  H       3.704426     -0.306125      2.114290
  H       3.966071     -2.012330      2.535757
  H       3.692913     -3.818437      0.614089
  H       4.858044     -2.931280     -0.401326
  H       3.210894     -3.250406     -1.003616
  H       2.755895      3.611017     -0.378868
  H       3.958151      3.887620     -1.666156
  H       2.368225      4.690497     -1.741408
>
59
-4114.76826574; 31P isotropic shielding: 218.310668 ppm
  C       1.910492      3.624831     -0.823856
  C       0.946291      3.226597     -1.938419
  O       0.535785      1.806283     -1.812860
  P       1.595542      0.611116     -2.040288
  O       2.846649      0.939546     -2.772294
  Se      2.050625     -0.163048      0.056963
  Sn     -0.426085     -0.288726      0.848018
  C      -1.676270     -1.298049     -0.595511
  C      -1.944076     -2.665357     -0.429089
  C      -2.717522     -3.357271     -1.370045
  C      -3.232870     -2.683015     -2.481679
  C      -2.974892     -1.317123     -2.650040
  C      -2.198129     -0.628091     -1.713120
  C      -0.284377     -1.468172      2.655107
  C      -1.053234     -1.126302      3.779147
  C      -0.990938     -1.899810      4.944626
  C      -0.157684     -3.022529      4.996121
  C       0.615482     -3.368524      3.882314
  C       0.552739     -2.594029      2.717893
  C      -1.172786      1.691357      1.279317
  C      -0.384759      2.605856      1.994600
  C      -0.864350      3.889833      2.275679
  C      -2.139282      4.271522      1.842126
  C      -2.933648      3.365022      1.132248
  C      -2.452037      2.079803      0.853002
  O       0.576513     -0.420306     -2.723693
  C       0.934193     -1.631223     -3.492249
  C       1.894025     -2.544947     -2.733912
  C       1.441594     -1.222873     -4.874274
  C      -0.355783      4.018377     -1.923808
  H       1.449698      3.474900      0.157914
  H       2.837917      3.045311     -0.876715
  H       2.165211      4.687858     -0.931165
  H       1.445278      3.320910     -2.911790
  H      -1.553372     -3.201166      0.435865
  H      -2.916560     -4.419506     -1.233653
  H      -3.834077     -3.219162     -3.214615
  H      -3.372348     -0.789298     -3.516128
  H      -1.975685      0.423639     -1.877969
  H      -1.701988     -0.250570      3.756067
  H      -1.590292     -1.624379      5.811529
  H      -0.107581     -3.623549      5.902788
  H       1.269512     -4.238789      3.920876
  H       1.169232     -2.868031      1.861914
  H       0.613477      2.324784      2.329360
  H      -0.243252      4.592421      2.829823
  H      -2.511753      5.272028      2.056465
  H      -3.926089      3.658074      0.792150
  H      -3.080864      1.386026      0.296277
  H      -0.040746     -2.126599     -3.583167
  H       2.014933     -3.478049     -3.300114
  H       2.881790     -2.082629     -2.620167
  H       1.504945     -2.789334     -1.740589
  H       2.402857     -0.702792     -4.797408
  H       0.721203     -0.558418     -5.366077
  H       1.569011     -2.117509     -5.498807
  H      -0.141307      5.084856     -2.071300
  H      -1.022382      3.684901     -2.728013
  H      -0.872773      3.896926     -0.965173
>
59
-4114.75979167; 31P isotropic shielding: 229.210389 ppm
  C       5.010752     -0.692848      0.392048
  C       3.589894     -1.222988      0.254848
  O       3.245355     -1.103665     -1.186552
  P       1.726613     -0.792015     -1.595171
  O       0.693604     -1.766892     -1.124904
  Se      1.266811      1.293627     -0.827128
  Sn     -0.749378      0.328579      0.541221
  C      -2.385417     -0.270892     -0.740536
  C      -3.514098      0.565131     -0.773720
  C      -4.608998      0.247717     -1.586854
  C      -4.585754     -0.910933     -2.369754
  C      -3.466177     -1.749949     -2.336328
  C      -2.368185     -1.433444     -1.527725
  C       0.006915     -1.098496      1.971223
  C       0.886655     -0.660948      2.972997
  C       1.415802     -1.567922      3.899381
  C       1.063964     -2.920059      3.831989
  C       0.185377     -3.362581      2.836757
  C      -0.338049     -2.456270      1.908057
  C      -1.378577      2.100550      1.628052
  C      -1.441364      3.354589      0.998134
  C      -1.864360      4.487816      1.702526
  C      -2.229862      4.379068      3.049040
  C      -2.170087      3.135947      3.687661
  C      -1.746541      2.003965      2.980012
  O       1.927948     -0.704987     -3.182572
  C       0.812374     -1.059349     -4.095833
  C       1.476642     -1.457585     -5.408378
  C      -0.154590      0.113762     -4.227727
  C       3.413911     -2.673437      0.690652
  H       5.704267     -1.287620     -0.216314
  H       5.067437      0.352700      0.067687
  H       5.330356     -0.751053      1.440685
  H       2.900184     -0.577209      0.814491
  H      -3.547497      1.469188     -0.166598
  H      -5.477112      0.905429     -1.607618
  H      -5.436454     -1.159077     -3.002924
  H      -3.445600     -2.654816     -2.943049
  H      -1.492048     -2.075873     -1.524012
  H       1.169033      0.389859      3.037402
  H       2.099526     -1.218483      4.672187
  H       1.474407     -3.627321      4.551162
  H      -0.086790     -4.415691      2.778478
  H      -1.001796     -2.818610      1.125460
  H      -1.156204      3.458565     -0.049015
  H      -1.906830      5.454319      1.201704
  H      -2.557973      5.260170      3.598483
  H      -2.451645      3.046817      4.736290
  H      -1.701011      1.043956      3.494224
  H       0.299583     -1.922021     -3.651829
  H       2.172668     -2.290152     -5.254139
  H       0.712237     -1.769844     -6.131740
  H       2.031472     -0.610947     -5.832469
  H       0.372017      1.008631     -4.582730
  H      -0.634622      0.346211     -3.272304
  H      -0.942222     -0.139948     -4.949371
  H       4.092094     -3.329138      0.129038
  H       3.638993     -2.766496      1.760608
  H       2.383251     -3.001735      0.527796
>
59
-4114.76698487; 31P isotropic shielding: 218.150153 ppm
  C       0.839292     -2.901604     -3.996557
  C       1.328553     -2.596195     -2.585766
  O       0.878820     -1.215734     -2.271195
  P       1.938093     -0.136263     -1.730439
  O       3.089516      0.197873     -2.608593
  Se      0.597448      1.649159     -1.339291
  Sn     -0.866532      0.517348      0.492584
  C      -1.968894     -1.116693     -0.394743
  C      -2.200984     -1.150408     -1.777141
  C      -2.918756     -2.206767     -2.347365
  C      -3.403751     -3.243371     -1.541260
  C      -3.177478     -3.216229     -0.161278
  C      -2.465862     -2.153508      0.410157
  C       0.331857     -0.175790      2.152132
  C       0.619241     -1.539568      2.315911
  C       1.437839     -1.972526      3.364838
  C       1.984265     -1.042932      4.257600
  C       1.706249      0.318950      4.100173
  C       0.881099      0.748665      3.053617
  C      -2.103515      2.159498      1.170011
  C      -2.552924      3.142482      0.273808
  C      -3.357274      4.197017      0.720580
  C      -3.720825      4.278455      2.069526
  C      -3.277739      3.304179      2.970071
  C      -2.471894      2.250150      2.522029
  O       2.320836     -0.793753     -0.304022
  C       3.553253     -0.481398      0.462216
  C       3.797084      1.020575      0.588438
  C       4.728687     -1.243389     -0.146889
  C       0.770028     -3.529821     -1.516530
  H       1.151191     -3.912039     -4.292968
  H      -0.255581     -2.849376     -4.040000
  H       1.256525     -2.183610     -4.711487
  H       2.426910     -2.606033     -2.565674
  H      -1.799939     -0.367243     -2.417361
  H      -3.094949     -2.224020     -3.422200
  H      -3.956576     -4.068837     -1.987128
  H      -3.553995     -4.019600      0.470657
  H      -2.303086     -2.146563      1.487734
  H       0.221700     -2.272193      1.616266
  H       1.655048     -3.033655      3.481092
  H       2.625525     -1.378759      5.071089
  H       2.131234      1.046911      4.789963
  H       0.675780      1.813207      2.943297
  H      -2.276524      3.095685     -0.779431
  H      -3.698546      4.954563      0.016296
  H      -4.345754      5.099506      2.417443
  H      -3.556965      3.364468      4.021289
  H      -2.130145      1.502900      3.237950
  H       3.309603     -0.892598      1.448385
  H       2.915506      1.529395      0.989632
  H       4.634255      1.186002      1.279404
  H       4.054927      1.465047     -0.379603
  H       4.959145     -0.860485     -1.147054
  H       4.496710     -2.313109     -0.219875
  H       5.614981     -1.127646      0.491617
  H       1.134263     -3.237516     -0.526242
  H      -0.325265     -3.501899     -1.512603
  H       1.092491     -4.560607     -1.716909
>
59
-4114.76089103; 31P isotropic shielding: 226.992646 ppm
  C       1.350945      4.238625     -2.208522
  C       0.771122      2.855829     -2.480510
  O       1.196471      1.988184     -1.352418
  P       1.930198      0.591350     -1.653365
  O       3.220105      0.635063     -2.390011
  Se      2.153049     -0.255303      0.437221
  Sn     -0.393223     -0.393821      0.966535
  C      -1.452059     -1.580677     -0.495611
  C      -1.307853     -2.976438     -0.504407
  C      -1.943681     -3.751569     -1.481978
  C      -2.735168     -3.135609     -2.457225
  C      -2.887104     -1.743965     -2.453810
  C      -2.245247     -0.971421     -1.479779
  C      -0.419841     -1.442910      2.859447
  C       0.582098     -1.229217      3.819501
  C       0.550555     -1.908897      5.042475
  C      -0.484670     -2.809506      5.317663
  C      -1.487102     -3.029464      4.367334
  C      -1.453867     -2.349596      3.143476
  C      -1.201793      1.609997      1.045866
  C      -0.360146      2.710629      1.260852
  C      -0.887633      4.005299      1.305892
  C      -2.260595      4.212257      1.127978
  C      -3.107148      3.119405      0.915097
  C      -2.579163      1.822490      0.878812
  O       0.734523     -0.207125     -2.391010
  C       0.920912     -1.398005     -3.256415
  C       1.825386     -2.448412     -2.616072
  C       1.390546     -0.947063     -4.637997
  C      -0.752180      2.819961     -2.551596
  H       2.443852      4.190202     -2.145502
  H       1.077120      4.927983     -3.018354
  H       0.959212      4.637408     -1.264563
  H       1.205261      2.446890     -3.403209
  H      -0.693048     -3.471041      0.247230
  H      -1.819764     -4.833708     -1.482234
  H      -3.230453     -3.736871     -3.218111
  H      -3.500145     -1.260295     -3.213379
  H      -2.353585      0.111208     -1.503312
  H       1.397309     -0.533588      3.620707
  H       1.334083     -1.735978      5.779090
  H      -0.508642     -3.338867      6.268923
  H      -2.293772     -3.731009      4.576513
  H      -2.238722     -2.537450      2.411081
  H       0.712985      2.564736      1.367325
  H      -0.225915      4.854048      1.474468
  H      -2.668974      5.221332      1.155955
  H      -4.176534      3.274202      0.777450
  H      -3.254129      0.982733      0.714663
  H      -0.101097     -1.788962     -3.317140
  H       1.815034     -3.351876     -3.239931
  H       2.858997     -2.091679     -2.541146
  H       1.469458     -2.717128     -1.617004
  H       1.399288     -1.805422     -5.323435
  H       2.400808     -0.526400     -4.584599
  H       0.710946     -0.189459     -5.047456
  H      -1.100892      1.797759     -2.731997
  H      -1.192212      3.183560     -1.616191
  H      -1.102902      3.457980     -3.374170
>
59
-4114.76069018; 31P isotropic shielding: 227.593404 ppm
  C       4.780448     -0.561755      0.797786
  C       3.483418     -1.234306      0.369263
  O       3.308896     -0.925795     -1.073950
  P       1.833514     -0.587689     -1.605026
  O       0.776510     -1.603532     -1.306760
  Se      1.274862      1.426280     -0.712711
  Sn     -0.751286      0.336712      0.538948
  C      -2.364312     -0.274310     -0.764857
  C      -3.506816      0.542197     -0.800056
  C      -4.599755      0.199450     -1.605464
  C      -4.561161     -0.966226     -2.377363
  C      -3.427568     -1.786143     -2.342159
  C      -2.331332     -1.443182     -1.541985
  C       0.012489     -1.145176      1.910133
  C       0.768866     -0.724611      3.015493
  C       1.306777     -1.660985      3.906614
  C       1.085139     -3.027139      3.701872
  C       0.328360     -3.453187      2.604727
  C      -0.202162     -2.516748      1.710553
  C      -1.455644      2.030429      1.701196
  C      -1.462273      3.327700      1.162633
  C      -1.939448      4.410219      1.911015
  C      -2.416091      4.206756      3.210876
  C      -2.413738      2.919556      3.758673
  C      -1.936235      1.838698      3.006958
  O       2.214798     -0.346274     -3.139872
  C       1.271942     -0.513683     -4.274499
  C      -0.012352      0.291208     -4.085107
  C       1.035702     -2.000275     -4.535393
  C       3.467511     -2.748465      0.543168
  H       4.966668     -0.755357      1.862245
  H       5.627603     -0.951659      0.218866
  H       4.719857      0.522093      0.645826
  H       2.643048     -0.788462      0.914979
  H      -3.553218      1.449725     -0.198915
  H      -5.478725      0.842510     -1.628358
  H      -5.410675     -1.234621     -3.003814
  H      -3.393719     -2.695143     -2.941900
  H      -1.442980     -2.068355     -1.542289
  H       0.949880      0.336424      3.186926
  H       1.894889     -1.323761      4.759328
  H       1.502120     -3.757469      4.393770
  H       0.158012     -4.516327      2.439745
  H      -0.768644     -2.864023      0.849225
  H      -1.091517      3.505132      0.152845
  H      -1.937287      5.411033      1.480763
  H      -2.786003      5.048250      3.794766
  H      -2.781899      2.756344      4.770930
  H      -1.937733      0.843465      3.451629
  H       1.851751     -0.082088     -5.100030
  H       0.209750      1.337257     -3.848762
  H      -0.590518      0.260883     -5.018221
  H      -0.635945     -0.125351     -3.287771
  H       0.479206     -2.455630     -3.709653
  H       1.990306     -2.527167     -4.650659
  H       0.459078     -2.120877     -5.462418
  H       2.520149     -3.162936      0.185031
  H       4.293854     -3.208064     -0.014723
  H       3.574431     -3.001651      1.605537
>
59
-4114.76500139; 31P isotropic shielding: 220.072235 ppm
  C       4.716231     -1.397895     -0.060855
  C       3.222923     -1.697432      0.054849
  O       2.459386     -0.429865     -0.060837
  P       2.152816      0.332986     -1.452400
  O       3.205095      0.209228     -2.494465
  Se      0.119902     -0.345275     -2.189658
  Sn     -1.075247     -0.253116      0.122127
  C      -3.013327     -1.107751     -0.323377
  C      -3.680770     -1.874398      0.645465
  C      -4.938964     -2.425484      0.372777
  C      -5.539994     -2.215715     -0.872764
  C      -4.881398     -1.454275     -1.844795
  C      -3.624482     -0.903224     -1.570732
  C      -0.091836     -1.499405      1.588715
  C       0.724275     -0.936993      2.582072
  C       1.392542     -1.754814      3.499861
  C       1.257588     -3.146308      3.427419
  C       0.450300     -3.716296      2.437314
  C      -0.223018     -2.895029      1.524644
  C      -1.139467      1.798242      0.801586
  C      -1.304796      2.084396      2.165658
  C      -1.339718      3.411305      2.613234
  C      -1.218506      4.460877      1.696713
  C      -1.063539      4.181213      0.333812
  C      -1.019887      2.855912     -0.111082
  O       1.814931      1.804684     -0.904895
  C       2.870738      2.604705     -0.232432
  C       2.550962      2.651818      1.258389
  C       2.879426      3.969630     -0.910216
  C       2.733261     -2.762479     -0.923370
  H       5.010129     -0.625283      0.660387
  H       5.293669     -2.306579      0.157055
  H       4.963378     -1.053287     -1.070883
  H       2.980561     -2.007896      1.077603
  H      -3.223631     -2.052839      1.618565
  H      -5.447266     -3.019070      1.131670
  H      -6.517555     -2.645201     -1.086378
  H      -5.345181     -1.289889     -2.816524
  H      -3.124000     -0.315025     -2.339764
  H       0.859559      0.141497      2.635486
  H       2.024075     -1.307093      4.266296
  H       1.781580     -3.783277      4.138377
  H       0.344749     -4.798550      2.374220
  H      -0.847193     -3.354292      0.758452
  H      -1.404002      1.279206      2.893216
  H      -1.461958      3.623164      3.674687
  H      -1.245325      5.493025      2.042804
  H      -0.971141      4.996504     -0.382704
  H      -0.865402      2.649886     -1.168390
  H       3.833143      2.102172     -0.400401
  H       3.308939      3.249104      1.783190
  H       1.569013      3.106479      1.429937
  H       2.551132      1.641815      1.681538
  H       3.653073      4.606934     -0.461543
  H       1.907740      4.463458     -0.786244
  H       3.089934      3.865722     -1.980595
  H       2.959374     -2.486075     -1.959535
  H       3.241338     -3.709547     -0.698672
  H       1.655039     -2.920006     -0.824307
>
59
-4114.76075710; 31P isotropic shielding: 227.241380 ppm
  C       2.155582      1.967202     -4.105582
  C       3.313401      1.469214     -3.243306
  O       2.949527      1.648493     -1.817119
  P       2.297127      0.643180     -0.767694
  O       1.853773      1.350096      0.469406
  Se      0.560503     -0.487821     -1.699502
  Sn     -0.947404      0.137635      0.362708
  C      -2.731011     -1.011432     -0.109502
  C      -3.227283     -1.063888     -1.422646
  C      -4.390731     -1.783136     -1.719602
  C      -5.074264     -2.459648     -0.702868
  C      -4.591238     -2.413931      0.609043
  C      -3.426083     -1.693902      0.902386
  C      -0.048925     -0.734834      2.120930
  C      -0.057390     -2.129969      2.274882
  C       0.554978     -2.725308      3.384748
  C       1.174237     -1.926445      4.351886
  C       1.182544     -0.534548      4.205465
  C       0.577551      0.059151      3.092506
  C      -1.524830      2.218663      0.421821
  C      -2.896627      2.497507      0.300447
  C      -3.356880      3.819088      0.347698
  C      -2.448622      4.869330      0.515227
  C      -1.081271      4.595101      0.633542
  C      -0.615718      3.275450      0.587024
  O       3.472667     -0.436377     -0.550285
  C       3.296848     -1.461288      0.512776
  C       4.056333     -1.000298      1.750568
  C       3.782644     -2.780093     -0.072787
  C       3.773328      0.053210     -3.582401
  H       1.284131      1.309929     -4.009327
  H       1.863518      2.980074     -3.805751
  H       2.463695      1.990687     -5.159492
  H       4.165594      2.153819     -3.342922
  H      -2.708046     -0.542180     -2.226881
  H      -4.762875     -1.816117     -2.742941
  H      -5.979100     -3.020345     -0.932645
  H      -5.119628     -2.938892      1.404089
  H      -3.062271     -1.672132      1.929548
  H      -0.532761     -2.763661      1.526506
  H       0.546181     -3.809222      3.493568
  H       1.651429     -2.386974      5.215770
  H       1.670148      0.089146      4.953629
  H       0.619336      1.139545      2.973255
  H      -3.614261      1.688785      0.165917
  H      -4.422240      4.025238      0.251777
  H      -2.804996      5.897944      0.551053
  H      -0.371306      5.411544      0.761724
  H       0.448136      3.067946      0.666408
  H       2.226591     -1.531964      0.739895
  H       5.128101     -0.905354      1.531664
  H       3.674108     -0.033273      2.092024
  H       3.924357     -1.728752      2.560673
  H       3.193937     -3.049390     -0.957470
  H       3.678211     -3.580319      0.671419
  H       4.839865     -2.709652     -0.360325
  H       4.150826      0.047540     -4.613494
  H       4.575348     -0.275363     -2.914617
  H       2.950008     -0.668608     -3.521824
>
59
-4114.76183606; 31P isotropic shielding: 233.638408 ppm
  C       0.824249      3.706163     -3.196423
  C       0.613925      3.157158     -1.787676
  O       0.447104      1.679008     -1.863349
  P       1.670513      0.646940     -2.040638
  O       2.939086      1.159601     -2.620438
  Se      2.028574     -0.258530      0.021619
  Sn     -0.478248     -0.245229      0.737967
  C      -1.784720     -1.154440     -0.721056
  C      -2.316801     -2.424092     -0.444618
  C      -3.166800     -3.052039     -1.363426
  C      -3.496861     -2.409931     -2.561380
  C      -2.975289     -1.141475     -2.838713
  C      -2.119523     -0.516662     -1.925790
  C      -0.454727     -1.427803      2.548410
  C       0.270069     -2.628891      2.616445
  C       0.264401     -3.397276      3.786430
  C      -0.465321     -2.969893      4.901417
  C      -1.187533     -1.773106      4.844688
  C      -1.181777     -1.005889      3.673223
  C      -1.071593      1.782644      1.184136
  C      -2.166019      2.368749      0.529884
  C      -2.528329      3.694313      0.800146
  C      -1.799050      4.444328      1.729200
  C      -0.711129      3.864927      2.391825
  C      -0.349924      2.540772      2.118990
  O       0.872369     -0.458747     -2.893803
  C       1.531516     -1.737855     -3.244168
  C       2.295773     -1.560747     -4.553747
  C       0.424619     -2.783403     -3.308065
  C       1.698719      3.572689     -0.796562
  H       1.788787      3.376570     -3.598694
  H       0.025035      3.367938     -3.866906
  H       0.810492      4.804218     -3.168970
  H      -0.364698      3.463940     -1.401863
  H      -2.071510     -2.933391      0.487216
  H      -3.569452     -4.039746     -1.142478
  H      -4.157112     -2.897374     -3.277241
  H      -3.226418     -0.641297     -3.773287
  H      -1.691352      0.451112     -2.172189
  H       0.851334     -2.968883      1.759393
  H       0.830962     -4.326698      3.828498
  H      -0.468356     -3.566108      5.812609
  H      -1.753503     -1.435169      5.711926
  H      -1.744628     -0.072834      3.645545
  H      -2.741241      1.797912     -0.197992
  H      -3.378020      4.140294      0.284507
  H      -2.078962      5.475658      1.938401
  H      -0.141565      4.444729      3.116943
  H       0.507213      2.107362      2.634179
  H       2.226748     -1.985103     -2.428630
  H       2.795027     -2.501407     -4.822646
  H       1.606027     -1.290628     -5.364056
  H       3.052891     -0.775473     -4.457654
  H       0.853101     -3.758899     -3.572837
  H      -0.317121     -2.510624     -4.068398
  H      -0.087737     -2.874848     -2.345332
  H       1.656152      4.662174     -0.666989
  H       1.535306      3.108679      0.179961
  H       2.695029      3.301609     -1.161445
>
59
-4114.76322053; 31P isotropic shielding: 227.593123 ppm
  C      -0.137163      3.766033     -2.009782
  C       0.735364      2.691003     -2.642621
  O       0.729083      1.548269     -1.691022
  P       1.954263      0.502406     -1.674809
  O       3.257644      0.984762     -2.201384
  Se      2.084769     -0.144771      0.496088
  Sn     -0.486058     -0.167735      0.930047
  C      -1.585299     -1.255144     -0.575996
  C      -1.840864     -0.698662     -1.838088
  C      -2.540767     -1.429874     -2.802747
  C      -2.987860     -2.724535     -2.515482
  C      -2.741048     -3.284452     -1.257666
  C      -2.044157     -2.550486     -0.289949
  C      -0.629221     -1.199998      2.825192
  C       0.061894     -2.401985      3.049087
  C      -0.056524     -3.072318      4.272233
  C      -0.866554     -2.545030      5.284214
  C      -1.554959     -1.345699      5.072149
  C      -1.435897     -0.676303      3.848077
  C      -1.178582      1.868203      1.095013
  C      -2.465438      2.210870      0.653145
  C      -2.921810      3.531146      0.754847
  C      -2.093657      4.517218      1.300855
  C      -0.809532      4.181396      1.745228
  C      -0.353353      2.862898      1.639672
  O       1.282025     -0.723240     -2.482482
  C       2.046907     -1.977090     -2.668595
  C       2.794134     -1.903110     -3.997235
  C       1.036618     -3.114150     -2.579268
  C       0.242542      2.215771     -4.006896
  H      -0.157272      4.652911     -2.656568
  H      -1.165142      3.408395     -1.876953
  H       0.251567      4.056748     -1.029150
  H       1.775769      3.031597     -2.717237
  H      -1.474497      0.295187     -2.079591
  H      -2.729810     -0.992533     -3.782403
  H      -3.528100     -3.295155     -3.269503
  H      -3.089701     -4.290699     -1.028782
  H      -1.860888     -2.996605      0.687318
  H       0.705986     -2.818577      2.274804
  H       0.485665     -4.002789      4.435959
  H      -0.957075     -3.065052      6.236661
  H      -2.181905     -0.929375      5.859667
  H      -1.972165      0.260979      3.699380
  H      -3.118928      1.454009      0.219360
  H      -3.921031      3.788555      0.405573
  H      -2.446773      5.544331      1.378973
  H      -0.160649      4.947592      2.167759
  H       0.656174      2.617927      1.968425
  H       2.764698     -2.055070     -1.838815
  H       3.477053     -1.046913     -4.005273
  H       3.378385     -2.820634     -4.149480
  H       2.085163     -1.802667     -4.829636
  H       0.271404     -3.013693     -3.358696
  H       0.536122     -3.115559     -1.605956
  H       1.546919     -4.077020     -2.713530
  H       0.883186      1.419821     -4.402038
  H      -0.785346      1.836700     -3.938871
  H       0.255491      3.053195     -4.717324
>
59
-4114.76457042; 31P isotropic shielding: 223.921160 ppm
  C       3.415791      2.181896      0.939045
  C       3.537307      1.556034     -0.444804
  O       2.173800      1.548728     -1.022420
  P       1.715279      0.304542     -1.945830
  O       2.603143      0.005125     -3.099560
  Se      1.456966     -1.478587     -0.570064
  Sn     -0.591636     -0.534197      0.735848
  C      -2.331531     -0.577942     -0.538478
  C      -3.294903      0.437942     -0.441960
  C      -4.429160      0.419651     -1.263550
  C      -4.607822     -0.616564     -2.185996
  C      -3.650794     -1.632903     -2.286471
  C      -2.516327     -1.611562     -1.468055
  C      -0.776121     -1.944258      2.364721
  C      -2.029577     -2.493513      2.678288
  C      -2.164167     -3.396253      3.740201
  C      -1.045025     -3.758383      4.497521
  C       0.209180     -3.218998      4.190090
  C       0.342494     -2.317047      3.128004
  C      -0.248371      1.449756      1.511644
  C       0.063625      1.617147      2.869798
  C       0.302297      2.895536      3.388996
  C       0.223909      4.015063      2.553917
  C      -0.094697      3.854661      1.200617
  C      -0.326965      2.577402      0.681058
  O       0.202366      0.742950     -2.279430
  C      -0.109220      1.430105     -3.561118
  C       0.000527      2.938664     -3.354969
  C      -1.499188      0.960649     -3.968370
  C       4.466876      2.306945     -1.394003
  H       4.401755      2.213091      1.421075
  H       3.029742      3.205898      0.867468
  H       2.734717      1.603043      1.570705
  H       3.863901      0.510062     -0.350012
  H      -3.165330      1.254852      0.267755
  H      -5.170056      1.214359     -1.184327
  H      -5.488478     -0.631351     -2.826283
  H      -3.784437     -2.438813     -3.007019
  H      -1.768113     -2.396934     -1.571483
  H      -2.908668     -2.225727      2.092066
  H      -3.140952     -3.818372      3.973197
  H      -1.148610     -4.462091      5.322039
  H       1.083572     -3.502869      4.774408
  H       1.327926     -1.914913      2.892975
  H       0.122625      0.753680      3.532172
  H       0.547664      3.015973      4.443415
  H       0.410192      5.009551      2.956757
  H      -0.153257      4.724157      0.546969
  H      -0.548277      2.462375     -0.376381
  H       0.638548      1.092719     -4.289899
  H      -0.185812      3.458104     -4.304440
  H      -0.740058      3.285189     -2.622620
  H       0.999552      3.213914     -2.999767
  H      -1.519616     -0.126254     -4.097100
  H      -1.783014      1.431022     -4.919080
  H      -2.242299      1.231430     -3.209347
  H       4.131562      3.345628     -1.514275
  H       5.487559      2.318013     -0.988460
  H       4.484105      1.821973     -2.375775
>
59
-4114.76433720; 31P isotropic shielding: 223.469560 ppm
  C       3.312915      2.409175      1.035293
  C       3.474583      1.802018     -0.352638
  O       2.127364      1.797698     -0.968998
  P       1.700334      0.567351     -1.913054
  O       2.574995      0.283957     -3.080435
  Se      1.535102     -1.260911     -0.559643
  Sn     -0.555864     -0.418731      0.748830
  C      -2.292843     -0.559849     -0.526569
  C      -3.096259      0.565191     -0.767879
  C      -4.203623      0.477666     -1.620739
  C      -4.517610     -0.737827     -2.238446
  C      -3.726729     -1.866657     -1.996512
  C      -2.619848     -1.776347     -1.145085
  C      -0.702342     -1.848160      2.365035
  C      -1.950313     -2.391606      2.709839
  C      -2.060418     -3.306852      3.763891
  C      -0.922089     -3.687138      4.482711
  C       0.326521     -3.153219      4.144592
  C       0.435249     -2.239218      3.090070
  C      -0.311521      1.575204      1.538783
  C      -0.355715      2.713487      0.718789
  C      -0.194115      3.987209      1.273647
  C       0.021019      4.134600      2.648461
  C       0.067152      3.004661      3.471514
  C      -0.102889      1.729528      2.918655
  O       0.189333      1.047379     -2.193032
  C      -0.536223      0.797790     -3.469229
  C      -0.440540     -0.657938     -3.920384
  C      -0.057833      1.799596     -4.517115
  C       4.422717      2.570840     -1.268425
  H       4.287321      2.443429      1.539985
  H       2.918727      3.430159      0.966866
  H       2.623330      1.816075      1.644086
  H       3.803982      0.756786     -0.262040
  H      -2.862477      1.518544     -0.295744
  H      -4.818731      1.358008     -1.803376
  H      -5.377216     -0.806259     -2.903377
  H      -3.968607     -2.815398     -2.473758
  H      -2.005962     -2.661041     -0.976328
  H      -2.844948     -2.109091      2.154981
  H      -3.033307     -3.723716      4.021392
  H      -1.006693     -4.400086      5.301439
  H       1.215641     -3.450514      4.699239
  H       1.415948     -1.840372      2.830980
  H      -0.484003      2.611998     -0.355589
  H      -0.224902      4.864888      0.629144
  H       0.153400      5.126979      3.077061
  H       0.233870      3.114058      4.542385
  H      -0.069708      0.857448      3.571553
  H      -1.568926      1.018882     -3.176800
  H      -0.744052     -1.337208     -3.118954
  H      -1.121476     -0.806960     -4.768748
  H       0.576535     -0.909311     -4.239116
  H      -0.132192      2.824504     -4.134158
  H      -0.685255      1.720070     -5.415271
  H       0.982614      1.599253     -4.796570
  H       4.470734      2.097054     -2.254670
  H       4.081035      3.607262     -1.388212
  H       5.431703      2.585663     -0.834730
>
59
-4114.76348815; 31P isotropic shielding: 227.527781 ppm
  C      -0.712093     -0.865245     -4.110601
  C       0.772966     -0.711349     -3.806703
  O       0.996308     -1.343043     -2.485210
  P       2.091640     -0.718445     -1.486609
  O       3.483893     -0.618021     -1.996068
  Se      1.308422      1.330563     -0.864862
  Sn     -0.697309      0.423088      0.531621
  C      -1.906567     -0.999212     -0.552462
  C      -1.474642     -2.309662     -0.809343
  C      -2.295682     -3.195325     -1.515002
  C      -3.549667     -2.779222     -1.976071
  C      -3.986471     -1.474671     -1.724097
  C      -3.168885     -0.589388     -1.010980
  C       0.047157     -0.408195      2.380723
  C      -0.224860     -1.740844      2.726108
  C       0.286155     -2.285906      3.910689
  C       1.073007     -1.501012      4.760518
  C       1.342094     -0.168665      4.427686
  C       0.831556      0.373507      3.242836
  C      -1.841409      2.214617      0.930256
  C      -2.080749      3.158446     -0.081864
  C      -2.840080      4.304689      0.180510
  C      -3.365616      4.518941      1.459687
  C      -3.129186      3.586575      2.475560
  C      -2.370183      2.439850      2.211409
  O       1.806860     -1.698377     -0.240809
  C       2.858041     -2.149012      0.713723
  C       3.686803     -0.986656      1.254750
  C       3.690134     -3.247374      0.056609
  C       1.693906     -1.373960     -4.827304
  H      -1.321563     -0.365928     -3.350891
  H      -0.937438     -0.422249     -5.089568
  H      -0.993495     -1.924921     -4.134091
  H       1.020429      0.355825     -3.710717
  H      -0.488227     -2.635946     -0.490786
  H      -1.950108     -4.209036     -1.714199
  H      -4.183640     -3.469058     -2.531228
  H      -4.961542     -1.145286     -2.080796
  H      -3.522394      0.423175     -0.817370
  H      -0.834499     -2.364356      2.073457
  H       0.070827     -3.322323      4.168065
  H       1.472519     -1.924773      5.680625
  H       1.952096      0.446609      5.087799
  H       1.058700      1.409515      2.991675
  H      -1.669090      3.009241     -1.079954
  H      -3.018395      5.030783     -0.611662
  H      -3.954418      5.411710      1.664767
  H      -3.533304      3.752049      3.473523
  H      -2.189552      1.724956      3.014138
  H       2.249066     -2.566720      1.523358
  H       4.335332     -1.360514      2.058030
  H       4.315702     -0.550508      0.471434
  H       3.042581     -0.208409      1.673542
  H       3.042896     -4.045277     -0.327067
  H       4.374461     -3.683749      0.796847
  H       4.280441     -2.840462     -0.771903
  H       2.742334     -1.253539     -4.534649
  H       1.468093     -2.445426     -4.906821
  H       1.548149     -0.914576     -5.814256
