41
-1558.66846069; 31P isotropic shielding: 184.046124 ppm
  C       2.731646     -2.384613     -0.635811
  N       1.527559     -1.630041     -1.009100
  P       0.156992     -1.700302     -0.060032
  S      -0.144227     -3.353017      0.939222
  N      -1.022496     -1.290202     -1.248557
  N      -2.359685     -1.247624     -0.756973
  C      -2.841770      0.022854     -0.388347
  C      -3.744499      0.140820      0.683669
  C      -4.279291      1.385202      1.019558
  C      -3.916340      2.535075      0.307185
  C      -3.018219      2.418502     -0.759146
  C      -2.482921      1.176129     -1.112484
  N       0.036536     -0.417748      1.035579
  N       0.207001      0.933051      0.728510
  C       1.494906      1.455515      0.551490
  C       2.627906      0.835938      1.108096
  C       3.891753      1.400866      0.924719
  C       4.052977      2.585679      0.197138
  C       2.921259      3.206826     -0.346608
  C       1.653524      2.650369     -0.176860
  C       1.774144     -0.580220     -2.014470
  H       3.485595     -1.723802     -0.180538
  H       2.469597     -3.176937      0.069990
  H       3.165597     -2.842137     -1.536538
  H      -0.969952     -1.897890     -2.066935
  H      -2.530287     -1.975307     -0.055471
  H      -4.016709     -0.746040      1.255637
  H      -4.972769      1.458723      1.855838
  H      -4.328386      3.504555      0.578428
  H      -2.733415      3.301451     -1.329816
  H      -1.803201      1.082181     -1.955289
  H      -0.254667     -0.635607      1.983790
  H      -0.536822      1.327159      0.152324
  H       2.509462     -0.085096      1.671925
  H       4.760224      0.908025      1.359839
  H       5.040929      3.019283      0.058393
  H       3.026229      4.129655     -0.915388
  H       0.778409      3.133746     -0.610862
  H       0.864509     -0.006194     -2.197423
  H       2.093319     -1.048301     -2.957908
  H       2.562880      0.107071     -1.678676
>
41
-1558.67193619; 31P isotropic shielding: 190.785664 ppm
  C       2.628863     -2.536356     -0.833986
  N       1.417906     -1.763743     -1.141016
  P       0.132602     -1.712385     -0.072543
  S      -0.022749     -3.200279      1.183738
  N      -1.155933     -1.482482     -1.185503
  N      -2.446939     -1.367917     -0.592128
  C      -2.892926     -0.060273     -0.316213
  C      -3.735596      0.162895      0.787568
  C      -4.241455      1.438422      1.041939
  C      -3.908357      2.516929      0.213229
  C      -3.069150      2.294293     -0.885246
  C      -2.565227      1.019332     -1.156505
  N       0.032921     -0.273583      0.813702
  N       0.351966      0.947647      0.219663
  C       1.612461      1.527757      0.408591
  C       2.690683      0.807380      0.953286
  C       3.947596      1.410752      1.062695
  C       4.153121      2.727412      0.641266
  C       3.074530      3.445890      0.106443
  C       1.816638      2.858230     -0.010882
  C       1.609899     -0.753898     -2.198689
  H       3.443956     -1.878299     -0.492950
  H       2.411496     -3.274231     -0.057786
  H       2.963314     -3.061444     -1.740412
  H      -1.166162     -2.191771     -1.918563
  H      -2.559620     -2.011926      0.197034
  H      -3.982265     -0.666393      1.450356
  H      -4.888809      1.592785      1.903869
  H      -4.298305      3.511614      0.418218
  H      -2.808189      3.120027     -1.546264
  H      -1.918768      0.846628     -2.012065
  H       0.129099     -0.351204      1.827162
  H      -0.446857      1.570274      0.115634
  H       2.545443     -0.214992      1.289872
  H       4.772195      0.840515      1.488133
  H       5.133275      3.190353      0.731914
  H       3.214258      4.475084     -0.220997
  H       0.983136      3.421563     -0.430058
  H       1.899082     -1.258619     -3.132558
  H       2.403923     -0.043926     -1.923426
  H       0.685542     -0.199464     -2.364921
>
41
-1558.67177494; 31P isotropic shielding: 188.989533 ppm
  C       1.589736     -0.699057     -2.230139
  N       1.404443     -1.734861     -1.196706
  P       0.128388     -1.708532     -0.116413
  S      -0.019590     -3.227968      1.102433
  N      -1.168752     -1.447431     -1.212130
  N      -2.454498     -1.343164     -0.606130
  C      -2.895608     -0.041113     -0.298171
  C      -3.733726      0.158572      0.813573
  C      -4.235445      1.429140      1.099007
  C      -3.902675      2.525624      0.294029
  C      -3.067782      2.326370     -0.812159
  C      -2.567845      1.056802     -1.114366
  N       0.039363     -0.292989      0.807659
  N       0.356909      0.942830      0.243369
  C       1.619345      1.515917      0.440801
  C       1.821664      2.858531      0.060926
  C       3.080736      3.441710      0.187520
  C       4.162405      2.706597      0.692699
  C       3.958782      1.377741      1.074931
  C       2.700715      0.778607      0.955779
  C       2.615397     -2.519446     -0.921925
  H       1.868583     -1.180841     -3.179154
  H       0.665668     -0.137829     -2.373667
  H       2.388605      0.001527     -1.944869
  H      -1.187173     -2.137787     -1.962903
  H      -2.563393     -2.004871      0.168723
  H      -3.980436     -0.685310      1.457662
  H      -4.879408      1.565191      1.966549
  H      -4.289650      3.516201      0.523134
  H      -2.807013      3.166469     -1.454900
  H      -1.924604      0.902116     -1.975742
  H       0.144807     -0.397514      1.817791
  H      -0.441493      1.569457      0.162302
  H       0.985555      3.435023     -0.334529
  H       3.218944      4.480429     -0.109048
  H       5.143498      3.166006      0.790877
  H       4.785876      0.794258      1.476918
  H       2.557175     -0.253669      1.261475
  H       2.941197     -3.018178     -1.846215
  H       2.402176     -3.279696     -0.166388
  H       3.435223     -1.874263     -0.567803
>
41
-1558.67178104; 31P isotropic shielding: 189.047672 ppm
  C      -1.351353     -3.348504     -0.992313
  N      -0.392135     -2.243330     -1.120109
  P       0.422808     -1.651461      0.214348
  S       0.632365     -2.870244      1.726685
  N      -0.200562     -0.194496      0.807329
  N      -0.666372      0.788113     -0.065465
  C      -2.034576      0.922185     -0.330575
  C      -2.964761     -0.070144      0.027689
  C      -4.311528      0.079997     -0.317662
  C      -4.755073      1.208245     -1.013380
  C      -3.827354      2.200287     -1.360870
  C      -2.481754      2.064470     -1.025760
  N       1.856528     -1.091052     -0.549245
  N       2.804328     -0.490114      0.330901
  C       2.720366      0.909347      0.473672
  C       2.363008      1.736391     -0.606857
  C       2.341628      3.124613     -0.446903
  C       2.679704      3.712328      0.778158
  C       3.044698      2.887151      1.848996
  C       3.059257      1.499113      1.704682
  C      -0.544797     -1.466692     -2.364756
  H      -1.218545     -4.043387     -1.834190
  H      -1.174867     -3.887556     -0.058236
  H      -2.388472     -2.977147     -1.008348
  H      -0.567350     -0.202534      1.759967
  H      -0.094362      1.630352     -0.074549
  H      -2.635480     -0.950433      0.572029
  H      -5.019733     -0.696712     -0.032411
  H      -5.804783      1.318490     -1.276522
  H      -4.155567      3.089541     -1.897080
  H      -1.765082      2.838093     -1.301013
  H       2.306349     -1.815234     -1.109458
  H       2.855182     -0.987222      1.225706
  H       2.105806      1.281410     -1.559110
  H       2.064766      3.752439     -1.293121
  H       2.662198      4.793706      0.895722
  H       3.305779      3.325823      2.810907
  H       3.321899      0.862839      2.549642
  H      -0.369885     -2.127809     -3.226611
  H       0.175557     -0.648025     -2.392331
  H      -1.559036     -1.047840     -2.444258
>
41
-1558.67178638; 31P isotropic shielding: 189.136127 ppm
  C      -0.395133     -0.995681     -2.782930
  N      -0.473575     -1.746152     -1.518287
  P       0.271294     -1.150270     -0.152615
  S      -0.080589     -2.156964      1.493849
  N      -0.101176      0.521737     -0.033745
  N      -1.252014      0.811301      0.766809
  C      -2.488255      0.661646      0.088858
  C      -3.565655      0.035908      0.738382
  C      -4.807528     -0.061150      0.106340
  C      -4.988389      0.444535     -1.185818
  C      -3.910421      1.060277     -1.834934
  C      -2.669636      1.175723     -1.206432
  N       1.918593     -1.035365     -0.631331
  N       2.838928     -0.783466      0.433440
  C       3.124427      0.573202      0.704215
  C       3.473873      0.945592      2.015690
  C       3.823211      2.265365      2.301390
  C       3.816350      3.239367      1.294685
  C       3.458905      2.870192     -0.005956
  C       3.115668      1.548942     -0.308681
  C      -1.580056     -2.711929     -1.455620
  H      -1.348263     -0.489770     -2.994327
  H       0.395161     -0.242746     -2.730402
  H      -0.169318     -1.688261     -3.606588
  H       0.680032      1.137227      0.197080
  H      -1.229568      0.249674      1.627113
  H      -3.418382     -0.388528      1.730752
  H      -5.632421     -0.551018      0.621597
  H      -5.953933      0.360376     -1.680468
  H      -4.039480      1.464133     -2.838388
  H      -1.835480      1.663319     -1.703476
  H       2.219197     -1.846643     -1.171590
  H       2.576581     -1.309919      1.274388
  H       3.464716      0.196406      2.807014
  H       4.088887      2.537258      3.321759
  H       4.080765      4.269607      1.523057
  H       3.447920      3.615844     -0.799641
  H       2.847065      1.262422     -1.321649
  H      -2.549296     -2.203075     -1.570632
  H      -1.561949     -3.230821     -0.494891
  H      -1.465457     -3.447895     -2.264017
>
41
-1558.67147774; 31P isotropic shielding: 168.678846 ppm
  C      -0.243971      1.481875      0.308786
  N       0.123596      0.291079     -0.470414
  P       0.136688     -1.241987      0.168861
  S       0.372351     -2.699723     -1.114700
  N      -1.332112     -1.283167      1.063699
  N      -2.489515     -1.567900      0.265164
  C      -3.209366     -0.446779     -0.206519
  C      -3.509269      0.632804      0.641711
  C      -4.281659      1.696079      0.173038
  C      -4.778161      1.698626     -1.136890
  C      -4.486932      0.618666     -1.977938
  C      -3.700970     -0.442658     -1.523202
  N       1.243586     -1.370739      1.485201
  N       1.903805     -0.260661      2.033383
  C       2.805001      0.507153      1.277071
  C       3.416445     -0.000880      0.117908
  C       4.343867      0.779355     -0.576922
  C       4.681148      2.063315     -0.135916
  C       4.073221      2.565289      1.021687
  C       3.141623      1.799910      1.722961
  C       0.651165      0.591805     -1.807100
  H      -1.014565      2.050626     -0.229050
  H      -0.659357      1.190585      1.274846
  H       0.635018      2.124813      0.464388
  H      -1.272483     -1.939529      1.842684
  H      -2.249823     -2.228711     -0.483124
  H      -3.134229      0.625128      1.661955
  H      -4.505830      2.527127      0.840636
  H      -5.383988      2.528440     -1.495154
  H      -4.859414      0.607426     -3.001234
  H      -3.455078     -1.269465     -2.189198
  H       1.829503     -2.203370      1.443084
  H       1.348328      0.237385      2.721147
  H       3.155789     -0.989868     -0.249688
  H       4.805166      0.374123     -1.476316
  H       5.404517      2.663516     -0.683438
  H       4.319997      3.563788      1.379404
  H       2.670350      2.198757      2.621700
  H       0.875330     -0.338116     -2.334316
  H       1.566909      1.195895     -1.736495
  H      -0.106380      1.149884     -2.375900
>
41
-1558.66794675; 31P isotropic shielding: 182.975248 ppm
  C      -0.280418      1.104882     -1.641864
  N      -0.059459      0.434065     -0.354721
  P       0.079590     -1.215880     -0.220535
  S       0.483957     -2.176053     -1.876783
  N      -1.277384     -1.896242      0.599911
  N      -2.281062     -1.109578      1.185572
  C      -3.091525     -0.258871      0.414991
  C      -3.804076      0.771527      1.058126
  C      -4.659778      1.596234      0.327917
  C      -4.817358      1.416068     -1.052078
  C      -4.106553      0.392920     -1.688347
  C      -3.250062     -0.444221     -0.969204
  N       1.248174     -1.391753      1.029517
  N       2.604763     -1.275481      0.578386
  C       3.183907      0.010099      0.680039
  C       3.035392      0.783502      1.843912
  C       3.673734      2.019907      1.947618
  C       4.477949      2.500848      0.906270
  C       4.632716      1.725809     -0.248641
  C       3.984570      0.494348     -0.368654
  C      -0.152371      1.326845      0.808820
  H      -0.166553      0.387676     -2.457697
  H      -1.288348      1.541561     -1.684637
  H       0.464263      1.904544     -1.764117
  H      -1.641840     -2.735545      0.151255
  H      -2.045043     -0.788370      2.118683
  H      -3.685133      0.918721      2.131904
  H      -5.201621      2.389541      0.840639
  H      -5.482185      2.062944     -1.620259
  H      -4.213930      0.240813     -2.761279
  H      -2.692999     -1.222744     -1.483757
  H       1.119779     -2.266360      1.539003
  H       2.701172     -1.678877     -0.360810
  H       2.421628      0.404952      2.657327
  H       3.549293      2.610002      2.854747
  H       4.977143      3.463616      0.994810
  H       5.248786      2.087619     -1.070568
  H       4.085773     -0.094055     -1.280301
  H      -1.156035      1.773577      0.870681
  H       0.593146      2.128267      0.718296
  H       0.059399      0.776539      1.726927
>
41
-1558.66797451; 31P isotropic shielding: 182.420107 ppm
  C      -0.136144      1.427157      0.593086
  N      -0.037552      0.362062     -0.414410
  P       0.044447     -1.250206     -0.022550
  S       0.466876     -2.466716     -1.495656
  N      -1.358210     -1.754868      0.845775
  N      -2.356327     -0.858248      1.258670
  C      -3.109656     -0.120705      0.329204
  C      -3.806559      1.021178      0.769369
  C      -4.606123      1.742315     -0.117284
  C      -4.722859      1.345616     -1.455391
  C      -4.028839      0.211416     -1.889828
  C      -3.228115     -0.523541     -1.012130
  N       1.169095     -1.260126      1.278681
  N       2.541276     -1.240274      0.861124
  C       3.152413      0.032828      0.799178
  C       3.999133      0.343177     -0.278807
  C       4.678705      1.562991     -0.312020
  C       4.510193      2.498435      0.715115
  C       3.660033      2.190509      1.785107
  C       2.989488      0.967890      1.835421
  C      -0.196405      0.830380     -1.796824
  H       0.025810      1.021068      1.592940
  H       0.640664      2.181607      0.408747
  H      -1.123823      1.909966      0.546121
  H      -1.734556     -2.645889      0.525042
  H      -2.139118     -0.393255      2.134087
  H      -3.719536      1.336920      1.809368
  H      -5.136355      2.624064      0.239398
  H      -5.344169      1.911529     -2.146045
  H      -4.105325     -0.109524     -2.927594
  H      -2.683290     -1.391892     -1.372930
  H       1.003142     -2.045984      1.907942
  H       2.656109     -1.776707     -0.006654
  H       4.113860     -0.371783     -1.093220
  H       5.330759      1.788563     -1.154594
  H       5.034074      3.451599      0.683942
  H       3.524354      2.906515      2.594733
  H       2.340440      0.724180      2.672662
  H      -1.185409      1.288012     -1.940831
  H      -0.086811     -0.009264     -2.486709
  H       0.581608      1.575505     -2.017036
>
41
-1558.66782533; 31P isotropic shielding: 182.352687 ppm
  C      -0.049796      1.425914      0.378383
  N      -0.017415      0.271405     -0.531277
  P       0.022587     -1.304791     -0.006725
  S       0.372517     -2.650857     -1.382437
  N      -1.367455     -1.709472      0.925870
  N      -2.286454     -0.748449      1.373468
  C      -3.062005      0.001443      0.473476
  C      -3.277713     -0.423990     -0.848684
  C      -4.097099      0.326859     -1.695253
  C      -4.714773      1.499430     -1.247689
  C      -4.501513      1.918588      0.071611
  C      -3.682207      1.181848      0.926681
  N       1.174269     -1.235226      1.268159
  N       2.537584     -1.235584      0.818787
  C       3.148452      0.033354      0.695292
  C       3.033226      0.993077      1.715376
  C       3.698636      2.214225      1.604362
  C       4.498035      2.495688      0.488751
  C       4.620686      1.535462     -0.521723
  C       3.944228      0.316742     -0.427512
  C      -0.202448      0.623965     -1.944526
  H       0.743321      2.133410      0.101351
  H      -1.023308      1.934638      0.318547
  H       0.132954      1.106262      1.405278
  H      -1.805313     -2.587167      0.650500
  H      -1.994141     -0.278067      2.223735
  H      -2.793530     -1.323920     -1.218470
  H      -4.249823     -0.012601     -2.718633
  H      -5.351548      2.077430     -1.913786
  H      -4.971445      2.830114      0.437808
  H      -3.519207      1.515658      1.951778
  H       1.026262     -1.988538      1.940500
  H       2.633201     -1.806586     -0.028670
  H       2.423050      0.770136      2.587164
  H       3.600121      2.950026      2.401467
  H       5.018727      3.447859      0.410077
  H       5.233198      1.740292     -1.398557
  H       4.021543     -0.418092     -1.228548
  H      -1.181826      1.098074     -2.101708
  H      -0.135138     -0.274065     -2.562620
  H       0.589161      1.324506     -2.247298
>
41
-1558.66795164; 31P isotropic shielding: 184.111402 ppm
  C      -0.272687      1.563158      0.339007
  N       0.118612      0.367764     -0.419936
  P       0.118554     -1.156301      0.239954
  S       0.399795     -2.631883     -1.014204
  N      -1.376691     -1.201713      1.088807
  N      -2.502713     -1.546270      0.270500
  C      -3.222463     -0.461823     -0.281541
  C      -3.547073      0.665366      0.492089
  C      -4.320758      1.689508     -0.055596
  C      -4.792810      1.605798     -1.371787
  C      -4.476047      0.478783     -2.138737
  C      -3.689508     -0.544321     -1.604713
  N       1.185130     -1.233587      1.596814
  N       1.889184     -0.113136      2.068497
  C       2.818517      0.563727      1.259278
  C       3.421295     -0.053994      0.150003
  C       4.378275      0.638712     -0.595590
  C       4.753271      1.942663     -0.254621
  C       4.153665      2.554345      0.853370
  C       3.193182      1.876557      1.604260
  C       0.677032      0.655103     -1.747046
  H       0.599106      2.213525      0.506171
  H      -1.034942      2.122974     -0.219855
  H      -0.707190      1.278137      1.298957
  H      -1.328255     -1.817249      1.900959
  H      -2.226931     -2.236226     -0.438363
  H      -3.192134      0.724530      1.517635
  H      -4.564920      2.557837      0.555085
  H      -5.399048      2.405751     -1.791916
  H      -4.829097      0.400420     -3.165946
  H      -3.425417     -1.408899     -2.213300
  H       1.744071     -2.085504      1.621083
  H       1.340674      0.463525      2.698127
  H       3.129940     -1.059545     -0.141633
  H       4.831126      0.149309     -1.456472
  H       5.498936      2.474428     -0.841581
  H       4.429969      3.569812      1.133152
  H       2.731694      2.359548      2.466065
  H       1.585618      1.267537     -1.661623
  H      -0.070584      1.198011     -2.343004
  H       0.922821     -0.280179     -2.254550
>
41
-1558.66785534; 31P isotropic shielding: 181.206571 ppm
  C       0.737497     -0.085650     -1.845355
  N       0.144082      0.168043     -0.526341
  P       0.052828     -0.997305      0.652953
  S       0.270231     -2.846163      0.049163
  N      -1.454092     -0.652813      1.406877
  N      -2.586418     -1.221061      0.733761
  C      -3.228469     -0.384638     -0.208536
  C      -3.657043     -0.923653     -1.433737
  C      -4.367431     -0.133673     -2.340391
  C      -4.644116      1.207057     -2.049936
  C      -4.210448      1.744541     -0.831203
  C      -3.513870      0.958956      0.087944
  N       1.095326     -0.616790      1.976691
  N       1.844113      0.570004      2.030348
  C       2.815031      0.870720      1.059805
  C       3.404632     -0.130636      0.268952
  C       4.402540      0.206774     -0.648408
  C       4.832245      1.530284     -0.792796
  C       4.245738      2.525287     -0.000804
  C       3.244414      2.203999      0.915622
  C      -0.200107      1.575974     -0.285250
  H       0.938298     -1.152813     -1.962388
  H       0.029805      0.230516     -2.625143
  H       1.676904      0.472674     -1.962019
  H      -1.452951     -0.927422      2.389425
  H      -2.339699     -2.137291      0.340889
  H      -3.421206     -1.959906     -1.674512
  H      -4.691667     -0.565872     -3.285918
  H      -5.190759      1.823440     -2.760710
  H      -4.425045      2.784701     -0.589244
  H      -3.189378      1.372854      1.039165
  H       1.611564     -1.423035      2.326413
  H       1.318751      1.355910      2.399446
  H       3.071158     -1.161589      0.353349
  H       4.844499     -0.579071     -1.259011
  H       5.610025      1.783444     -1.509901
  H       4.564340      3.561759     -0.100717
  H       2.792163      2.984198      1.528532
  H       0.699702      2.206666     -0.345037
  H      -0.664038      1.690361      0.695951
  H      -0.924050      1.912419     -1.039630
>
41
-1558.66789288; 31P isotropic shielding: 181.594590 ppm
  C      -0.262075      1.582083      0.238827
  N       0.130004      0.348403     -0.456036
  P       0.112347     -1.142603      0.275543
  S       0.397627     -2.677604     -0.904033
  N      -1.393669     -1.136477      1.106965
  N      -2.512322     -1.507594      0.290047
  C      -3.220415     -0.443406     -0.313361
  C      -3.545167      0.717324      0.408894
  C      -4.307530      1.721907     -0.188665
  C      -4.768161      1.585568     -1.504454
  C      -4.451390      0.425355     -2.220167
  C      -3.676088     -0.578797     -1.636194
  N       1.162401     -1.166233      1.645918
  N       1.859047     -0.028033      2.083028
  C       2.801706      0.615376      1.262789
  C       3.418936     -0.045637      0.186791
  C       4.387335      0.616445     -0.571679
  C       4.759975      1.932117     -0.276134
  C       4.146160      2.586946      0.798926
  C       3.173949      1.940104      1.561847
  C       0.708679      0.568147     -1.787450
  H      -1.010942      2.119884     -0.358278
  H      -0.712562      1.346637      1.204640
  H       0.612655      2.232771      0.387890
  H      -1.360703     -1.717430      1.945054
  H      -2.233456     -2.228046     -0.386379
  H      -3.199407      0.818236      1.434313
  H      -4.551903      2.616605      0.382555
  H      -5.365618      2.370493     -1.963622
  H      -4.795522      0.305611     -3.246399
  H      -3.411997     -1.469787     -2.205395
  H       1.718473     -2.017570      1.714502
  H       1.304724      0.571161      2.685843
  H       3.129858     -1.061506     -0.069178
  H       4.851215      0.093452     -1.406512
  H       5.514763      2.439723     -0.872704
  H       4.420426      3.612103      1.043015
  H       2.700715      2.456915      2.397212
  H       1.621594      1.176406     -1.719289
  H      -0.026317      1.088647     -2.418087
  H       0.952655     -0.391897     -2.247485
>
41
-1558.66789664; 31P isotropic shielding: 181.450170 ppm
  C      -0.213895      1.570132      0.273743
  N       0.108159      0.345234     -0.470624
  P       0.105479     -1.161890      0.227973
  S       0.278923     -2.673496     -1.002161
  N      -1.341452     -1.141926      1.158111
  N      -2.521198     -1.455001      0.404077
  C      -3.228673     -0.349654     -0.122239
  C      -3.742110     -0.413598     -1.428906
  C      -4.515826      0.634336     -1.933303
  C      -4.772319      1.767469     -1.153189
  C      -4.253463      1.832739      0.146556
  C      -3.493194      0.783961      0.665024
  N       1.243830     -1.245017      1.523038
  N       1.981151     -0.130470      1.951974
  C       2.882426      0.527029      1.097745
  C       3.296652      1.834138      1.418889
  C       4.231528      2.492024      0.619669
  C       4.765935      1.866399     -0.513700
  C       4.351698      0.568328     -0.830866
  C       3.419912     -0.104839     -0.036996
  C       0.597163      0.582827     -1.834040
  H       0.681597      2.200230      0.382716
  H      -0.986923      2.136160     -0.263637
  H      -0.609731      1.321944      1.260094
  H      -1.270895     -1.752194      1.972695
  H      -2.306319     -2.160920     -0.310024
  H      -3.522559     -1.282661     -2.048662
  H      -4.905688      0.570441     -2.948146
  H      -5.368379      2.586573     -1.550411
  H      -4.450740      2.706016      0.767074
  H      -3.101244      0.828710      1.677916
  H       1.790874     -2.104950      1.524005
  H       1.478809      0.451893      2.613868
  H       2.885192      2.327963      2.299650
  H       4.539195      3.503231      0.881682
  H       5.491872      2.382825     -1.137906
  H       4.753451      0.067855     -1.710579
  H       3.097113     -1.106144     -0.309619
  H       1.524745      1.172614     -1.818040
  H      -0.169164      1.130146     -2.401670
  H       0.789868     -0.371259     -2.329478
>
41
-1558.66787806; 31P isotropic shielding: 181.658644 ppm
  C      -0.206007      1.506915     -0.049027
  N       0.176856      0.194738     -0.589665
  P       0.127145     -1.208379      0.298988
  S       0.384495     -2.864528     -0.709897
  N      -1.379062     -1.072539      1.118287
  N      -2.511641     -1.436773      0.317421
  C      -3.197565     -0.374719     -0.312766
  C      -3.500285      0.808090      0.383199
  C      -4.239980      1.815009     -0.237899
  C      -4.701267      1.659069     -1.551369
  C      -4.407924      0.476872     -2.240465
  C      -3.654186     -0.529996     -1.632915
  N       1.168500     -1.139065      1.669696
  N       1.796664      0.044212      2.086515
  C       2.745185      0.696347      1.281461
  C       3.420790      0.027718      0.246165
  C       4.392717      0.701483     -0.497689
  C       4.711602      2.036341     -0.226859
  C       4.039841      2.698818      0.808288
  C       3.063537      2.040548      1.555670
  C       0.780594      0.255378     -1.926889
  H      -0.681704      1.392129      0.925860
  H       0.677117      2.155571      0.047054
  H      -0.930885      1.984208     -0.722121
  H      -1.375147     -1.609994      1.985829
  H      -2.263210     -2.192874     -0.330483
  H      -3.153831      0.924746      1.406928
  H      -4.466446      2.727047      0.312866
  H      -5.281619      2.445824     -2.028958
  H      -4.753137      0.341511     -3.264396
  H      -3.407627     -1.438537     -2.182004
  H       1.754727     -1.964907      1.781191
  H       1.202880      0.635451      2.658644
  H       3.176285     -1.004998      0.012031
  H       4.903521      0.171907     -1.300439
  H       5.469944      2.552634     -0.811318
  H       4.271888      3.738792      1.032690
  H       2.543028      2.563700      2.358317
  H       0.068864      0.723374     -2.622086
  H       1.005926     -0.754095     -2.277971
  H       1.707715      0.846172     -1.909685
>
41
-1558.66785616; 31P isotropic shielding: 183.846244 ppm
  C      -0.202047      1.508670     -0.064399
  N       0.180626      0.191924     -0.593819
  P       0.128828     -1.203977      0.306216
  S       0.386116     -2.868388     -0.688836
  N      -1.378791     -1.060408      1.121890
  N      -2.510126     -1.429788      0.321504
  C      -3.192297     -0.371917     -0.319749
  C      -3.497179      0.816226      0.366131
  C      -4.232876      1.819311     -0.265772
  C      -4.688030      1.654197     -1.580277
  C      -4.392607      0.466733     -2.259338
  C      -3.642770     -0.536402     -1.640863
  N       1.168576     -1.124424      1.677052
  N       1.795475      0.061770      2.086826
  C       2.745604      0.708357      1.279370
  C       3.423168      0.032769      0.249882
  C       4.396409      0.701515     -0.496766
  C       4.714752      2.038189     -0.234403
  C       4.041094      2.707628      0.795020
  C       3.063440      2.054406      1.545037
  C       0.787058      0.241249     -1.930249
  H       0.681240      2.157653      0.027899
  H      -0.925531      1.981112     -0.742411
  H      -0.679354      1.402229      0.910659
  H      -1.377072     -1.591535      1.993323
  H      -2.261072     -2.191619     -0.319451
  H      -3.155449      0.939987      1.390622
  H      -4.461111      2.735564      0.277191
  H      -5.265317      2.437987     -2.066369
  H      -4.733076      0.324246     -3.283886
  H      -3.394152     -1.449037     -2.182143
  H       1.753714     -1.949824      1.797015
  H       1.201239      0.656562      2.654776
  H       3.179114     -1.001534      0.022386
  H       4.908703      0.166504     -1.294939
  H       5.474128      2.550535     -0.820979
  H       4.272715      3.749103      1.012762
  H       2.541419      2.582984      2.343127
  H       1.011763     -0.771250     -2.272923
  H       1.714897      0.830997     -1.915988
  H       0.077280      0.704594     -2.630528
>
41
-1558.66787051; 31P isotropic shielding: 183.891856 ppm
  C      -0.160841      1.524499      0.680797
  N       0.007082      0.423053     -0.277376
  P       0.059191     -1.148065      0.233584
  S       0.285757     -2.447796     -1.220365
  N      -1.346963     -1.364350      1.209560
  N      -2.526603     -1.586931      0.415614
  C      -3.211136     -0.412498      0.016309
  C      -3.708208     -0.313796     -1.294000
  C      -4.459706      0.799162     -1.678747
  C      -4.708601      1.835154     -0.771854
  C      -4.203211      1.738724      0.531201
  C      -3.463846      0.624451      0.929747
  N       1.268583     -1.191197      1.462994
  N       2.597282     -1.255664      0.912199
  C       3.179732      0.001275      0.611460
  C       3.126178      1.062279      1.530485
  C       3.766121      2.267768      1.240201
  C       4.474038      2.433199      0.042538
  C       4.530749      1.373278     -0.869035
  C       3.880910      0.167539     -0.594377
  C       0.118619      0.839396     -1.677407
  H      -1.083432      2.077482      0.458113
  H      -0.225126      1.135443      1.698785
  H       0.699119      2.205204      0.620728
  H      -1.269723     -2.112239      1.899893
  H      -2.308435     -2.195750     -0.382350
  H      -3.492888     -1.106408     -2.010090
  H      -4.837889      0.862267     -2.697950
  H      -5.287443      2.705166     -1.075064
  H      -4.393367      2.536584      1.247870
  H      -3.075529      0.546678      1.941833
  H       1.156927     -1.944091      2.142862
  H       2.613450     -1.887904      0.102684
  H       2.580539      0.930836      2.461157
  H       3.717858      3.083851      1.959944
  H       4.973489      3.374851     -0.176109
  H       5.069954      1.488358     -1.808063
  H       3.902182     -0.646501     -1.318411
  H       0.988767      1.500404     -1.802373
  H      -0.790831      1.377652     -1.982376
  H       0.243754     -0.037764     -2.315510
>
41
-1558.66826700; 31P isotropic shielding: 178.129361 ppm
  C       0.234827      0.448449     -1.846628
  N       0.033912      0.350728     -0.398476
  P       0.005825     -1.072400      0.441672
  S       0.225145     -2.663776     -0.686710
  N      -1.435279     -1.025353      1.386182
  N      -2.597061     -1.412793      0.633797
  C      -3.243976     -0.359134     -0.058105
  C      -3.735083     -0.585514     -1.354844
  C      -4.449028      0.413861     -2.020123
  C      -4.666528      1.655530     -1.412576
  C      -4.167490      1.881475     -0.123372
  C      -3.465509      0.884773      0.555742
  N       1.171211     -0.892623      1.702166
  N       2.515204     -1.073548      1.223211
  C       3.151628      0.101173      0.754390
  C       3.063598      1.308392      1.467523
  C       3.758761      2.433224      1.021588
  C       4.555303      2.374620     -0.129238
  C       4.645043      1.170104     -0.835727
  C       3.942188      0.042131     -0.405754
  C      -0.126550      1.640619      0.287773
  H      -0.621141      0.963069     -2.306982
  H       1.153286      1.014168     -2.062514
  H       0.322610     -0.551410     -2.276297
  H      -1.398337     -1.571355      2.247421
  H      -2.373084     -2.200034      0.013316
  H      -3.545132     -1.541766     -1.841640
  H      -4.822548      0.224297     -3.025290
  H      -5.216076      2.435677     -1.935328
  H      -4.332717      2.842149      0.362569
  H      -3.082439      1.057692      1.557784
  H       1.022085     -1.511158      2.500508
  H       2.551270     -1.836210      0.536548
  H       2.448672      1.352806      2.362431
  H       3.682337      3.363651      1.582638
  H       5.096943      3.254644     -0.469913
  H       5.253062      1.109229     -1.737062
  H       3.994846     -0.886988     -0.972802
  H      -0.266472      1.485347      1.359314
  H      -1.006497      2.164949     -0.108680
  H       0.769292      2.257505      0.136589
>
41
-1558.66856923; 31P isotropic shielding: 178.855674 ppm
  C       2.568697     -2.049031     -0.946910
  N       1.314400     -1.390548     -1.337816
  P       0.064174     -1.135948     -0.266977
  S       0.172780     -2.166223      1.398494
  N      -1.333085     -1.405191     -1.233073
  N      -2.560287     -1.503331     -0.506284
  C      -3.275412     -0.299627     -0.321796
  C      -4.088438     -0.160161      0.818661
  C      -4.857871      0.989545      0.996072
  C      -4.820942      2.025412      0.053813
  C      -4.004555      1.890225     -1.073644
  C      -3.235487      0.739034     -1.269380
  N      -0.086897      0.557527     -0.026962
  N       0.653925      1.061240      1.088679
  C       2.023767      1.307075      0.821556
  C       2.993560      0.940271      1.769773
  C       4.340489      1.237956      1.549298
  C       4.742452      1.884628      0.375308
  C       3.774869      2.240416     -0.573412
  C       2.424979      1.961398     -0.355775
  C       1.410124     -0.580164     -2.563419
  H       2.406525     -2.645148     -0.046362
  H       2.900947     -2.709324     -1.760383
  H       3.354399     -1.304372     -0.747095
  H      -1.223543     -2.211198     -1.848536
  H      -2.425906     -2.024814      0.367276
  H      -4.107873     -0.955097      1.563727
  H      -5.480413      1.082486      1.884552
  H      -5.415963      2.924332      0.199721
  H      -3.964415      2.686942     -1.815030
  H      -2.609500      0.631616     -2.150786
  H      -1.039804      0.923860     -0.040922
  H       0.536857      0.440302      1.898830
  H       2.687902      0.407909      2.669687
  H       5.080603      0.945941      2.292828
  H       5.793065      2.108028      0.201401
  H       4.073396      2.750109     -1.488666
  H       1.671166      2.247291     -1.084109
  H       0.475487     -0.041693     -2.738086
  H       1.607019     -1.236059     -3.423920
  H       2.226406      0.152082     -2.481934
>
41
-1558.67150992; 31P isotropic shielding: 168.963913 ppm
  C      -0.291412      1.465620     -0.179461
  N       0.048491      0.141476     -0.725679
  P       0.120321     -1.235642      0.202670
  S       0.386502     -2.898191     -0.792897
  N      -1.315800     -1.131690      1.134250
  N      -2.498653     -1.503377      0.414992
  C      -3.242905     -0.445909     -0.153613
  C      -3.503492      0.729519      0.570981
  C      -4.298907      1.731423      0.014095
  C      -4.857210      1.577821     -1.261521
  C      -4.604599      0.402974     -1.978645
  C      -3.796236     -0.598840     -1.436361
  N       1.268873     -1.127455      1.477447
  N       1.687862      0.159552      1.867940
  C       2.816255      0.745538      1.263047
  C       3.371032      0.243449      0.073297
  C       4.455290      0.899614     -0.519188
  C       5.003163      2.048980      0.056078
  C       4.452512      2.542828      1.246774
  C       3.370035      1.902440      1.846579
  C       0.528588      0.181957     -2.111963
  H      -0.648505      1.374403      0.845418
  H       0.590817      2.122909     -0.191678
  H      -1.086310      1.916806     -0.788670
  H      -1.240504     -1.676942      1.993308
  H      -2.295053     -2.254949     -0.252702
  H      -3.077295      0.845927      1.564133
  H      -4.490720      2.638647      0.585562
  H      -5.479636      2.361323     -1.688880
  H      -5.024806      0.269888     -2.974472
  H      -3.582142     -1.501272     -2.008774
  H       2.022364     -1.815626      1.384167
  H       1.607723      0.303160      2.870994
  H       2.964158     -0.649669     -0.392173
  H       4.874858      0.498582     -1.440536
  H       5.847452      2.551966     -0.410258
  H       4.869038      3.434628      1.712465
  H       2.942219      2.296396      2.768752
  H       1.446908      0.783962     -2.188601
  H      -0.244762      0.635406     -2.748747
  H       0.729688     -0.831132     -2.467328
>
41
-1558.66857945; 31P isotropic shielding: 184.651260 ppm
  C      -0.265092      1.497762      0.006951
  N       0.000513      0.228843     -0.690051
  P       0.085534     -1.236398      0.089940
  S       0.228233     -2.797402     -1.080546
  N      -1.282196     -1.189521      1.124555
  N      -2.519608     -1.473992      0.458601
  C      -3.266058     -0.356177      0.022832
  C      -3.896704     -0.391183     -1.232559
  C      -4.708262      0.669126     -1.642636
  C      -4.887130      1.786194     -0.818885
  C      -4.251275      1.822710      0.428885
  C      -3.451835      0.761341      0.854225
  N       1.319910     -1.286807      1.287093
  N       1.817152     -0.057192      1.761723
  C       2.924636      0.543801      1.132802
  C       3.563047      1.621822      1.777849
  C       4.626274      2.279051      1.162114
  C       5.073279      1.880892     -0.105414
  C       4.441905      0.809243     -0.741774
  C       3.375862      0.136864     -0.134495
  C       0.394792      0.396038     -2.093746
  H      -1.084982      2.026474     -0.498066
  H      -0.557452      1.310091      1.039294
  H       0.632849      2.133325      0.000979
  H      -1.162618     -1.811195      1.924589
  H      -2.379148     -2.172569     -0.279570
  H      -3.737802     -1.247705     -1.887320
  H      -5.189349      0.627548     -2.618742
  H      -5.512812      2.615257     -1.143112
  H      -4.385699      2.684123      1.081845
  H      -2.965278      0.785820      1.825911
  H       2.036857     -1.988461      1.077696
  H       1.812852     -0.006405      2.776921
  H       3.215783      1.941520      2.760586
  H       5.109401      3.108940      1.675482
  H       5.902636      2.397068     -0.583992
  H       4.780136      0.482521     -1.723901
  H       2.902047     -0.694359     -0.648730
  H      -0.404412      0.923882     -2.633856
  H       0.548692     -0.581416     -2.556205
  H       1.321821      0.984526     -2.169877
