28
-1837.79392732; 31P isotropic shielding: 268.409574 ppm
  C      -2.756392     -2.540206     -0.400241
  C      -1.405350     -2.617148      0.293806
  O      -1.101897     -1.440579      1.129515
  P      -0.960605      0.092393      0.745720
  O      -0.507111      0.944417      1.865324
  C       0.258845      0.162508     -0.709981
  C       1.685896     -0.175829     -0.279136
  S       2.165426     -1.740763     -0.123807
  S       2.601688      1.258337      0.095907
  C       4.138548      0.549008      0.759315
  F       0.197565      1.458951     -1.223736
  F      -0.163137     -0.671617     -1.731202
  O      -2.338361      0.507654      0.033732
  C      -3.029717      1.762713      0.390951
  C      -2.542477      2.931444     -0.450437
  H      -3.563109     -2.358361      0.319911
  H      -2.946019     -3.501910     -0.896948
  H      -2.777854     -1.750865     -1.157760
  H      -0.580681     -2.743548     -0.414407
  H      -1.374857     -3.440226      1.015439
  H       3.914803     -0.069028      1.634883
  H       4.762309      1.404571      1.039166
  H       4.637821     -0.060735      0.000341
  H      -2.879562      1.945382      1.460375
  H      -4.086321      1.540828      0.205970
  H      -2.631005      2.709862     -1.520635
  H      -1.497752      3.170047     -0.225358
  H      -3.154793      3.816103     -0.226408
>
28
-1837.79066416; 31P isotropic shielding: 270.775187 ppm
  C      -2.748095     -2.539750     -0.412131
  C      -1.405655     -2.619540      0.298028
  O      -1.105162     -1.440034      1.130759
  P      -0.962443      0.091756      0.744405
  O      -0.508307      0.945410      1.862384
  C       0.256639      0.158064     -0.711238
  C       1.684153     -0.176440     -0.279522
  S       2.165234     -1.739832     -0.114942
  S       2.598874      1.260748      0.086423
  C       4.136860      0.556940      0.752886
  F       0.193514      1.452145     -1.230732
  F      -0.164360     -0.681226     -1.728950
  O      -2.339673      0.507443      0.031812
  C      -3.030960      1.762368      0.390484
  C      -2.517491      2.940936     -0.421076
  H      -2.936004     -3.502869     -0.906761
  H      -2.756867     -1.753833     -1.173436
  H      -3.562561     -2.351206      0.297466
  H      -0.573556     -2.753523     -0.400101
  H      -1.387326     -3.438768      1.024438
  H       3.914408     -0.056241      1.632196
  H       4.760024      1.414715      1.027219
  H       4.636128     -0.056692     -0.002967
  H      -2.905405      1.928272      1.465814
  H      -4.084024      1.549438      0.177221
  H      -3.129777      3.825712     -0.197401
  H      -2.582340      2.736586     -1.496353
  H      -1.477027      3.169522     -0.167726
>
28
-1837.79055322; 31P isotropic shielding: 270.954969 ppm
  C      -2.161323     -3.464959      0.362765
  C      -1.903264     -2.092774     -0.232158
  O      -1.352344     -1.247931      0.844482
  P      -1.095357      0.315112      0.759620
  O      -0.676794      0.943945      2.028448
  C       0.252991      0.546257     -0.557814
  C       1.578767     -0.095868     -0.156614
  S       1.828009     -1.704942     -0.388841
  S       2.639931      1.044389      0.624282
  C       4.009483     -0.030526      1.148707
  F       0.402083      1.929893     -0.725071
  F      -0.180498      0.063060     -1.779068
  O      -2.408466      0.877776      0.031255
  C      -2.780326      2.303962      0.115808
  C      -2.771206      2.919148     -1.273877
  H      -1.230455     -3.900945      0.744323
  H      -2.562894     -4.129937     -0.413726
  H      -2.886539     -3.409831      1.183497
  H      -2.820721     -1.620157     -0.601012
  H      -1.162069     -2.136311     -1.036898
  H       4.486862     -0.493657      0.279943
  H       3.634000     -0.811498      1.817818
  H       4.713762      0.623093      1.674195
  H      -2.090075      2.808935      0.800806
  H      -3.782576      2.314426      0.559663
  H      -3.115343      3.960806     -1.212902
  H      -3.443410      2.373259     -1.947012
  H      -1.762830      2.912473     -1.701018
>
28
-1837.79377019; 31P isotropic shielding: 275.600383 ppm
  C      -2.798239     -2.444448     -0.418904
  C      -1.490330     -2.516187      0.353159
  O      -1.196686     -1.292948      1.124890
  P      -0.938630      0.193208      0.643744
  O      -0.472600      1.107575      1.707130
  C       0.341585      0.110961     -0.758217
  C       1.738445     -0.230313     -0.245794
  S       2.144129     -1.789752      0.083752
  S       2.699891      1.197655      0.019683
  C       4.181793      0.499085      0.808249
  F       0.330494      1.371339     -1.368044
  F      -0.062189     -0.782707     -1.735129
  O      -2.274279      0.609022     -0.143819
  C      -2.646628      2.034183     -0.264156
  C      -3.535942      2.449420      0.896997
  H      -2.991084     -3.428893     -0.867518
  H      -2.752799     -1.702325     -1.221679
  H      -3.636134     -2.195324      0.242951
  H      -0.632696     -2.713420     -0.297031
  H      -1.525810     -3.288137      1.128812
  H       3.900435     -0.022827      1.728642
  H       4.829440      1.353696      1.030765
  H       4.683059     -0.199225      0.131399
  H      -3.164877      2.097145     -1.226970
  H      -1.735849      2.640502     -0.311299
  H      -3.861195      3.489610      0.755552
  H      -2.987167      2.381326      1.842772
  H      -4.427836      1.813178      0.952758
>
28
-1837.79133131; 31P isotropic shielding: 271.964241 ppm
  C      -2.497669     -2.847974      1.513923
  C      -1.341042     -2.427926      0.621751
  O      -1.614554     -1.104243      0.029065
  P      -1.025310      0.231414      0.685003
  O      -0.477101      0.116217      2.052665
  C       0.313326      0.771696     -0.551954
  C       1.611058     -0.010088     -0.349458
  S       1.769031     -1.529616     -0.959041
  S       2.747033      0.864724      0.639247
  C       4.065004     -0.368062      0.858742
  F       0.524062      2.139951     -0.356627
  F      -0.142135      0.636028     -1.852386
  O      -2.173523      1.321924      0.531413
  C      -2.778137      1.852146     -0.703698
  C      -3.596130      0.818357     -1.462712
  H      -2.318416     -3.863551      1.893866
  H      -3.443010     -2.850143      0.957422
  H      -2.589309     -2.170574      2.371045
  H      -1.212390     -3.092047     -0.238887
  H      -0.400540     -2.379646      1.179485
  H       3.660559     -1.260745      1.346809
  H       4.817275      0.112421      1.493241
  H       4.495182     -0.644928     -0.108454
  H      -1.981276      2.276534     -1.323333
  H      -3.407830      2.669786     -0.338050
  H      -4.108620      1.319126     -2.295875
  H      -4.354161      0.364821     -0.813108
  H      -2.964278      0.024501     -1.872596
>
28
-1837.79050522; 31P isotropic shielding: 270.738756 ppm
  C      -2.179477     -3.535572      0.665867
  C      -1.952725     -2.192181     -0.003218
  O      -1.360802     -1.296739      1.008143
  P      -1.116657      0.261558      0.842342
  O      -0.649589      0.949376      2.062558
  C       0.175487      0.437984     -0.538348
  C       1.517143     -0.190164     -0.168713
  S       1.759001     -1.806522     -0.353727
  S       2.608100      0.977003      0.526781
  C       3.999829     -0.078770      1.031253
  F       0.317814      1.813714     -0.766349
  F      -0.308948     -0.092157     -1.720371
  O      -2.462744      0.784485      0.145451
  C      -2.834429      2.212852      0.170828
  C      -2.876449      2.757668     -1.247385
  H      -2.612600     -4.236781     -0.060076
  H      -2.867864     -3.442409      1.514388
  H      -1.231232     -3.951928      1.025991
  H      -2.887062     -1.740218     -0.355254
  H      -1.245934     -2.271773     -0.835881
  H       4.726491      0.593596      1.499477
  H       4.438237     -0.575628      0.160595
  H       3.654724     -0.832931      1.745930
  H      -2.121457      2.752078      0.804575
  H      -3.820239      2.245119      0.649089
  H      -3.570286      2.177738     -1.868057
  H      -1.883917      2.731313     -1.709379
  H      -3.221813      3.800486     -1.226109
>
28
-1837.79374624; 31P isotropic shielding: 275.746964 ppm
  C      -2.180851     -3.534465      0.648525
  C      -1.951738     -2.185516     -0.008433
  O      -1.360122     -1.299466      1.010967
  P      -1.113194      0.259856      0.857610
  O      -0.644347      0.936950      2.083212
  C       0.178351      0.446511     -0.522480
  C       1.521413     -0.181093     -0.157006
  S       1.763090     -1.796866     -0.345855
  S       2.613417      0.985143      0.537676
  C       4.006749     -0.071096      1.036994
  F       0.318097      1.824213     -0.742103
  F      -0.305037     -0.076959     -1.707666
  O      -2.459197      0.789440      0.165313
  C      -2.832058      2.216661      0.204575
  C      -2.876456      2.774910     -1.208327
  H      -1.233305     -3.955621      1.004849
  H      -2.614993     -4.228175     -0.083947
  H      -2.869163     -3.448047      1.497822
  H      -2.884804     -1.729403     -0.358430
  H      -1.243735     -2.259311     -0.840646
  H       4.734351      0.600874      1.504282
  H       4.442910     -0.566713      0.164531
  H       3.663574     -0.826241      1.751539
  H      -2.118772      2.751040      0.842170
  H      -3.817140      2.244510      0.684699
  H      -1.884934      2.751587     -1.672555
  H      -3.220157      3.818020     -1.176304
  H      -3.572549      2.202157     -1.833111
>
28
-1837.79376693; 31P isotropic shielding: 275.722332 ppm
  C      -1.773490     -3.645850      0.380388
  C      -1.568264     -2.298137     -0.287779
  O      -0.992400     -1.392252      0.721499
  P      -0.910906      0.191524      0.614341
  O      -0.458428      0.857434      1.853189
  C       0.278475      0.525206     -0.828014
  C       1.694217      0.029198     -0.532357
  S       2.097790     -1.546240     -0.773177
  S       2.684776      1.289136      0.152719
  C       4.197731      0.374985      0.579008
  F       0.276585      1.904604     -1.045764
  F      -0.213579     -0.045870     -1.986927
  O      -2.319560      0.647213     -0.005287
  C      -3.048461      1.810811      0.538290
  C      -2.535352      3.120202     -0.039670
  H      -2.183184     -4.357336     -0.349194
  H      -2.472773     -3.567177      1.221499
  H      -0.820660     -4.041528      0.751808
  H      -2.510409     -1.865387     -0.644023
  H      -0.857849     -2.363231     -1.118867
  H       4.863500      1.107285      1.047870
  H       4.657675     -0.044549     -0.320762
  H       3.958716     -0.433624      1.277259
  H      -2.961759      1.791049      1.630254
  H      -4.088908      1.620130      0.254569
  H      -2.564655      3.105085     -1.135559
  H      -1.507652      3.316203      0.283558
  H      -3.171576      3.943216      0.314529
>
28
-1837.79323671; 31P isotropic shielding: 273.714990 ppm
  C      -2.825895     -2.451246     -0.565078
  C      -1.536609     -2.523332      0.237472
  O      -1.278564     -1.312001      1.039654
  P      -1.008753      0.182659      0.592784
  O      -0.594627      1.082457      1.689516
  C       0.329711      0.130076     -0.754619
  C       1.705518     -0.219414     -0.193168
  S       2.098586     -1.784149      0.126086
  S       2.655854      1.203654      0.131849
  C       4.108205      0.491028      0.961686
  F       0.340706      1.403362     -1.337510
  F      -0.030435     -0.743111     -1.766581
  O      -2.311186      0.603902     -0.245821
  C      -2.683937      2.029336     -0.361956
  C      -3.642318      2.417343      0.752609
  H      -2.996116     -3.428573     -1.037791
  H      -2.769965     -1.692348     -1.351420
  H      -3.682582     -2.225400      0.080980
  H      -0.660819     -2.698341     -0.394555
  H      -1.581768     -3.310793      0.996898
  H       4.633379     -0.196234      0.291659
  H       3.793700     -0.046071      1.862354
  H       4.747530      1.341336      1.221605
  H      -3.145027      2.108577     -1.352249
  H      -1.775634      2.640701     -0.343034
  H      -3.150708      2.330300      1.727883
  H      -4.533910      1.778335      0.741463
  H      -3.961939      3.459750      0.614483
>
28
-1837.79146019; 31P isotropic shielding: 271.963415 ppm
  C      -2.233889     -3.517510      0.807311
  C      -1.885630     -2.277921      0.003088
  O      -1.327392     -1.289740      0.943836
  P      -1.115749      0.257198      0.650406
  O      -0.711683      1.050094      1.829697
  C       0.211645      0.320439     -0.706767
  C       1.552718     -0.236549     -0.227440
  S       1.840714     -1.855470     -0.240712
  S       2.589588      1.023657      0.384897
  C       3.985112      0.062009      1.043294
  F       0.343085      1.658549     -1.085961
  F      -0.228977     -0.353885     -1.830425
  O      -2.435705      0.714493     -0.139544
  C      -3.077062      2.016275      0.131829
  C      -2.594862      3.079760     -0.841532
  H      -2.982268     -3.290010      1.575929
  H      -1.340710     -3.924204      1.296279
  H      -2.643086     -4.285861      0.137739
  H      -2.765945     -1.837589     -0.479336
  H      -1.119532     -2.486097     -0.751268
  H       3.629353     -0.630778      1.812682
  H       4.673945      0.796901      1.473109
  H       4.472614     -0.502132      0.242576
  H      -2.869610      2.291772      1.171585
  H      -4.147898      1.815340      0.017738
  H      -1.532608      3.298757     -0.691519
  H      -3.165665      4.004353     -0.678176
  H      -2.744302      2.758748     -1.879415
>
28
-1837.79236958; 31P isotropic shielding: 273.669039 ppm
  C      -2.286244     -3.489636      0.801892
  C      -1.890267     -2.273656     -0.016026
  O      -1.345032     -1.274278      0.920439
  P      -1.126381      0.269035      0.611466
  O      -0.731944      1.070737      1.788165
  C       0.208117      0.316622     -0.738262
  C       1.552022     -0.211732     -0.234835
  S       1.851550     -1.827697     -0.189410
  S       2.576086      1.077291      0.336992
  C       3.975002      0.150723      1.037353
  F       0.324335      1.645663     -1.150128
  F      -0.214782     -0.392176     -1.847890
  O      -2.434175      0.727649     -0.198196
  C      -3.112774      2.001207      0.115230
  C      -2.463259      3.176775     -0.597135
  H      -1.418352     -3.895995      1.334852
  H      -2.678229     -4.268285      0.133764
  H      -3.061485     -3.236230      1.534965
  H      -2.746389     -1.829097     -0.536853
  H      -1.103633     -2.510323     -0.740260
  H       3.619745     -0.516541      1.829258
  H       4.656236      0.905719      1.443822
  H       4.471003     -0.438398      0.260094
  H      -3.106273      2.135414      1.202481
  H      -4.141464      1.837553     -0.223091
  H      -2.416351      3.004352     -1.678898
  H      -1.448995      3.351704     -0.223142
  H      -3.059365      4.081701     -0.414346
>
28
-1837.79326375; 31P isotropic shielding: 273.743235 ppm
  C      -2.206294     -3.551868      0.768001
  C      -1.818681     -2.326892     -0.040840
  O      -1.274392     -1.333343      0.901679
  P      -1.083841      0.217836      0.612476
  O      -0.683488      1.007932      1.795278
  C       0.227247      0.305884     -0.758360
  C       1.588298     -0.204836     -0.283930
  S       1.918547     -1.815283     -0.268068
  S       2.596740      1.094593      0.292281
  C       4.023509      0.184127      0.956984
  F       0.313085      1.641917     -1.154247
  F      -0.202445     -0.396234     -1.869215
  O      -2.410746      0.668656     -0.170885
  C      -3.104730      1.925710      0.173601
  C      -2.482033      3.123471     -0.525683
  H      -2.597418     -4.326368      0.094582
  H      -2.979751     -3.308064      1.506191
  H      -1.334447     -3.958840      1.294018
  H      -2.678595     -1.882599     -0.555582
  H      -1.033227     -2.553671     -0.769680
  H       4.519388     -0.382360      0.163027
  H       3.692839     -0.502848      1.742653
  H       4.695686      0.945686      1.366284
  H      -3.086873      2.040894      1.262939
  H      -4.135000      1.752114     -0.154881
  H      -2.446937      2.971209     -1.610904
  H      -1.465481      3.306203     -0.161801
  H      -3.088459      4.016175     -0.318419
>
28
-1837.79326150; 31P isotropic shielding: 273.622406 ppm
  C      -2.274807     -3.502824      0.801970
  C      -1.892905     -2.278270     -0.009766
  O      -1.340216     -1.284956      0.929116
  P      -1.122201      0.259392      0.627122
  O      -0.719642      1.055827      1.804503
  C       0.207266      0.314114     -0.727120
  C       1.551175     -0.224514     -0.235412
  S       1.844091     -1.842174     -0.207494
  S       2.583875      1.054139      0.344033
  C       3.982641      0.114396      1.026799
  F       0.327294      1.647641     -1.125198
  F      -0.222996     -0.380685     -1.842861
  O      -2.436003      0.720514     -0.171132
  C      -3.097789      2.005692      0.130752
  C      -2.536381      3.133134     -0.720574
  H      -3.040913     -3.258629      1.547679
  H      -1.398708     -3.911720      1.319335
  H      -2.673691     -4.276353      0.131907
  H      -2.756427     -1.832362     -0.516978
  H      -1.113642     -2.506188     -0.744659
  H       4.669307      0.862106      1.437579
  H       4.471905     -0.468456      0.240555
  H       3.628911     -0.559854      1.813485
  H      -2.981075      2.209524      1.200717
  H      -4.154140      1.816370     -0.088603
  H      -1.491495      3.336997     -0.464065
  H      -3.121039      4.046190     -0.541509
  H      -2.595396      2.886746     -1.787480
>
28
-1837.79362988; 31P isotropic shielding: 273.678728 ppm
  C      -2.218448     -3.551285      0.787584
  C      -1.831148     -2.333819     -0.032503
  O      -1.285548     -1.331985      0.900955
  P      -1.095321      0.216380      0.598347
  O      -0.691592      1.016324      1.773254
  C       0.212662      0.293232     -0.775799
  C       1.575448     -0.210502     -0.299330
  S       1.906236     -1.820595     -0.263729
  S       2.585768      1.096451      0.256162
  C       4.014911      0.194778      0.927562
  F       0.295461      1.625559     -1.184976
  F      -0.217670     -0.420313     -1.879456
  O      -2.423931      0.661355     -0.184975
  C      -3.116604      1.921589      0.151856
  C      -2.490371      3.115205     -0.551266
  H      -2.612160     -4.331041      0.121776
  H      -2.990018     -3.300147      1.525288
  H      -1.346108     -3.954932      1.315301
  H      -2.691381     -1.893579     -0.550121
  H      -1.046058     -2.566911     -0.759676
  H       4.507709     -0.382269      0.139305
  H       3.687151     -0.481737      1.723448
  H       4.688825      0.961494      1.324158
  H      -3.101100      2.041454      1.240697
  H      -4.146190      1.747785     -0.178529
  H      -1.475059      3.298991     -0.184531
  H      -3.096963      4.009356     -0.350866
  H      -2.451498      2.957363     -1.635538
>
28
-1837.79324513; 31P isotropic shielding: 273.715628 ppm
  C      -2.299345     -3.463666      0.761870
  C      -1.896165     -2.238903     -0.039726
  O      -1.347402     -1.254643      0.909860
  P      -1.125691      0.292707      0.624153
  O      -0.729991      1.076464      1.812605
  C       0.208827      0.358018     -0.724871
  C       1.551062     -0.183164     -0.230774
  S       1.845964     -1.800475     -0.213964
  S       2.578411      1.092700      0.364446
  C       3.973829      0.149655      1.049897
  F       0.329127      1.693329     -1.114269
  F      -0.217282     -0.330966     -1.845641
  O      -2.432824      0.765301     -0.179188
  C      -3.107440      2.036718      0.149843
  C      -2.464873      3.215709     -0.563213
  H      -3.073325     -3.215828      1.498170
  H      -1.433629     -3.881855      1.289180
  H      -2.695562     -4.230917      0.083135
  H      -2.749098     -1.783760     -0.556629
  H      -1.109315     -2.470600     -0.765498
  H       4.468619     -0.427566      0.263030
  H       3.615760     -0.529897      1.830012
  H       4.657006      0.895406      1.469969
  H      -3.088572      2.164715      1.237726
  H      -4.140181      1.876070     -0.177555
  H      -2.430039      3.049156     -1.646376
  H      -1.446228      3.387448     -0.199736
  H      -3.057743      4.120346     -0.368855
>
28
-1837.79327986; 31P isotropic shielding: 273.689904 ppm
  C      -2.450190     -3.133874      0.803136
  C      -1.274872     -2.524908      1.554295
  O      -0.563160     -1.536795      0.728819
  P      -1.120140     -0.045263      0.576032
  O      -2.027097      0.470143      1.628364
  C       0.546065      0.864034      0.518924
  C       1.533041      0.350597     -0.533203
  S       1.411327      0.817172     -2.102373
  S       2.681540     -0.778500      0.148834
  C       3.589641     -1.312548     -1.333229
  F       1.089071      0.744355      1.797524
  F       0.289243      2.204559      0.323872
  O      -1.671724     -0.007075     -0.924349
  C      -2.788666      0.874414     -1.318346
  C      -2.308177      2.270319     -1.681674
  H      -2.123105     -3.569829     -0.148460
  H      -3.220034     -2.379943      0.599634
  H      -2.902907     -3.927550      1.413188
  H      -0.509976     -3.272466      1.789169
  H      -1.595309     -2.033416      2.480154
  H       4.327344     -2.042105     -0.982157
  H       4.085429     -0.458910     -1.805171
  H       2.901248     -1.772346     -2.049778
  H      -3.513945      0.893626     -0.497065
  H      -3.230116      0.360775     -2.179108
  H      -1.515460      2.227393     -2.436761
  H      -1.923216      2.798266     -0.802862
  H      -3.152253      2.845575     -2.087007
>
28
-1837.79270302; 31P isotropic shielding: 265.188306 ppm
  C      -1.889762     -3.507512      0.473813
  C      -1.648124     -2.194740     -0.248744
  O      -1.085529     -1.251786      0.735796
  P      -0.894850      0.308968      0.529723
  O      -0.431375      1.039456      1.727103
  C       0.359926      0.499625     -0.883221
  C       1.743502     -0.021379     -0.501058
  S       2.075543     -1.630300     -0.579399
  S       2.774544      1.251861      0.091767
  C       4.230805      0.314433      0.646092
  F       0.406585      1.866500     -1.186334
  F      -0.104837     -0.124746     -2.025708
  O      -2.268344      0.775314     -0.155950
  C      -2.680167      2.193700     -0.108794
  C      -3.499750      2.470709      1.141439
  H      -2.296399     -4.243567     -0.232706
  H      -2.604921     -3.380342      1.295356
  H      -0.951350     -3.901261      0.882018
  H      -2.573752     -1.763683     -0.647130
  H      -0.917886     -2.307584     -1.056862
  H       4.919761      1.056882      1.062512
  H       4.691601     -0.210938     -0.195771
  H       3.935469     -0.411192      1.410836
  H      -3.262036      2.334976     -1.025826
  H      -1.787687      2.827016     -0.156104
  H      -4.373136      1.808696      1.190083
  H      -3.854552      3.510627      1.122454
  H      -2.890078      2.325867      2.040018
>
28
-1837.79386387; 31P isotropic shielding: 275.460766 ppm
  C      -2.391099     -3.336816      0.847236
  C      -1.965757     -2.163897     -0.016967
  O      -1.424500     -1.130635      0.886138
  P      -1.086176      0.368214      0.494633
  O      -0.676463      1.225380      1.625815
  C       0.302657      0.271491     -0.796784
  C       1.603263     -0.269929     -0.207847
  S       1.814001     -1.889534     -0.013269
  S       2.676234      1.011450      0.284135
  C       4.005069      0.080257      1.105008
  F       0.477119      1.572623     -1.284582
  F      -0.099619     -0.486896     -1.880859
  O      -2.344861      0.832403     -0.385399
  C      -2.644477      2.270812     -0.543361
  C      -3.612680      2.730078      0.534956
  H      -2.786616     -4.137407      0.207804
  H      -3.171675     -3.040564      1.558171
  H      -1.536101     -3.732421      1.408223
  H      -2.806335     -1.729788     -0.570359
  H      -1.170465     -2.443502     -0.715486
  H       3.594644     -0.491921      1.943308
  H       4.716687      0.832350      1.461673
  H       4.486523     -0.602794      0.398784
  H      -3.072578      2.350376     -1.548251
  H      -1.707292      2.836662     -0.511067
  H      -4.533833      2.134847      0.511866
  H      -3.876843      3.783246      0.365629
  H      -3.153124      2.640813      1.525551
>
28
-1837.79397860; 31P isotropic shielding: 275.176465 ppm
  C      -2.414041     -2.900145      1.733278
  C      -1.253876     -2.472189      0.849591
  O      -1.589873     -1.218370      0.149484
  P      -1.072428      0.196432      0.691645
  O      -0.540088      0.252534      2.068655
  C       0.253448      0.695884     -0.571061
  C       1.565513     -0.058231     -0.357021
  S       1.745639     -1.596307     -0.912128
  S       2.697232      0.872200      0.585702
  C       4.042761     -0.326057      0.829504
  F       0.448215      2.071351     -0.432553
  F      -0.220949      0.504446     -1.858152
  O      -2.267608      1.201870      0.390943
  C      -3.139224      1.163923     -0.798931
  C      -2.992230      2.465022     -1.570374
  H      -2.183478     -3.868691      2.198599
  H      -3.334720     -3.009939      1.146940
  H      -2.583856     -2.166761      2.530447
  H      -1.049049     -3.189996      0.048933
  H      -0.340799     -2.318293      1.433695
  H       3.662714     -1.212142      1.348156
  H       4.790607      0.189415      1.441421
  H       4.469566     -0.623317     -0.133170
  H      -4.155149      1.034940     -0.407652
  H      -2.885060      0.291527     -1.409147
  H      -3.212524      3.324664     -0.926236
  H      -3.698256      2.471838     -2.412240
  H      -1.977588      2.573493     -1.967928
>
28
-1837.79241316; 31P isotropic shielding: 275.036894 ppm
  C      -0.614555     -3.572354      0.855849
  C      -1.640055     -2.761630      0.079608
  O      -1.064065     -1.471624     -0.346049
  P      -1.404593     -0.121376      0.436141
  O      -2.458171     -0.161851      1.475700
  C       0.275447      0.344740      1.196190
  C       1.445861      0.373270      0.212595
  S       1.681131      1.658887     -0.781857
  S       2.375339     -1.106260      0.261763
  C       3.546262     -0.851052     -1.106155
  F       0.518145     -0.581301      2.213552
  F       0.129459      1.573849      1.808394
  O      -1.587012      0.880272     -0.790925
  C      -1.981300      2.286150     -0.569329
  C      -2.493466      2.825998     -1.892107
  H      -1.038479     -4.556657      1.098220
  H      -0.345853     -3.072613      1.793170
  H       0.295999     -3.722986      0.264225
  H      -2.537511     -2.562324      0.675223
  H      -1.928858     -3.255201     -0.854888
  H       4.151800     -1.762564     -1.151665
  H       4.176946      0.021229     -0.910511
  H       3.000011     -0.701333     -2.043063
  H      -1.091602      2.827031     -0.227608
  H      -2.748615      2.309501      0.213466
  H      -2.778475      3.879707     -1.771601
  H      -3.372006      2.264396     -2.231760
  H      -1.715584      2.763799     -2.662678
