28
-3684.78094520; 31P isotropic shielding: 115.246868 ppm
  C       0.747992      4.331355     -0.815827
  C       0.371612      3.423167     -0.112180
  C      -0.100805      2.314928      0.719213
  N      -0.770552      1.269065     -0.091289
  P      -0.373892     -0.333794      0.179937
  Se     -1.396894     -1.735231     -0.993248
  C       1.440351     -0.383313      0.074494
  C       2.193971     -1.256306      0.873552
  C       3.572717     -1.360627      0.678988
  C       4.204579     -0.597460     -0.309496
  C       3.452739      0.270635     -1.108505
  C       2.072377      0.376583     -0.924827
  Cl     -0.690448     -0.615412      2.290212
  C      -2.078882      1.648620     -0.675511
  C      -3.237196      1.658605      0.329850
  H       1.088129      5.141405     -1.422760
  H       0.748112      1.864935      1.247138
  H      -0.783334      2.691112      1.497648
  H       1.704329     -1.846239      1.643517
  H       4.154109     -2.037909      1.301934
  H       5.280199     -0.679000     -0.456194
  H       3.939484      0.867204     -1.877940
  H       1.488403      1.047198     -1.549422
  H      -2.288844      0.943294     -1.485580
  H      -1.938572      2.639732     -1.126657
  H      -3.410550      0.653441      0.730927
  H      -4.156932      1.993070     -0.167884
  H      -3.048404      2.338239      1.170910
>
28
-3684.78578653; 31P isotropic shielding: 124.632223 ppm
  C      -2.807929      3.451803      0.518453
  C      -2.475361      2.498767     -0.146876
  C      -2.037311      1.345720     -0.937649
  N      -0.592603      1.047024     -0.805541
  P      -0.085529     -0.030916      0.382834
  Se     -1.464501     -1.526843      0.895875
  C       1.513853     -0.633479     -0.244485
  C       1.542319     -1.121559     -1.563292
  C       2.712914     -1.683773     -2.073380
  C       3.857290     -1.773539     -1.271598
  C       3.825706     -1.298374      0.042986
  C       2.657996     -0.728697      0.559159
  Cl      0.492459      1.184577      2.037698
  C       0.330057      2.135248     -1.218260
  C       0.346050      2.337965     -2.736287
  H      -3.116786      4.279943      1.117389
  H      -2.588686      0.447285     -0.630653
  H      -2.256439      1.512947     -2.001231
  H       0.648353     -1.065546     -2.179155
  H       2.730358     -2.056447     -3.096050
  H       4.768858     -2.215000     -1.670558
  H       4.711884     -1.368611      0.671146
  H       2.637714     -0.356503      1.579332
  H       1.334364      1.872406     -0.871890
  H       0.045144      3.063528     -0.701266
  H       1.066209      3.125361     -2.993753
  H      -0.632880      2.650332     -3.119611
  H       0.643494      1.416679     -3.251435
>
28
-3684.78569920; 31P isotropic shielding: 121.247792 ppm
  C       0.725752      4.386326     -0.975619
  C       0.375749      3.534913     -0.192159
  C      -0.035007      2.507437      0.766464
  N      -0.769828      1.389417      0.131185
  P      -0.340670     -0.179105      0.526049
  Se     -1.478347     -1.685937     -0.382719
  C       1.452115     -0.252115      0.235617
  C       2.290977     -1.041776      1.036562
  C       3.642855     -1.169267      0.711562
  C       4.163364     -0.512587     -0.409571
  C       3.326237      0.271561     -1.210370
  C       1.971599      0.399877     -0.895776
  Cl     -0.432273     -0.238752      2.674903
  C      -2.124167      1.706476     -0.394374
  C      -2.138703      1.872505     -1.916981
  H       1.028019      5.139464     -1.669557
  H       0.854267      2.106418      1.267644
  H      -0.660370      2.958319      1.554844
  H       1.888667     -1.548492      1.909490
  H       4.290704     -1.781082      1.336662
  H       5.218652     -0.611740     -0.657796
  H       3.726029      0.785433     -2.082672
  H       1.321088      1.005329     -1.520861
  H      -2.460318      2.625281      0.104946
  H      -2.810192      0.904004     -0.100338
  H      -1.830675      0.937800     -2.399353
  H      -1.464876      2.675495     -2.234506
  H      -3.154949      2.115398     -2.256376
>
28
-3684.78438503; 31P isotropic shielding: 124.191911 ppm
  C      -0.513812      4.324732      0.433280
  C      -0.205052      3.355882     -0.219980
  C       0.199336      2.194427     -1.019519
  N      -0.678347      1.007065     -0.916860
  P      -0.280939     -0.237079      0.133164
  Se     -1.496992     -1.939402     -0.020141
  C       1.495365     -0.523003     -0.165186
  C       1.861165     -0.858265     -1.482508
  C       3.188305     -1.165347     -1.781648
  C       4.158210     -1.150539     -0.770897
  C       3.794165     -0.825801      0.538791
  C       2.465912     -0.511059      0.845109
  Cl     -0.290617      0.632825      2.078428
  C      -2.056171      1.141403     -1.455313
  C      -3.104524      1.644891     -0.454509
  H      -0.791861      5.174680      1.016609
  H       0.245102      2.481645     -2.081752
  H       1.216263      1.897865     -0.734676
  H       1.104467     -0.884855     -2.263366
  H       3.465404     -1.421595     -2.802691
  H       5.193058     -1.393626     -1.005491
  H       4.543852     -0.814551      1.327900
  H       2.186656     -0.255444      1.862846
  H      -2.351516      0.158738     -1.839726
  H      -1.978917      1.824449     -2.312399
  H      -4.079152      1.720086     -0.955852
  H      -2.841889      2.628386     -0.053742
  H      -3.207770      0.941594      0.379626
>
28
-3684.78333740; 31P isotropic shielding: 129.317034 ppm
  C      -0.186325      4.378836     -0.939612
  C      -0.796271      3.357155     -0.723397
  C      -1.514628      2.112302     -0.444866
  N      -0.726407      1.219532      0.425861
  P      -0.395671     -0.362130      0.001538
  Se     -0.910582     -0.920332     -1.954622
  C       1.351281     -0.613881      0.439690
  C       2.251467      0.430504      0.169108
  C       3.619215      0.240478      0.377063
  C       4.094719     -0.988619      0.847364
  C       3.197705     -2.030214      1.110061
  C       1.828100     -1.847030      0.907204
  Cl     -1.380907     -1.535686      1.499788
  C      -0.418089      1.711833      1.789604
  C      -1.661115      1.963178      2.652069
  H       0.342470      5.283124     -1.146158
  H      -2.491503      2.335708      0.010105
  H      -1.712015      1.573227     -1.381208
  H       1.881439      1.383131     -0.203151
  H       4.313207      1.053280      0.170269
  H       5.161361     -1.134530      1.008710
  H       3.564271     -2.988034      1.474794
  H       1.132291     -2.655845      1.112970
  H       0.173428      2.633172      1.687241
  H       0.227220      0.970764      2.271610
  H      -2.269001      1.055422      2.736211
  H      -2.284314      2.768493      2.244957
  H      -1.350248      2.266360      3.660298
>
28
-3684.78524752; 31P isotropic shielding: 123.210294 ppm
  C      -0.727711      4.215163      1.244513
  C      -0.297146      3.370059      0.495393
  C       0.208943      2.350779     -0.427737
  N      -0.675439      1.167786     -0.555265
  P      -0.279159     -0.242079      0.260694
  Se     -1.565912     -1.866824     -0.065458
  C       1.459497     -0.544828     -0.189859
  C       2.407657     -0.995483      0.739487
  C       3.695785     -1.330558      0.313755
  C       4.044053     -1.218625     -1.036198
  C       3.097273     -0.772344     -1.965776
  C       1.807527     -0.440515     -1.548242
  Cl     -0.115101      0.316616      2.312555
  C      -2.053337      1.437987     -1.026069
  C      -2.108524      1.625505     -2.545284
  H      -1.104256      4.950733      1.920670
  H       0.345396      2.792817     -1.426358
  H       1.200567      2.014298     -0.103102
  H       2.140649     -1.080861      1.788911
  H       4.427995     -1.678537      1.040117
  H       5.048791     -1.479374     -1.363988
  H       3.362009     -0.686152     -3.018177
  H       1.068022     -0.105518     -2.271751
  H      -2.434100      2.325194     -0.501195
  H      -2.675956      0.587109     -0.733209
  H      -3.140174      1.834138     -2.858039
  H      -1.771456      0.715158     -3.055871
  H      -1.486194      2.465557     -2.880917
>
28
-3684.78447394; 31P isotropic shielding: 125.481082 ppm
  C      -3.487437      2.583104      0.177150
  C      -2.484039      2.323057     -0.444057
  C      -1.275575      1.961256     -1.190563
  N      -0.165352      1.434621     -0.366431
  P      -0.197026     -0.153508      0.167663
  Se     -1.420375     -1.445978     -0.941163
  C       1.556924     -0.637112      0.254587
  C       2.352682     -0.378870     -0.875923
  C       3.674874     -0.822514     -0.914830
  C       4.209856     -1.533963      0.166084
  C       3.416507     -1.798156      1.286710
  C       2.092539     -1.351986      1.334541
  Cl     -0.736541     -0.053814      2.233654
  C       0.733096      2.432727      0.263290
  C       0.062952      3.389994      1.258672
  H      -4.375160      2.807027      0.726190
  H      -1.532817      1.197998     -1.936731
  H      -0.884026      2.835708     -1.730957
  H       1.933295      0.163202     -1.720325
  H       4.287157     -0.616142     -1.790942
  H       5.240857     -1.881711      0.133019
  H       3.826968     -2.352305      2.128928
  H       1.479500     -1.555626      2.207613
  H       1.202616      3.004014     -0.553175
  H       1.536977      1.880388      0.760631
  H      -0.408483      2.838590      2.078192
  H      -0.702076      4.008678      0.777830
  H       0.826506      4.058221      1.679343
>
28
-3684.78340568; 31P isotropic shielding: 127.070814 ppm
  C      -0.702273      3.927226     -1.642066
  C      -1.180586      3.050940     -0.960303
  C      -1.751286      1.965369     -0.160115
  N      -0.723635      1.182296      0.560475
  P      -0.420367     -0.409768      0.130526
  Se     -1.011315     -0.955373     -1.805456
  C       1.343159     -0.638906      0.509947
  C       2.231592      0.339593      0.029678
  C       3.606812      0.173282      0.200077
  C       4.103296     -0.969211      0.838678
  C       3.219157     -1.947242      1.305576
  C       1.840508     -1.786446      1.142380
  Cl     -1.367916     -1.575897      1.661399
  C      -0.383225      1.641591      1.927547
  C       0.344869      2.988968      1.953059
  H      -0.289900      4.703443     -2.248015
  H      -2.471479      2.364874      0.570961
  H      -2.303080      1.287146     -0.825447
  H       1.844522      1.218617     -0.479673
  H       4.291055      0.935136     -0.169265
  H       5.176417     -1.097091      0.969632
  H       3.601164     -2.838696      1.799785
  H       1.154898     -2.545391      1.508211
  H       0.245622      0.873757      2.390136
  H      -1.309211      1.692643      2.523932
  H      -0.267376      3.793537      1.531711
  H       1.280218      2.940204      1.383900
  H       0.583860      3.250896      2.992330
>
28
-3684.78393253; 31P isotropic shielding: 121.595571 ppm
  C       1.936269      3.076622     -0.685707
  C       0.812370      2.726814     -0.414130
  C      -0.556046      2.355848     -0.057920
  N      -1.046448      1.097708     -0.696276
  P      -0.510222     -0.386460     -0.102390
  Se     -1.406399     -2.074946     -0.965524
  C       1.301828     -0.324190     -0.225487
  C       1.826130     -0.286713     -1.529807
  C       3.205063     -0.257974     -1.723665
  C       4.070063     -0.274263     -0.621620
  C       3.548366     -0.328812      0.673422
  C       2.165149     -0.355896      0.875267
  Cl     -0.846794     -0.261326      2.015567
  C      -2.410844      1.196095     -1.277921
  C      -3.535614      1.338878     -0.244822
  H       2.939241      3.347920     -0.929246
  H      -0.652390      2.297663      1.037675
  H      -1.232017      3.154750     -0.388570
  H       1.153546     -0.273716     -2.383858
  H       3.606378     -0.221825     -2.734850
  H       5.147826     -0.252833     -0.774916
  H       4.216612     -0.349048      1.532443
  H       1.762305     -0.388884      1.882583
  H      -2.568726      0.298971     -1.883866
  H      -2.392363      2.056608     -1.961461
  H      -4.500527      1.442051     -0.758795
  H      -3.398885      2.222531      0.392144
  H      -3.583571      0.453927      0.399827
>
28
-3684.78045425; 31P isotropic shielding: 118.892174 ppm
  C       0.338010      2.736981     -2.098402
  C       0.276798      2.565644     -0.903660
  C       0.203110      2.300946      0.536987
  N      -0.704820      1.196276      0.921539
  P      -0.371985     -0.395995      0.484680
  Se     -1.445579     -1.259398     -1.101368
  C       1.443706     -0.453224      0.370402
  C       2.039193     -0.638759     -0.884428
  C       3.432038     -0.646337     -0.998350
  C       4.230751     -0.471055      0.135741
  C       3.636040     -0.290260      1.390938
  C       2.245628     -0.281822      1.511709
  Cl     -0.747622     -1.409791      2.320778
  C      -2.110311      1.567531      1.214252
  C      -2.877261      2.196960      0.043706
  H       0.386689      2.879604     -3.155264
  H       1.210803      2.092605      0.916125
  H      -0.150837      3.196701      1.067162
  H       1.407296     -0.780026     -1.757717
  H       3.891712     -0.791548     -1.974195
  H       5.315668     -0.481644      0.045225
  H       4.255714     -0.163777      2.276923
  H       1.782492     -0.155584      2.487136
  H      -2.090315      2.254336      2.074989
  H      -2.620991      0.658154      1.550295
  H      -3.904877      2.418356      0.362388
  H      -2.914587      1.510793     -0.808663
  H      -2.418065      3.135629     -0.287427
>
28
-3684.77986208; 31P isotropic shielding: 121.780333 ppm
  C       0.660956      4.300148     -0.975164
  C       0.214538      3.178888     -1.047688
  C      -0.333145      1.824166     -1.123037
  N      -0.667828      1.300054      0.226888
  P      -0.323124     -0.343102      0.442707
  Se     -1.444422     -1.786826     -0.600640
  C       1.479912     -0.421151      0.197799
  C       2.052178     -1.529861     -0.440261
  C       3.438330     -1.598071     -0.603501
  C       4.252069     -0.561256     -0.134724
  C       3.679280      0.546891      0.502113
  C       2.296464      0.618899      0.674461
  Cl     -0.487996     -0.501193      2.540442
  C      -1.823808      1.960847      0.881294
  C      -3.199965      1.631186      0.285314
  H       1.058915      5.289602     -0.923355
  H      -1.215682      1.807356     -1.782551
  H       0.404985      1.159212     -1.588952
  H       1.405635     -2.323838     -0.808148
  H       3.881133     -2.459774     -1.099683
  H       5.331593     -0.614452     -0.265989
  H       4.310805      1.355829      0.865027
  H       1.847649      1.477224      1.167467
  H      -1.625590      3.039489      0.821034
  H      -1.797520      1.692806      1.941270
  H      -3.431143      0.565215      0.384926
  H      -3.261919      1.892442     -0.778694
  H      -3.972001      2.207172      0.812940
>
28
-3684.78129500; 31P isotropic shielding: 124.166920 ppm
  C      -0.969444      4.669961      0.702660
  C      -1.189655      3.486539      0.590687
  C      -1.467660      2.058609      0.446082
  N      -0.295113      1.327291     -0.098801
  P      -0.218230     -0.327951      0.246460
  Se     -1.747629     -1.594343     -0.450039
  C       1.486988     -0.784674     -0.189022
  C       2.562978     -0.018910      0.292692
  C       3.869453     -0.376668     -0.039445
  C       4.108299     -1.498408     -0.844887
  C       3.037043     -2.261981     -1.318202
  C       1.724551     -1.907409     -0.991599
  Cl     -0.118293     -0.270104      2.364842
  C       0.170272      1.791132     -1.436797
  C      -0.861092      1.681449     -2.568212
  H      -0.779892      5.714881      0.812884
  H      -1.705095      1.634036      1.428775
  H      -2.359473      1.911450     -0.184803
  H       2.373111      0.847304      0.921961
  H       4.703087      0.215518      0.333799
  H       5.129750     -1.776643     -1.098900
  H       3.220292     -3.135186     -1.941605
  H       0.880787     -2.492825     -1.350728
  H       1.066818      1.217327     -1.688846
  H       0.484945      2.835029     -1.306191
  H      -1.735794      2.317792     -2.387021
  H      -1.205419      0.648864     -2.694671
  H      -0.401785      2.014821     -3.508274
>
28
-3684.78124149; 31P isotropic shielding: 118.817388 ppm
  C       1.633911      2.442022     -1.678591
  C       0.558627      2.333813     -1.139193
  C      -0.756357      2.225611     -0.512979
  N      -0.784336      1.347580      0.698828
  P      -0.398203     -0.285665      0.362631
  Se     -1.379476     -1.211839     -1.251634
  C       1.417658     -0.341384      0.321860
  C       2.070488     -1.150364     -0.615491
  C       3.466808     -1.185879     -0.646487
  C       4.208626     -0.417510      0.257095
  C       3.552626      0.385163      1.199182
  C       2.159164      0.424386      1.235029
  Cl     -0.774280     -1.187560      2.236291
  C      -1.901024      1.695450      1.620907
  C      -3.315371      1.385035      1.110621
  H       2.589493      2.513465     -2.148697
  H      -1.072963      3.221701     -0.173114
  H      -1.486591      1.884709     -1.266332
  H       1.480952     -1.729923     -1.322343
  H       3.974255     -1.810995     -1.379142
  H       5.296867     -0.443884      0.229206
  H       4.128458      0.984176      1.902579
  H       1.644754      1.058707      1.951973
  H      -1.794436      2.771543      1.818731
  H      -1.721307      1.180985      2.567770
  H      -3.446123      0.311023      0.938160
  H      -3.537504      1.906812      0.171422
  H      -4.053614      1.708125      1.857020
>
28
-3684.77800013; 31P isotropic shielding: 117.585704 ppm
  C      -0.272968      3.634153     -1.430742
  C      -0.089621      2.986395     -0.426924
  C       0.110929      2.175462      0.779251
  N      -0.764398      0.980424      0.870901
  P      -0.333717     -0.404061     -0.007356
  Se     -0.937503     -0.599134     -2.007417
  C       1.443460     -0.596717      0.333097
  C       1.909864     -0.652333      1.658351
  C       3.275868     -0.788248      1.907525
  C       4.179826     -0.873570      0.840235
  C       3.714487     -0.822625     -0.477274
  C       2.347042     -0.684874     -0.733858
  Cl     -1.191098     -1.887293      1.250115
  C      -2.215559      1.285003      0.979602
  C      -2.601651      1.686097      2.406513
  H      -0.433706      4.191978     -2.326874
  H       1.155971      1.852573      0.840559
  H      -0.076697      2.787335      1.672856
  H       1.204734     -0.596493      2.484128
  H       3.636037     -0.834545      2.933743
  H       5.244700     -0.984025      1.038155
  H       4.414281     -0.891559     -1.308094
  H       1.969306     -0.647558     -1.753240
  H      -2.773631      0.391862      0.680864
  H      -2.475774      2.073163      0.257761
  H      -2.069089      2.586995      2.737589
  H      -2.377255      0.873663      3.107824
  H      -3.676939      1.902731      2.455111
>
28
-3684.78128113; 31P isotropic shielding: 117.865796 ppm
  C      -3.156596      2.683160      0.722184
  C      -2.001791      2.700246      0.367275
  C      -0.591379      2.700905     -0.035166
  N      -0.073581      1.431440     -0.592350
  P       0.028515      0.018279      0.337915
  Se     -1.640369     -1.237303      0.561793
  C       1.529683     -0.791291     -0.308486
  C       1.562344     -2.182211     -0.470173
  C       2.723315     -2.800641     -0.943124
  C       3.850180     -2.033549     -1.255360
  C       3.817923     -0.642453     -1.092694
  C       2.662820     -0.020167     -0.618332
  Cl      0.733117      0.822632      2.163701
  C      -0.274956      1.237736     -2.053584
  C      -1.732952      1.192252     -2.529128
  H      -4.172105      2.641380      1.048860
  H      -0.421349      3.468067     -0.804749
  H       0.025277      2.977811      0.828303
  H       0.676167     -2.764877     -0.227535
  H       2.745441     -3.881691     -1.068507
  H       4.753315     -2.516656     -1.624622
  H       4.694750     -0.043785     -1.333466
  H       2.633339      1.058759     -0.487685
  H       0.237391      0.309484     -2.332496
  H       0.266497      2.055193     -2.555095
  H      -2.280388      0.384055     -2.032729
  H      -1.752464      1.016848     -3.613455
  H      -2.256946      2.133476     -2.328995
>
28
-3684.77886885; 31P isotropic shielding: 130.724344 ppm
  C      -3.496855      2.473577     -0.352922
  C      -2.342633      2.486316      0.005569
  C      -0.932423      2.511783      0.406559
  N      -0.086071      1.463965     -0.220252
  P       0.014778     -0.056450      0.537359
  Se     -1.647313     -1.335707      0.555805
  C       1.556442     -0.745146     -0.147135
  C       1.605655     -2.088788     -0.539267
  C       2.793156     -2.620313     -1.050824
  C       3.928597     -1.813106     -1.171666
  C       3.879680     -0.469859     -0.776300
  C       2.698746      0.065498     -0.261253
  Cl      0.646667      0.535533      2.473445
  C      -0.157463      1.417707     -1.707609
  C       0.486081      2.651610     -2.345933
  H      -4.523289      2.438790     -0.644606
  H      -0.497688      3.488386      0.150904
  H      -0.848664      2.413080      1.494208
  H       0.712592     -2.702569     -0.442411
  H       2.829277     -3.664685     -1.355430
  H       4.852572     -2.228466     -1.570575
  H       4.764345      0.158212     -0.865530
  H       2.656732      1.104753      0.054398
  H      -1.205025      1.312619     -2.027273
  H       0.370740      0.517390     -2.037904
  H       1.528224      2.762039     -2.021439
  H      -0.055686      3.572358     -2.097927
  H       0.472326      2.547874     -3.438594
>
28
-3684.78081119; 31P isotropic shielding: 120.188797 ppm
  C       1.347636      3.391996     -1.164032
  C       0.561884      2.800052     -0.462368
  C      -0.392654      2.084560      0.386941
  N      -1.102254      0.984360     -0.311137
  P      -0.588566     -0.592624     -0.077675
  Se     -1.502476     -2.029749     -1.301559
  C       1.227278     -0.483388     -0.187237
  C       2.090379     -0.557253      0.913596
  C       3.472309     -0.455620      0.722903
  C       3.994791     -0.281541     -0.561290
  C       3.132259     -0.210414     -1.661955
  C       1.754154     -0.311147     -1.479495
  Cl     -0.909611     -0.955831      2.012547
  C      -2.445437      1.302069     -0.840134
  C      -2.387794      2.185311     -2.091221
  H       2.052388      3.898891     -1.785249
  H       0.126991      1.686203      1.268452
  H      -1.149155      2.783758      0.773109
  H       1.687737     -0.698062      1.911975
  H       4.138400     -0.516198      1.581713
  H       5.071095     -0.205994     -0.706579
  H       3.534020     -0.078624     -2.664964
  H       1.083999     -0.264968     -2.334316
  H      -3.031241      1.789637     -0.044061
  H      -2.936896      0.352856     -1.075993
  H      -1.897331      3.145788     -1.893541
  H      -3.406859      2.388857     -2.446287
  H      -1.835346      1.676873     -2.890342
>
28
-3684.78232276; 31P isotropic shielding: 122.291936 ppm
  C       0.156027      3.570698      1.795820
  C       0.155286      2.988631      0.736411
  C       0.132549      2.277205     -0.545988
  N      -0.782770      1.114141     -0.581353
  P      -0.301416     -0.408075     -0.060155
  Se     -1.503833     -1.978608     -0.771027
  C       1.470819     -0.491679     -0.481997
  C       2.490032     -0.116503      0.406319
  C       3.826088     -0.183627      0.000025
  C       4.149853     -0.620864     -1.288091
  C       3.133368     -0.995995     -2.174601
  C       1.797182     -0.936781     -1.774797
  Cl     -0.274573     -0.329629      2.068173
  C      -2.228922      1.454498     -0.572987
  C      -2.735508      1.813744     -1.972754
  H       0.156852      4.068994      2.740146
  H      -0.180136      2.965999     -1.343748
  H       1.142245      1.941407     -0.805355
  H       2.241259      0.223465      1.407202
  H       4.613350      0.103820      0.694597
  H       5.191706     -0.676212     -1.599099
  H       3.380977     -1.344052     -3.175788
  H       1.004605     -1.250133     -2.450387
  H      -2.387306      2.279146      0.137182
  H      -2.778944      0.587556     -0.193492
  H      -2.188163      2.664193     -2.400011
  H      -3.797208      2.090386     -1.928307
  H      -2.626018      0.955776     -2.646140
>
28
-3684.78445946; 31P isotropic shielding: 124.756588 ppm
  C      -3.273272      2.822466     -0.768146
  C      -2.267462      2.640338     -0.123204
  C      -1.056897      2.447036      0.682939
  N      -0.032062      1.553320      0.099125
  P      -0.060500     -0.071591      0.549207
  Se     -1.770241     -1.221537      0.156117
  C       1.528458     -0.716629     -0.060974
  C       1.538446     -1.802029     -0.946209
  C       2.754263     -2.293887     -1.430559
  C       3.958041     -1.706358     -1.030067
  C       3.948660     -0.625395     -0.138701
  C       2.738565     -0.130597      0.348080
  Cl      0.313808      0.093903      2.642899
  C       0.557050      1.981568     -1.198486
  C      -0.126719      1.426723     -2.455527
  H      -4.163537      2.960963     -1.340857
  H      -0.580584      3.423708      0.863194
  H      -1.334142      2.051544      1.668032
  H       0.594678     -2.256061     -1.240633
  H       2.758958     -3.138303     -2.117324
  H       4.904317     -2.092830     -1.404916
  H       4.885438     -0.172791      0.181562
  H       2.729345      0.699536      1.050410
  H       1.618902      1.710672     -1.200567
  H       0.509960      3.078683     -1.194842
  H      -1.190699      1.679512     -2.474868
  H      -0.034724      0.335875     -2.506422
  H       0.353550      1.850360     -3.348365
>
28
-3684.77889581; 31P isotropic shielding: 124.144818 ppm
  C       0.943189      4.179179      0.432454
  C       0.384554      3.253871     -0.109117
  C      -0.274439      2.121486     -0.763117
  N      -0.897046      1.176389      0.201803
  P      -0.421441     -0.443015      0.063084
  Se     -1.282925     -1.621346     -1.450272
  C       1.393788     -0.360979      0.100096
  C       2.039480      0.473235      1.029061
  C       3.433382      0.519188      1.063298
  C       4.185363     -0.268380      0.182494
  C       3.541116     -1.102210     -0.737541
  C       2.145178     -1.150088     -0.781491
  Cl     -0.867865     -1.131584      2.013438
  C      -2.319777      1.454989      0.517321
  C      -2.486958      2.646925      1.465237
  H       1.430351      5.004808      0.902477
  H      -1.046061      2.482333     -1.462208
  H       0.462896      1.587969     -1.377064
  H       1.453561      1.081194      1.712618
  H       3.933590      1.169191      1.778867
  H       5.273052     -0.231573      0.214831
  H       4.123807     -1.715471     -1.422453
  H       1.628888     -1.791155     -1.492985
  H      -2.742134      0.557126      0.979212
  H      -2.874885      1.620935     -0.420846
  H      -2.115007      3.577777      1.022997
  H      -1.942880      2.471536      2.400948
  H      -3.551379      2.782169      1.699257
