34
-1088.82303466; 31P isotropic shielding: 298.622213 ppm
  C       3.890449     -0.001240     -0.901643
  C       2.529041     -0.000657     -0.294180
  C       2.141473     -0.000771      0.991163
  C       2.870857     -0.001517      2.285645
  O       0.728719     -0.000208      1.087291
  P      -0.071810      0.000404     -0.380779
  O       1.479163     -0.000000     -1.177125
  O      -0.363151      1.389072     -1.186785
  C      -1.592905      2.149707     -1.053639
  C      -1.793226      2.501399      0.412070
  C      -1.995929      1.205890      1.229366
  N      -1.620898      0.000785      0.463369
  C      -1.996822     -1.204393      1.228811
  C      -1.794985     -2.499673      0.410947
  C      -1.594511     -2.147474     -1.054619
  O      -0.364245     -1.387623     -1.187508
  H       4.029355      0.883602     -1.539854
  H       4.667791     -0.000696     -0.130172
  H       4.029316     -0.887061     -1.538520
  H       2.619927      0.884159      2.890329
  H       3.953042     -0.000980      2.114925
  H       2.620618     -0.888244      2.889088
  H      -1.441406      3.039046     -1.676102
  H      -2.435774      1.570159     -1.452357
  H      -2.655824      3.171185      0.531672
  H      -0.905156      3.047558      0.755919
  H      -1.446966      1.264234      2.186467
  H      -3.061418      1.090171      1.482989
  H      -3.062248     -1.088042      1.482414
  H      -1.447959     -1.263547      2.185919
  H      -0.907246     -3.046557      0.754504
  H      -2.658006     -3.168957      0.530311
  H      -2.437011     -1.567184     -1.453041
  H      -1.443655     -3.036646     -1.677476
>
34
-1088.83592706; 31P isotropic shielding: 310.472058 ppm
  C       3.893362     -0.001165     -0.899533
  C       2.532242      0.002150     -0.291939
  C       2.144419      0.016889      0.993070
  C       2.873453      0.030354      2.287544
  O       0.731800      0.015113      1.088716
  P      -0.068117     -0.006889     -0.379893
  O       1.482310     -0.009956     -1.174727
  O      -0.369200      1.365181     -1.210601
  C      -1.605130      2.118180     -1.091271
  C      -1.809583      2.496859      0.366875
  C      -1.993564      1.216126      1.212137
  N      -1.617473     -0.000228      0.465449
  C      -1.983382     -1.194742      1.251390
  C      -1.780257     -2.501144      0.451395
  C      -1.581414     -2.170816     -1.019240
  O      -0.354624     -1.407750     -1.166140
  H       4.036073     -0.893991     -1.525656
  H       4.028696      0.876682     -1.548018
  H       4.670999      0.011750     -0.128501
  H       2.623966      0.922808      2.882741
  H       3.955683      0.027639      2.117214
  H       2.622208     -0.849390      2.900580
  H      -1.460097      2.997110     -1.729951
  H      -2.442692      1.524561     -1.480069
  H      -2.682211      3.156151      0.471514
  H      -0.930360      3.064195      0.698853
  H      -1.434790      1.297732      2.161770
  H      -3.055172      1.097561      1.479971
  H      -3.047700     -1.079492      1.509957
  H      -1.428600     -1.237678      2.205964
  H      -0.892709     -3.043209      0.802784
  H      -2.643011     -3.169199      0.579708
  H      -2.426253     -1.600801     -1.427215
  H      -1.426573     -3.069492     -1.627376
>
34
-1088.83595323; 31P isotropic shielding: 310.397904 ppm
  C       2.871668     -0.013467      2.289099
  C       2.143298     -0.015829      0.994190
  C       2.531491     -0.031281     -0.290670
  C       3.892981     -0.048751     -0.897480
  O       1.481921     -0.029355     -1.174032
  P      -0.068883     -0.007289     -0.379694
  O       0.730642     -0.001949      1.089429
  O      -0.348065      1.376037     -1.199191
  C      -1.570981      2.148750     -1.071689
  C      -1.767842      2.515732      0.390576
  C      -1.979283      1.229978      1.221049
  N      -1.618349      0.014763      0.464625
  C      -2.003394     -1.180653      1.240308
  C      -1.816688     -2.483545      0.430963
  C      -1.613460     -2.144172     -1.037085
  O      -0.375776     -1.397672     -1.177351
  H       2.628626      0.878552      2.887557
  H       2.613189     -0.893683      2.898524
  H       3.953944     -0.023848      2.119328
  H       4.040070      0.829717     -1.542553
  H       4.024652     -0.940711     -1.527198
  H       4.670005     -0.048837     -0.125706
  H      -1.411478      3.031269     -1.701862
  H      -2.418816      1.573180     -1.465398
  H      -2.625926      3.192571      0.503131
  H      -0.876420      3.059809      0.728858
  H      -1.425886      1.292364      2.175280
  H      -3.044660      1.126331      1.480190
  H      -3.066756     -1.052121      1.496642
  H      -1.452031     -1.238394      2.196052
  H      -0.935599     -3.038936      0.777855
  H      -2.687486     -3.141893      0.554832
  H      -2.450138     -1.558625     -1.439882
  H      -1.471568     -3.039743     -1.652898
>
34
-1088.83594991; 31P isotropic shielding: 310.367461 ppm
  C       3.165215      1.617930      0.967403
  C       2.185436      0.641699      0.412450
  C       2.260121     -0.687241      0.252543
  C       3.308808     -1.698758      0.545949
  O       1.096649     -1.187132     -0.364759
  P      -0.153827     -0.090518     -0.529722
  O       1.009275      1.162759     -0.070871
  O      -0.678360      0.877773     -1.745434
  C      -1.079723      2.236465     -1.389791
  C      -2.059529      2.244994     -0.205365
  C      -1.479197      1.589856      1.069020
  N      -1.091500      0.167726      0.864975
  C      -2.162163     -0.812131      1.155388
  C      -1.621497     -2.239314      1.004219
  C      -1.298772     -2.533204     -0.476584
  O      -1.066033     -1.312532     -1.210481
  H       2.746503      2.145206      1.837368
  H       4.088120      1.117348      1.278767
  H       3.419717      2.379158      0.215076
  H       4.185215     -1.223284      0.999532
  H       3.632638     -2.211615     -0.372767
  H       2.941448     -2.471557      1.238359
  H      -0.188805      2.838707     -1.175103
  H      -1.563674      2.622256     -2.294338
  H      -2.982592      1.725425     -0.500330
  H      -2.327752      3.290072      0.012332
  H      -0.604880      2.152374      1.413271
  H      -2.227086      1.607703      1.872126
  H      -3.043712     -0.673942      0.503006
  H      -2.484291     -0.639451      2.191830
  H      -0.721900     -2.336635      1.626130
  H      -2.361607     -2.960951      1.375696
  H      -2.162719     -2.989985     -0.977163
  H      -0.440026     -3.210902     -0.572931
>
34
-1088.83041899; 31P isotropic shielding: 307.119100 ppm
  C       3.876166     -1.026605     -0.262432
  C       2.589585     -0.328148     -0.005541
  C       2.244196      0.745244      0.718727
  C       3.065782      1.658336      1.563382
  O       0.906184      1.031214      0.629591
  P       0.016022     -0.149142     -0.372135
  O       1.472866     -0.880608     -0.664573
  O      -0.659478      1.082549     -1.228821
  C      -1.254514      2.186264     -0.474537
  C      -2.239976      1.677910      0.589624
  C      -1.616929      0.674197      1.589935
  N      -1.005088     -0.510273      0.931248
  C      -1.826699     -1.733201      0.844125
  C      -2.784936     -1.752946     -0.360804
  C      -1.999904     -1.390763     -1.651952
  O      -0.579689     -1.317335     -1.410376
  H       3.833946     -2.077213      0.063005
  H       4.121115     -1.027957     -1.335527
  H       4.693171     -0.533550      0.275421
  H       3.002077      2.693167      1.195020
  H       4.118253      1.355664      1.561628
  H       2.706842      1.659003      2.603346
  H      -0.457595      2.788639     -0.025204
  H      -1.776542      2.785068     -1.229786
  H      -3.100487      1.213247      0.087898
  H      -2.621271      2.548561      1.144938
  H      -0.855347      1.178471      2.194148
  H      -2.393752      0.304848      2.271137
  H      -2.381832     -1.829669      1.786173
  H      -1.148730     -2.592545      0.783632
  H      -3.238193     -2.750846     -0.444161
  H      -3.605545     -1.040860     -0.201262
  H      -2.349507     -0.440577     -2.074766
  H      -2.114290     -2.167445     -2.416501
>
34
-1088.83045136; 31P isotropic shielding: 310.256433 ppm
  C       3.839358     -0.046157     -0.986337
  C       2.485969     -0.034258     -0.360676
  C       2.107000      0.213560      0.903501
  C       2.841504      0.554689      2.149387
  O       0.703600      0.085005      1.040113
  P      -0.114115     -0.166005     -0.402662
  O       1.440482     -0.357659     -1.186031
  O      -0.388797      1.202874     -1.241527
  C      -0.854138      2.418252     -0.593801
  C      -2.177185      2.208483      0.128782
  C      -2.055179      1.072189      1.147129
  N      -1.647186     -0.169295      0.474020
  C      -1.951132     -1.376540      1.263761
  C      -1.945425     -2.637871      0.357851
  C      -1.763262     -2.213955     -1.093114
  O      -0.491020     -1.526586     -1.224813
  H       4.056125     -1.035315     -1.415390
  H       3.893720      0.683235     -1.807487
  H       4.616976      0.194290     -0.253622
  H       2.512413      1.520640      2.563561
  H       3.917516      0.617916      1.953584
  H       2.679872     -0.204788      2.930468
  H      -0.078201      2.761462      0.107563
  H      -0.939040      3.152368     -1.402946
  H      -2.961377      1.963312     -0.600569
  H      -2.461483      3.142931      0.635288
  H      -1.361649      1.361716      1.959860
  H      -3.034242      0.888909      1.613995
  H      -2.952672     -1.227790      1.691339
  H      -1.259610     -1.507102      2.115692
  H      -1.122064     -3.311412      0.628636
  H      -2.880555     -3.204046      0.469086
  H      -2.576536     -1.561247     -1.432787
  H      -1.683666     -3.076606     -1.765054
>
34
-1088.83293086; 31P isotropic shielding: 305.338669 ppm
  C       3.152420     -0.209202      2.134461
  C       2.322793     -0.061208      0.910885
  C       2.598148     -0.021222     -0.401323
  C       3.893514     -0.121802     -1.131867
  O       1.480917      0.150942     -1.175513
  P       0.002683      0.160594     -0.237532
  O       0.934584      0.092029      1.138917
  O      -0.318463      1.557277     -1.008423
  C      -1.591633      2.239183     -1.141946
  C      -2.319407      2.343115      0.184282
  C      -2.624709      0.939654      0.690099
  N      -1.407282      0.141251      0.819905
  C      -1.627530     -1.163769      1.458548
  C      -2.097757     -2.245043      0.441200
  C      -1.705958     -1.801903     -0.970852
  O      -0.359079     -1.247826     -1.015153
  H       3.046169      0.661448      2.800163
  H       2.864323     -1.099414      2.715352
  H       4.210429     -0.306490      1.867280
  H       3.883337     -0.976801     -1.823512
  H       4.731298     -0.245276     -0.437401
  H       4.069015      0.781833     -1.733790
  H      -1.334744      3.221932     -1.554520
  H      -2.202747      1.703594     -1.885098
  H      -3.253560      2.907054      0.049265
  H      -1.694402      2.884015      0.908162
  H      -3.101273      0.989660      1.682966
  H      -3.375137      0.477482      0.011805
  H      -2.360385     -1.038822      2.267719
  H      -0.690525     -1.483728      1.925226
  H      -1.635433     -3.212349      0.679419
  H      -3.187228     -2.390404      0.472492
  H      -2.414409     -1.058961     -1.360142
  H      -1.684868     -2.642542     -1.673175
>
34
-1088.82793578; 31P isotropic shielding: 310.828500 ppm
  C       2.860736     -0.012142      2.230632
  C       2.126544      0.013309      0.939322
  C       2.508900      0.074297     -0.345905
  C       3.866633      0.139084     -0.957717
  O       1.455756      0.075540     -1.225084
  P      -0.090863     -0.001969     -0.426243
  O       0.714918     -0.033591      1.039352
  O      -0.428783      1.405982     -1.178903
  C      -1.681313      2.121398     -1.011910
  C      -1.887302      2.410929      0.466428
  C      -2.042981      1.080063      1.235838
  N      -1.635850     -0.082519      0.422554
  C      -1.967788     -1.327919      1.142374
  C      -1.737431     -2.582310      0.269964
  C      -1.552073     -2.165209     -1.180281
  O      -0.344801     -1.365313     -1.286292
  H       3.941773      0.026941      2.056999
  H       2.586390      0.843355      2.867672
  H       2.639935     -0.926909      2.802807
  H       4.647741      0.135642     -0.190071
  H       3.974822      1.050843     -1.563080
  H       4.030430     -0.717692     -1.627505
  H      -1.560361      3.038440     -1.599963
  H      -2.506973      1.531179     -1.430348
  H      -2.772345      3.045389      0.612006
  H      -1.017747      2.974850      0.828284
  H      -1.489030      1.120442      2.191045
  H      -3.102279      0.920959      1.491788
  H      -3.032938     -1.253142      1.411958
  H      -1.406250     -1.409604      2.090337
  H      -0.835929     -3.122013      0.587925
  H      -2.583477     -3.277158      0.362564
  H      -2.412107     -1.594284     -1.553734
  H      -1.377559     -3.024268     -1.838311
>
34
-1088.83597855; 31P isotropic shielding: 310.378602 ppm
  C       3.485467     -1.313431      1.215349
  C       2.400323     -0.515473      0.579101
  C       2.379836      0.746191      0.124540
  C       3.385264      1.836433      0.047430
  O       1.109215      1.057038     -0.414442
  P      -0.029693     -0.156358     -0.344339
  O       1.196056     -1.149886      0.413134
  O      -1.075542      0.913607     -1.179431
  C      -1.417858      2.160081     -0.533852
  C      -2.061249      1.967799      0.856188
  C      -1.329479      0.897032      1.701033
  N      -1.121618     -0.388647      0.982752
  C      -2.406815     -1.033859      0.602485
  C      -2.205270     -2.246396     -0.314433
  C      -1.599558     -1.843531     -1.658746
  O      -0.252784     -1.317473     -1.448739
  H       3.703151     -2.215724      0.625741
  H       4.406976     -0.727631      1.303963
  H       3.186877     -1.645332      2.220349
  H       4.336804      1.503162      0.476655
  H       3.059566      2.732789      0.597832
  H       3.569944      2.143587     -0.993498
  H      -0.520011      2.788984     -0.452413
  H      -2.121885      2.665477     -1.208402
  H      -3.117167      1.690160      0.744867
  H      -2.044984      2.928392      1.391294
  H      -0.345192      1.269829      2.016731
  H      -1.893106      0.681175      2.620597
  H      -3.091206     -0.334139      0.093405
  H      -2.894225     -1.339879      1.540560
  H      -1.547214     -2.981035      0.170152
  H      -3.177909     -2.730038     -0.485879
  H      -2.208059     -1.088462     -2.173308
  H      -1.457257     -2.708239     -2.316175
>
34
-1088.82061309; 31P isotropic shielding: 301.263729 ppm
  C       3.204770     -1.693874      0.605315
  C       2.196187     -0.653163      0.265965
  C       2.159360      0.670660      0.479112
  C       3.112902      1.605548      1.136470
  O       1.039638      1.252328     -0.102624
  P      -0.134382      0.104573     -0.625290
  O       1.104307     -1.082959     -0.478813
  O      -0.908089      1.355025     -1.390758
  C      -1.340666      2.493202     -0.603006
  C      -2.252237      2.037061      0.543433
  C      -1.549080      1.038780      1.485142
  N      -1.027502     -0.139111      0.773513
  C      -1.476862     -1.504397      1.089276
  C      -2.139041     -2.203372     -0.114906
  C      -1.219136     -2.236265     -1.342311
  O      -0.852626     -0.891353     -1.740382
  H       4.048219     -1.256866      1.150477
  H       2.766811     -2.488168      1.228292
  H       3.592673     -2.172507     -0.306611
  H       3.462805      2.368630      0.424820
  H       3.985619      1.066385      1.520047
  H       2.639622      2.136669      1.975919
  H      -0.473648      3.049902     -0.223971
  H      -1.889071      3.131681     -1.306431
  H      -3.152727      1.568748      0.120737
  H      -2.569205      2.919925      1.119433
  H      -0.732985      1.554400      2.018553
  H      -2.255493      0.681736      2.245024
  H      -2.190122     -1.435179      1.920170
  H      -0.627740     -2.113875      1.441188
  H      -2.400374     -3.236286      0.161617
  H      -3.068797     -1.678083     -0.376325
  H      -1.743279     -2.655296     -2.210095
  H      -0.321051     -2.838097     -1.149882
>
34
-1088.82821448; 31P isotropic shielding: 308.070479 ppm
  C       3.447827     -1.453996      0.813161
  C       2.364380     -0.543322      0.352984
  C       2.269863      0.792563      0.307631
  C       3.201872      1.884366      0.699148
  O       1.076935      1.193213     -0.292001
  P      -0.027767     -0.080439     -0.563124
  O       1.251710     -1.159755     -0.203626
  O      -0.941131      1.009003     -1.443520
  C      -1.296886      2.292672     -0.870280
  C      -1.511222      2.217617      0.655203
  C      -1.999227      0.827618      1.079404
  N      -0.963355     -0.207113      0.854871
  C      -1.436481     -1.590210      1.083833
  C      -2.389279     -2.124399     -0.025362
  C      -2.007271     -1.590346     -1.429969
  O      -0.583194     -1.320418     -1.519147
  H       3.093178     -2.123761      1.610457
  H       3.798351     -2.089046     -0.014017
  H       4.299756     -0.882583      1.196745
  H       2.748062      2.547530      1.450726
  H       3.464510      2.506716     -0.169763
  H       4.125453      1.472017      1.119297
  H      -0.534426      3.039623     -1.125673
  H      -2.234746      2.560433     -1.376361
  H      -2.257890      2.967428      0.950638
  H      -0.580587      2.448391      1.185714
  H      -2.241711      0.823306      2.152272
  H      -2.932902      0.590078      0.535362
  H      -1.933146     -1.623433      2.062990
  H      -0.553097     -2.232838      1.143443
  H      -2.349129     -3.221923     -0.008622
  H      -3.430730     -1.842021      0.183492
  H      -2.569264     -0.680850     -1.673659
  H      -2.208858     -2.336720     -2.206149
>
34
-1088.82591265; 31P isotropic shielding: 297.381344 ppm
  C       3.146812     -0.427843      2.026447
  C       2.301426     -0.145856      0.837743
  C       2.551825     -0.029464     -0.476108
  C       3.829924     -0.143696     -1.235174
  O       1.434281      0.246917     -1.217679
  P      -0.020928      0.225643     -0.237245
  O       0.925423      0.056577      1.113209
  O      -0.305416      1.693411     -0.880933
  C      -1.370599      2.594098     -0.491726
  C      -2.703018      1.872410     -0.556127
  C      -2.748551      0.813484      0.544418
  N      -1.437957      0.186457      0.807912
  C      -1.596669     -1.086686      1.535518
  C      -1.852121     -2.286076      0.563934
  C      -1.659826     -1.835042     -0.885920
  O      -0.391791     -1.148176     -1.074830
  H       3.091862      0.389873      2.761998
  H       2.830029     -1.349229      2.540250
  H       4.194017     -0.548137      1.728261
  H       4.034764      0.785942     -1.786007
  H       3.769563     -0.954442     -1.975827
  H       4.672307     -0.344462     -0.564712
  H      -1.170278      2.979173      0.518824
  H      -1.308309      3.423239     -1.205781
  H      -2.800791      1.418454     -1.552703
  H      -3.536108      2.577941     -0.431376
  H      -3.087572      1.283547      1.485490
  H      -3.510233      0.056323      0.289293
  H      -2.428343     -0.973790      2.243709
  H      -0.697198     -1.270689      2.127891
  H      -1.151618     -3.102661      0.783155
  H      -2.866826     -2.694660      0.673912
  H      -2.481378     -1.187659     -1.220245
  H      -1.615503     -2.691419     -1.568471
>
34
-1088.82627763; 31P isotropic shielding: 308.414023 ppm
  C       3.880457      0.021956     -1.036920
  C       2.565254      0.029381     -0.335445
  C       2.222037     -0.372186      0.897843
  C       2.977103     -0.953280      2.038850
  O       0.856314     -0.124076      1.143065
  P      -0.025291      0.343790     -0.204469
  O       1.513153      0.570322     -1.026647
  O      -0.387063      1.733608     -0.970326
  C      -1.691160      2.285518     -1.262649
  C      -2.528689      2.379613     -0.005545
  C      -2.710721      0.974598      0.546593
  N      -1.431237      0.319858      0.868328
  C      -1.694057     -1.004267      1.487091
  C      -1.950224     -2.092960      0.427045
  C      -0.761544     -2.209671     -0.527863
  O      -0.410891     -0.940380     -1.154716
  H       4.665999     -0.399453     -0.400554
  H       3.825191     -0.569293     -1.962491
  H       4.171101      1.043968     -1.321112
  H       2.583716     -1.940408      2.328294
  H       2.916142     -0.306315      2.927645
  H       4.033580     -1.073365      1.775294
  H      -1.484184      3.264336     -1.711388
  H      -2.182287      1.651912     -2.017470
  H      -3.508796      2.820865     -0.237294
  H      -2.027042      3.022944      0.730562
  H      -3.298210      1.008591      1.477198
  H      -3.312616      0.391534     -0.181404
  H      -2.568818     -0.902615      2.145235
  H      -0.845727     -1.286242      2.117465
  H      -2.107615     -3.068360      0.912222
  H      -2.860364     -1.864925     -0.145326
  H      -0.979173     -2.884001     -1.363854
  H       0.123560     -2.591298      0.003140
>
34
-1088.82673280; 31P isotropic shielding: 305.553956 ppm
  C       3.862879     -0.208635     -1.107315
  C       2.561580     -0.076097     -0.391755
  C       2.260776     -0.219391      0.909010
  C       3.054365     -0.556171      2.119058
  O       0.882973      0.021695      1.141943
  P      -0.010053      0.221816     -0.239727
  O       1.481837      0.260994     -1.163731
  O      -0.273650      1.686803     -0.898737
  C      -1.386479      2.562736     -0.600751
  C      -2.689039      1.798023     -0.738715
  C      -2.775133      0.765128      0.383769
  N      -1.462713      0.193824      0.755042
  C      -1.631126     -1.040196      1.552156
  C      -1.622183     -2.322986      0.657306
  C      -1.537369     -1.939351     -0.820480
  O      -0.345077     -1.151189     -1.092317
  H       4.115665      0.729705     -1.622377
  H       4.673710     -0.454538     -0.413386
  H       3.804963     -0.995324     -1.873599
  H       2.689666     -1.477563      2.599923
  H       3.000058      0.246589      2.871022
  H       4.106798     -0.704665      1.854037
  H      -1.266954      2.972882      0.412735
  H      -1.300240      3.379605     -1.326469
  H      -2.703542      1.317467     -1.727470
  H      -3.550540      2.478137     -0.688656
  H      -3.191402      1.247398      1.286425
  H      -3.493444     -0.023742      0.100168
  H      -2.582800     -0.954647      2.091723
  H      -0.840120     -1.099755      2.304311
  H      -0.753917     -2.949699      0.900938
  H      -2.519341     -2.936906      0.821041
  H      -2.428215     -1.390220     -1.152150
  H      -1.434533     -2.825425     -1.457371
>
34
-1088.82697415; 31P isotropic shielding: 309.444272 ppm
  C       2.817359      0.561547      2.053608
  C       2.068164      0.213174      0.818628
  C       2.433345     -0.065749     -0.443089
  C       3.782277     -0.117064     -1.076322
  O       1.376505     -0.382342     -1.255889
  P      -0.169627     -0.145139     -0.465183
  O       0.663013      0.116077      0.966455
  O      -0.422059      1.210360     -1.332449
  C      -0.860957      2.449156     -0.711457
  C      -2.182730      2.280743      0.023672
  C      -2.075111      1.166518      1.067283
  N      -1.696345     -0.098323      0.420914
  C      -2.020462     -1.278980      1.241643
  C      -2.026223     -2.564736      0.371947
  C      -1.856772     -2.182095     -1.091767
  O      -0.577307     -1.515199     -1.255606
  H       3.892791      0.604210      1.849201
  H       2.507221      1.539244      2.454601
  H       2.649647     -0.182543      2.848139
  H       3.846201      0.595051     -1.911827
  H       3.976415     -1.118497     -1.487335
  H       4.569567      0.121634     -0.353416
  H      -0.073974      2.795039     -0.023821
  H      -0.938282      3.164628     -1.537906
  H      -2.975342      2.031663     -0.695222
  H      -2.447758      3.231898      0.508971
  H      -1.369946      1.460096      1.868483
  H      -3.054195      1.013552      1.544961
  H      -3.022989     -1.105420      1.657847
  H      -1.336225     -1.394747      2.101691
  H      -1.201771     -3.233001      0.652384
  H      -2.961310     -3.125437      0.508624
  H      -2.665389     -1.528081     -1.440061
  H      -1.795725     -3.063237     -1.741301
>
34
-1088.83293049; 31P isotropic shielding: 305.471221 ppm
  C       3.030019      0.773596      2.097222
  C       2.252481      0.305300      0.921046
  C       2.574474     -0.006793     -0.343388
  C       3.884591      0.018520     -1.053435
  O       1.500925     -0.447220     -1.072536
  P      -0.011242     -0.274376     -0.205989
  O       0.874014      0.093979      1.155304
  O      -0.344240      0.987270     -1.207908
  C      -1.480149      1.865484     -0.965102
  C      -1.469268      2.373978      0.472478
  C      -1.618877      1.181745      1.465093
  N      -1.440612     -0.138155      0.817011
  C      -2.712867     -0.828278      0.566884
  C      -2.500816     -2.290512      0.200142
  C      -1.623961     -2.360466     -1.033228
  O      -0.328225     -1.757643     -0.798610
  H       2.669063      1.747078      2.464330
  H       2.955349      0.062616      2.934735
  H       4.088291      0.881478      1.835245
  H       4.688762      0.353880     -0.389791
  H       3.843509      0.692492     -1.921405
  H       4.137792     -0.983119     -1.430670
  H      -1.356582      2.682752     -1.684806
  H      -2.415986      1.341097     -1.202357
  H      -2.276997      3.107055      0.610398
  H      -0.521270      2.902483      0.641005
  H      -0.903905      1.288368      2.288108
  H      -2.624095      1.191059      1.904144
  H      -3.319141     -0.348425     -0.232262
  H      -3.312313     -0.759062      1.486759
  H      -2.020171     -2.825759      1.030620
  H      -3.468971     -2.770241     -0.004956
  H      -2.101112     -1.848999     -1.884168
  H      -1.399972     -3.390983     -1.332815
>
34
-1088.82786252; 31P isotropic shielding: 311.569390 ppm
  C       3.073752     -0.769287      2.009945
  C       2.267458     -0.303535      0.852583
  C       2.554235     -0.012804     -0.426460
  C       3.847424     -0.061015     -1.166713
  O       1.466815      0.409500     -1.143197
  P      -0.015797      0.257231     -0.215275
  O       0.891423     -0.092499      1.125514
  O      -0.296564      1.782282     -0.710654
  C      -1.410862      2.612253     -0.304123
  C      -2.710224      1.859669     -0.516076
  C      -2.778718      0.704046      0.481494
  N      -1.457954      0.113435      0.785251
  C      -1.606654     -1.195545      1.457217
  C      -1.554531     -2.385567      0.444958
  C      -1.514422     -1.861933     -0.990738
  O      -0.350638     -1.016485     -1.209028
  H       2.719277     -1.740514      2.389774
  H       4.124682     -0.881065      1.721571
  H       3.022927     -0.055113      2.846706
  H       4.095030      0.930387     -1.573456
  H       3.779669     -0.754444     -2.017531
  H       4.666252     -0.384988     -0.515646
  H      -1.282538      2.905743      0.747990
  H      -1.335250      3.506444     -0.933510
  H      -2.732509      1.496719     -1.553512
  H      -3.575721      2.522520     -0.379304
  H      -3.199754      1.073573      1.433647
  H      -3.486629     -0.057697      0.110251
  H      -2.568227     -1.185315      1.985808
  H      -0.826067     -1.310392      2.214285
  H      -0.653346     -2.989764      0.614673
  H      -2.418463     -3.054916      0.564026
  H      -2.428121     -1.312240     -1.253207
  H      -1.399356     -2.680484     -1.710565
>
34
-1088.82681976; 31P isotropic shielding: 309.714499 ppm
  C       3.118844      1.836596      1.231581
  C       2.269601      0.819995      0.547669
  C       2.587924     -0.354810     -0.013321
  C       3.861083     -1.101392     -0.187806
  O       1.451077     -0.984697     -0.559583
  P       0.012935     -0.184877     -0.379292
  O       0.933303      1.107529      0.445739
  O      -0.600494      0.910615     -1.440741
  C      -1.156313      2.146934     -0.889493
  C      -2.173374      1.862891      0.228012
  C      -1.608008      1.013337      1.392412
  N      -1.036513     -0.286083      0.948100
  C      -1.905129     -1.474018      1.055406
  C      -2.852686     -1.654441     -0.144118
  C      -2.036515     -1.554017     -1.462290
  O      -0.617603     -1.492167     -1.209876
  H       3.064067      2.804651      0.711390
  H       2.777308      2.000939      2.264360
  H       4.166743      1.519759      1.260850
  H       4.084882     -1.264526     -1.253115
  H       3.814655     -2.091869      0.290028
  H       4.693769     -0.545250      0.256348
  H      -0.339036      2.782969     -0.532814
  H      -1.646064      2.631882     -1.741721
  H      -3.047934      1.357234     -0.205152
  H      -2.522077      2.828785      0.624426
  H      -0.837536      1.579261      1.926551
  H      -2.411641      0.787934      2.104400
  H      -2.471248     -1.388844      1.991915
  H      -1.263258     -2.357656      1.149304
  H      -3.354838     -2.629071     -0.066253
  H      -3.636745     -0.886351     -0.120661
  H      -2.341495     -0.680568     -2.052310
  H      -2.172085     -2.448174     -2.081148
>
34
-1088.83039700; 31P isotropic shielding: 309.963607 ppm
  C       2.768816      1.150608      1.926384
  C       2.053667      0.395197      0.865290
  C       2.455775     -0.364174     -0.166363
  C       3.824594     -0.721399     -0.637450
  O       1.416378     -0.913465     -0.871057
  P      -0.138889     -0.291195     -0.360577
  O       0.640238      0.436549      0.935689
  O      -0.212995      0.661632     -1.680350
  C      -0.548782      2.072759     -1.581301
  C      -1.916262      2.288985     -0.949637
  C      -1.980545      1.627927      0.429565
  N      -1.696328      0.189968      0.318255
  C      -2.181541     -0.581045      1.476307
  C      -2.276106     -2.091264      1.127655
  C      -1.984644     -2.284709     -0.353976
  O      -0.636216     -1.822510     -0.630602
  H       3.852708      1.050838      1.802298
  H       2.519628      2.223069      1.900307
  H       2.503748      0.780795      2.929312
  H       3.980301     -0.378748     -1.670762
  H       3.960703     -1.812626     -0.632996
  H       4.593613     -0.271135     -0.000842
  H       0.234786      2.579459     -0.997370
  H      -0.508648      2.443909     -2.611561
  H      -2.693144      1.860521     -1.597836
  H      -2.104208      3.369397     -0.860694
  H      -1.295494      2.141686      1.130802
  H      -2.995751      1.733741      0.840154
  H      -3.180683     -0.190783      1.716700
  H      -1.557900     -0.429659      2.376140
  H      -1.545417     -2.674118      1.703307
  H      -3.272121     -2.487091      1.369734
  H      -2.699737     -1.743613     -0.985371
  H      -1.978047     -3.344207     -0.635755
>
34
-1088.83287390; 31P isotropic shielding: 304.848862 ppm
  C       3.151957      1.706131      0.610764
  C       2.147703      0.669794      0.247677
  C       2.127687     -0.661605      0.396736
  C       3.101118     -1.621974      0.983548
  O       0.991652     -1.217669     -0.178672
  P      -0.204481     -0.067147     -0.622638
  O       1.026986      1.118375     -0.440300
  O      -0.958739      0.967815     -1.671610
  C      -1.113087      2.363432     -1.298657
  C      -1.270518      2.573346      0.224234
  C      -1.913809      1.359300      0.906048
  N      -1.108078      0.112073      0.815437
  C      -1.949242     -1.057391      1.186330
  C      -1.345720     -2.413183      0.798475
  C      -1.190480     -2.558593     -0.732060
  O      -0.997421     -1.288716     -1.410661
  H       3.498074      2.244509     -0.284480
  H       2.726349      2.453679      1.296745
  H       4.022013      1.251937      1.096997
  H       3.418754     -2.361670      0.233300
  H       2.659308     -2.178022      1.823902
  H       3.991178     -1.099104      1.349686
  H      -0.270909      2.948876     -1.688668
  H      -2.028165      2.670066     -1.822578
  H      -1.919672      3.443918      0.393653
  H      -0.302422      2.790146      0.685373
  H      -2.082126      1.573412      1.972153
  H      -2.908685      1.184749      0.451501
  H      -2.941541     -0.961478      0.703548
  H      -2.117241     -1.019141      2.273134
  H      -0.382200     -2.548957      1.298677
  H      -2.019271     -3.202823      1.160124
  H      -2.116827     -2.948782     -1.174235
  H      -0.367946     -3.241904     -0.978386
