18
-763.04411063; 31P isotropic shielding: 241.155344 ppm
  C      -2.334049      1.112164     -0.518524
  C      -1.460763     -0.074297     -0.086312
  C      -2.138591     -1.427108     -0.349907
  C      -1.021020      0.053476      1.361849
  C       0.297346      0.145991      1.560063
  P       1.131756      0.136998     -0.030478
  O       2.035127      1.252644     -0.402495
  O      -0.231705     -0.032311     -0.896806
  O       1.860489     -1.315363     -0.156917
  H      -2.585426      1.020345     -1.581614
  H      -3.265247      1.133525      0.061933
  H      -1.798512      2.055400     -0.363965
  H      -3.059016     -1.514358      0.241343
  H      -1.466051     -2.249023     -0.080561
  H      -2.394598     -1.513783     -1.412328
  H      -1.776973      0.067110      2.146302
  H       0.796074      0.251752      2.518376
  H       2.768758     -1.195461     -0.494059
>
18
-763.04826374; 31P isotropic shielding: 231.681223 ppm
  C      -2.116952      1.296662     -0.581748
  C      -1.447031      0.005048     -0.087171
  C      -2.322523     -1.231976     -0.324468
  C      -1.017418      0.125052      1.365448
  C       0.302429      0.124020      1.580568
  P       1.155277      0.065594     -0.002784
  O       2.017624      1.210886     -0.354448
  O      -0.209694     -0.185905     -0.868266
  O       1.971765     -1.330047     -0.157410
  H      -1.438558      2.147484     -0.455261
  H      -2.367590      1.201769     -1.644783
  H      -3.038989      1.492817     -0.019539
  H      -3.267206     -1.142714      0.226776
  H      -1.808380     -2.139460      0.013635
  H      -2.548964     -1.330987     -1.392436
  H      -1.779852      0.229146      2.136940
  H       0.793591      0.235915      2.542324
  H       1.382071     -2.105203     -0.201378
