43
-2047.67341790; 31P isotropic shielding: 266.835194 ppm
  F      -5.119081      2.708017      1.559863
  C      -5.332815      1.712104      0.635859
  C      -4.037661      1.245792      0.017796
  C      -3.348577      0.156535      0.561980
  C      -2.125164     -0.239397      0.015575
  C      -1.578323      0.442090     -1.082407
  C      -2.288742      1.527742     -1.627267
  C      -3.502114      1.937276     -1.077641
  P       0.017548     -0.003429     -1.899577
  C       1.193896      1.152808     -1.067567
  C       2.489025      1.242391     -1.609474
  C       3.442232      2.091675     -1.049597
  C       3.102273      2.886568      0.053281
  C       1.814069      2.816413      0.595546
  C       0.868316      1.952252      0.038965
  C       4.141063      3.779531      0.686240
  F       3.587510      4.871912      1.293863
  F       5.052922      4.241695     -0.222226
  F       4.854911      3.111735      1.653578
  C       0.419499     -1.605309     -1.072357
  C      -0.169347     -2.763234     -1.612011
  C       0.069665     -4.016479     -1.050335
  C       0.927327     -4.131639      0.051696
  C       1.532360     -2.989902      0.589596
  C       1.276642     -1.735340      0.031360
  C       1.154760     -5.478470      0.692978
  F       1.027062     -6.507382     -0.198357
  F       0.245290     -5.714365      1.697541
  F       2.395546     -5.584208      1.257333
  F      -5.991115      0.707933      1.288632
  F      -6.196262      2.223502     -0.294063
  H      -3.765741     -0.382045      1.409142
  H      -1.598774     -1.084870      0.450489
  H      -1.888036      2.054837     -2.492237
  H      -4.041634      2.778002     -1.506740
  H       2.751870      0.644024     -2.480995
  H       4.439815      2.151896     -1.477440
  H       1.549185      3.435848      1.448892
  H      -0.127041      1.904498      0.472521
  H      -0.821167     -2.681906     -2.480984
  H      -0.393423     -4.903646     -1.474690
  H       2.201464     -3.079925      1.441950
  H       1.748764     -0.856329      0.461992
>
43
-2047.67187885; 31P isotropic shielding: 267.060675 ppm
  F      -5.986904      0.699369      1.292444
  C      -5.322711      1.708056      0.650223
  C      -4.030155      1.237186      0.029568
  C      -3.540486      1.855068     -1.128254
  C      -2.328462      1.435504     -1.675905
  C      -1.577217      0.413102     -1.069565
  C      -2.078871     -0.195609      0.091968
  C      -3.297822      0.210762      0.638317
  P       0.014266     -0.050273     -1.885603
  C       1.196652      1.124645     -1.089776
  C       2.496571      1.182074     -1.627292
  C       3.452754      2.043096     -1.094129
  C       3.114461      2.880715     -0.021177
  C       1.822634      2.845977      0.512293
  C       0.872372      1.967617     -0.016812
  C       4.148492      3.842189      0.510970
  F       3.791041      4.392502      1.707933
  F       4.362327      4.883977     -0.358874
  F       5.363955      3.234846      0.692636
  C       0.418111     -1.632800     -1.022948
  C       1.322569     -1.747713      0.043546
  C       1.577866     -2.989917      0.630411
  C       0.923835     -4.133470      0.159776
  C       0.017999     -4.033276     -0.905502
  C      -0.219707     -2.794249     -1.496862
  C       1.144861     -5.466988      0.830067
  F       1.049476     -6.511462     -0.048336
  F       0.207776     -5.694676      1.811110
  F       2.369138     -5.554759      1.430570
  F      -6.182868      2.234186     -0.272785
  F      -5.102592      2.690251      1.587038
  H      -4.112788      2.645706     -1.606835
  H      -1.963033      1.904901     -2.588433
  H      -1.519511     -0.992392      0.575312
  H      -3.679919     -0.271909      1.534599
  H       2.760277      0.545816     -2.471334
  H       4.456510      2.072030     -1.512097
  H       1.560686      3.495104      1.343692
  H      -0.124620      1.942562      0.414878
  H       1.832748     -0.866783      0.423971
  H       2.283700     -3.067306      1.453712
  H      -0.483938     -4.922546     -1.278793
  H      -0.909773     -2.726916     -2.337122
>
43
-2047.67177221; 31P isotropic shielding: 266.869451 ppm
  F      -5.698763      2.992398      0.411450
  C      -5.332468      1.720660      0.749705
  C      -4.015377      1.314387      0.134889
  C      -3.319919      0.219409      0.663609
  C      -2.117159     -0.189119      0.085485
  C      -1.597047      0.482624     -1.033004
  C      -2.314831      1.568705     -1.563636
  C      -3.510632      1.990944     -0.982079
  P      -0.021244      0.028444     -1.883483
  C       1.184456      1.156306     -1.054567
  C       2.476290      1.224885     -1.607803
  C       3.449851      2.053389     -1.052142
  C       3.134705      2.848829      0.057961
  C       1.850553      2.799347      0.611458
  C       0.883984      1.955537      0.058980
  C       4.196942      3.719473      0.683393
  F       3.668975      4.801411      1.330312
  F       5.087600      4.195508     -0.239262
  F       4.932037      3.024084      1.614694
  C       0.375614     -1.590037     -1.086516
  C      -0.235591     -2.733639     -1.632938
  C      -0.000032     -3.997236     -1.094520
  C       0.871796     -4.137744     -0.005862
  C       1.500448     -3.011579      0.536214
  C       1.248059     -1.745720      0.001290
  C       1.169047     -5.513848      0.537743
  F       2.148070     -6.144489     -0.191998
  F       0.070567     -6.329751      0.502083
  F       1.604730     -5.480995      1.832644
  F      -5.299790      1.660089      2.117611
  F      -6.353754      0.894060      0.347759
  H      -3.711843     -0.304749      1.532299
  H      -1.581496     -1.032991      0.512265
  H      -1.933581      2.090683     -2.440453
  H      -4.051757      2.837883     -1.395450
  H       2.720891      0.626409     -2.484539
  H       4.444412      2.097177     -1.489109
  H       1.604946      3.418991      1.470357
  H      -0.107864      1.923012      0.501834
  H      -0.903827     -2.632314     -2.487268
  H      -0.486949     -4.871928     -1.518921
  H       2.175447     -3.120121      1.381380
  H       1.733401     -0.877982      0.440036
>
43
-2047.67268129; 31P isotropic shielding: 267.265316 ppm
  F      -5.775719      2.900661      0.321580
  C      -5.293537      1.718982      0.805374
  C      -3.991495      1.311350      0.160007
  C      -3.281989      0.226389      0.692358
  C      -2.086252     -0.182979      0.102164
  C      -1.585301      0.478885     -1.031696
  C      -2.315246      1.555515     -1.563418
  C      -3.505860      1.978381     -0.970042
  P      -0.019699      0.021301     -1.899814
  C       1.198562      1.144134     -1.082924
  C       2.474655      1.230115     -1.665758
  C       3.458590      2.056209     -1.120402
  C       3.166396      2.829245      0.008974
  C       1.894653      2.762816      0.593237
  C       0.920444      1.923147      0.052374
  C       4.209784      3.726621      0.628565
  F       4.632335      3.244358      1.843925
  F       3.723997      4.987031      0.860674
  F       5.321366      3.860821     -0.151853
  C       0.375777     -1.600657     -1.109479
  C       1.289388     -1.770577     -0.058188
  C       1.539586     -3.039906      0.469527
  C       0.871694     -4.155945     -0.046146
  C      -0.043546     -4.000740     -1.096329
  C      -0.276635     -2.734117     -1.628672
  C       1.090551     -5.520279      0.560642
  F       2.329858     -5.650675      1.121332
  F       0.954427     -6.524210     -0.358394
  F       0.178336     -5.776141      1.557682
  F      -5.164490      1.861542      2.163075
  F      -6.272409      0.776525      0.606575
  H      -3.660100     -0.290805      1.571589
  H      -1.541117     -1.020461      0.529524
  H      -1.949357      2.068957     -2.451737
  H      -4.058101      2.816451     -1.386302
  H       2.701558      0.647588     -2.557864
  H       4.442026      2.111528     -1.579185
  H       1.667130      3.366466      1.469275
  H      -0.060116      1.876524      0.518585
  H       1.811287     -0.911766      0.355376
  H       2.252845     -3.160335      1.281208
  H      -0.555970     -4.868216     -1.504753
  H      -0.972903     -2.623634     -2.459167
>
43
-2047.67071377; 31P isotropic shielding: 267.402754 ppm
  F      -5.526660      3.049677      0.540668
  C      -5.331706      1.694600      0.643305
  C      -4.015916      1.274480      0.035488
  C      -2.825523      1.719910      0.626121
  C      -1.595667      1.356222      0.077787
  C      -1.536159      0.549985     -1.071371
  C      -2.737722      0.123270     -1.661565
  C      -3.971727      0.472633     -1.110156
  P       0.032382      0.012816     -1.886040
  C       1.272560      1.090553     -1.041508
  C       1.446555      2.385671     -1.562516
  C       2.357153      3.271847     -0.989369
  C       3.129228      2.862868      0.106259
  C       2.976932      1.572621      0.626346
  C       2.052190      0.694486      0.056339
  C       4.083591      3.832616      0.758623
  F       4.591026      4.740084     -0.129730
  F       5.146231      3.203801      1.345489
  F       3.461632      4.557763      1.748117
  C       0.336585     -1.616078     -1.069477
  C      -0.423773     -2.121279     -0.004482
  C      -0.140152     -3.376167      0.542127
  C       0.918401     -4.135568      0.034644
  C       1.686207     -3.643688     -1.031061
  C       1.387992     -2.399612     -1.581900
  C       1.217757     -5.507785      0.585917
  F       0.653006     -5.716332      1.811829
  F       2.564116     -5.723467      0.719482
  F       0.746116     -6.497771     -0.242225
  F      -5.389723      1.396421      1.981218
  F      -6.403946      1.092203      0.051654
  H      -2.861452      2.343718      1.516760
  H      -0.679314      1.700784      0.549608
  H      -2.708768     -0.488331     -2.562470
  H      -4.894102      0.131762     -1.572241
  H       0.864277      2.702531     -2.426929
  H       2.481059      4.270697     -1.400078
  H       3.578425      1.253594      1.474036
  H       1.941108     -0.302976      0.473253
  H      -1.242086     -1.536793      0.407189
  H      -0.734783     -3.757309      1.368192
  H       2.507527     -4.235443     -1.428516
  H       1.978121     -2.029715     -2.419518
>
43
-2047.67485982; 31P isotropic shielding: 266.872433 ppm
  F      -5.157595      1.796700      2.269174
  C      -5.311178      1.643752      0.915024
  C      -4.015576      1.254432      0.246136
  C      -3.280175      0.180963      0.766501
  C      -2.088603     -0.210020      0.155668
  C      -1.618292      0.458356     -0.987225
  C      -2.374302      1.522692     -1.507328
  C      -3.560512      1.927729     -0.892976
  P      -0.060622      0.023612     -1.880645
  C       1.156252      1.160014     -1.080630
  C       0.871613      1.971650      0.027121
  C       1.844773      2.826237      0.554022
  C       3.119861      2.868208     -0.017286
  C       3.419000      2.060981     -1.124805
  C       2.440297      1.223938     -1.654830
  C       4.178639      3.803799      0.512214
  F       5.386065      3.172574      0.665301
  F       3.850288      4.342203      1.722814
  F       4.397353      4.854450     -0.345533
  C       0.370731     -1.595077     -1.102634
  C      -0.242168     -2.741006     -1.641032
  C       0.022988     -4.006676     -1.120267
  C       0.930429     -4.146387     -0.061807
  C       1.556965     -3.016272      0.475996
  C       1.275451     -1.749448     -0.040661
  C       1.193109     -5.508937      0.531371
  F       2.456969     -5.619703      1.041274
  F       1.036896     -6.512806     -0.383756
  F       0.327949     -5.781976      1.564925
  F      -6.277943      0.684096      0.741005
  F      -5.822503      2.814481      0.434213
  H      -3.634792     -0.341146      1.652589
  H      -1.522653     -1.038198      0.573923
  H      -2.032257      2.040563     -2.402498
  H      -4.132783      2.756745     -1.300135
  H      -0.112115      1.940590      0.487813
  H       1.613400      3.451433      1.412333
  H       4.409857      2.095504     -1.572097
  H       2.673469      0.612029     -2.525385
  H      -0.931588     -2.641547     -2.478549
  H      -0.457767     -4.884331     -1.544803
  H       2.264068     -3.124693      1.294854
  H       1.766199     -0.880008      0.388612
>
43
-2047.67067796; 31P isotropic shielding: 267.096427 ppm
  F      -5.258504      2.574876      1.629548
  C      -5.354295      1.618388      0.660380
  C      -4.016840      1.262475      0.058886
  C      -3.980564      0.453029     -1.085933
  C      -2.754428      0.104089     -1.647554
  C      -1.546343      0.536675     -1.068881
  C      -1.597858      1.344647      0.076400
  C      -2.825143      1.709090      0.637638
  P       0.016557      0.011781     -1.902555
  C       1.259915      1.083220     -1.054036
  C       2.036091      0.682622      0.044581
  C       2.958646      1.558586      0.621401
  C       3.112272      2.851104      0.107217
  C       2.344313      3.264297     -0.989675
  C       1.435730      2.380266     -1.569485
  C       4.063308      3.819017      0.767211
  F       5.121904      3.188634      1.359502
  F       3.435685      4.543023      1.753987
  F       4.576564      4.727744     -0.116651
  C       0.332781     -1.624949     -1.106276
  C      -0.420875     -2.146683     -0.042462
  C      -0.125946     -3.403771      0.487943
  C       0.934272     -4.154044     -0.035599
  C       1.695026     -3.645796     -1.095716
  C       1.384566     -2.396228     -1.632135
  C       1.270717     -5.488544      0.582878
  F       2.041288     -6.267245     -0.232757
  F       0.148866     -6.211026      0.889938
  F       1.967831     -5.335666      1.758390
  F      -5.954137      0.524996      1.237238
  F      -6.230364      2.086505     -0.283984
  H      -4.907764      0.112888     -1.541723
  H      -2.732283     -0.508213     -2.548176
  H      -0.678808      1.695317      0.538266
  H      -2.853141      2.338635      1.522974
  H       1.923766     -0.316602      0.457008
  H       3.557087      1.236313      1.470016
  H       2.469530      4.264764     -1.396052
  H       0.856078      2.700453     -2.434428
  H      -1.242728     -1.572597      0.376772
  H      -0.719471     -3.801388      1.308053
  H       2.512762     -4.230860     -1.507994
  H       1.966238     -2.015627     -2.470856
>
43
-2047.67375348; 31P isotropic shielding: 266.927557 ppm
  F      -5.638822      2.985459      0.338417
  C      -5.391984      1.646001      0.461315
  C      -4.030847      1.263521     -0.065746
  C      -3.459836      1.986945     -1.121131
  C      -2.228210      1.593267     -1.642173
  C      -1.538535      0.488546     -1.110700
  C      -2.123426     -0.228628     -0.055453
  C      -3.363899      0.151523      0.461373
  P       0.086458      0.070804     -1.883464
  C       1.232734      1.191045     -0.965437
  C       2.548611      1.290182     -1.449770
  C       3.486089      2.107127     -0.817332
  C       3.109806      2.854622      0.304911
  C       1.797536      2.778375      0.788725
  C       0.868336      1.948596      0.159749
  C       4.090822      3.782995      0.977462
  F       5.386621      3.509270      0.644409
  F       4.002977      3.717977      2.343139
  F       3.861268      5.093826      0.635725
  C       0.457758     -1.560415     -1.100374
  C       1.251347     -1.727443      0.044392
  C       1.489320     -3.001470      0.566248
  C       0.931344     -4.125448     -0.051963
  C       0.136854     -3.973416     -1.196795
  C      -0.086311     -2.700955     -1.719356
  C       1.138718     -5.501466      0.531536
  F       0.064956     -5.888009      1.298607
  F       2.240500     -5.568262      1.336217
  F       1.287339     -6.456256     -0.437541
  F      -5.545278      1.327129      1.782393
  F      -6.395959      0.998026     -0.217806
  H      -3.978124      2.849081     -1.533215
  H      -1.795220      2.151807     -2.471102
  H      -1.610950     -1.086814      0.371137
  H      -3.806217     -0.408851      1.281412
  H       2.844321      0.721559     -2.330638
  H       4.502730      2.168010     -1.196333
  H       1.505918      3.356711      1.662597
  H      -0.142863      1.889087      0.553256
  H       1.688728     -0.862770      0.536427
  H       2.108531     -3.119914      1.451717
  H      -0.289257     -4.847099     -1.684141
  H      -0.688084     -2.590072     -2.620493
>
43
-2047.67196435; 31P isotropic shielding: 267.551212 ppm
  F      -5.462993      1.426594      1.896283
  C      -5.336910      1.705507      0.563760
  C      -3.998707      1.278802      0.011883
  C      -3.316033      0.198551      0.582461
  C      -2.098821     -0.222718      0.041836
  C      -1.554079      0.420583     -1.080356
  C      -2.259726      1.494346     -1.653518
  C      -3.467352      1.929197     -1.109996
  P       0.036195     -0.056086     -1.890508
  C       1.218707      1.123559     -1.101165
  C       0.916459      1.916106      0.017564
  C       1.866544      2.792088      0.546188
  C       3.137792      2.878900     -0.034082
  C       3.452582      2.095425     -1.151676
  C       2.494435      1.231974     -1.682527
  C       4.144853      3.863429      0.508596
  F       5.433456      3.479931      0.261398
  F       4.026132      4.033596      1.860690
  F       3.988650      5.106269     -0.057820
  C       0.436461     -1.632230     -1.014829
  C      -0.185797     -2.800458     -1.492421
  C       0.051572     -4.035020     -0.890952
  C       0.941283     -4.123069      0.188553
  C       1.580219     -2.972405      0.663181
  C       1.325774     -1.735304      0.065719
  C       1.162844     -5.450708      0.870700
  F       1.069649     -6.502741      0.001543
  F       0.225599     -5.670691      1.853206
  F       2.386975     -5.531364      1.472957
  F      -6.372252      1.062552     -0.072236
  F      -5.557339      3.046717      0.409315
  H      -3.727305     -0.305255      1.453677
  H      -1.573418     -1.055229      0.502333
  H      -1.858629      1.995378     -2.533714
  H      -3.998251      2.766568     -1.555997
  H      -0.063149      1.850280      0.483715
  H       1.623293      3.399145      1.414913
  H       4.438002      2.164397     -1.605340
  H       2.739917      0.635328     -2.560243
  H      -0.863447     -2.742177     -2.343325
  H      -0.438304     -4.929695     -1.267157
  H       2.274003     -3.040776      1.497464
  H       1.824215     -0.848899      0.448826
>
43
-2047.67188855; 31P isotropic shielding: 267.331418 ppm
  F      -6.172573      0.690242      1.085750
  C      -5.285247      1.724234      0.933748
  C      -4.022039      1.283036      0.236875
  C      -3.523539      1.983397     -0.867502
  C      -2.345090      1.557121     -1.481358
  C      -1.635737      0.446607     -0.991984
  C      -2.148511     -0.247502      0.116532
  C      -3.334702      0.163940      0.725030
  P      -0.085928     -0.013611     -1.886266
  C       1.139432      1.130613     -1.109462
  C       0.883051      1.910599      0.029493
  C       1.863162      2.761339      0.544051
  C       3.119231      2.834406     -0.070477
  C       3.388319      2.062837     -1.207986
  C       2.400090      1.225303     -1.724806
  C       4.157271      3.792429      0.460136
  F       5.430824      3.408865      0.144263
  F       4.098872      3.916734      1.821531
  F       3.987455      5.055128     -0.055841
  C       0.344054     -1.620238     -1.083002
  C       1.238611     -1.754216     -0.009315
  C       1.517344     -3.010861      0.531402
  C       0.894977     -4.151452      0.009818
  C       0.002471     -4.032913     -1.063235
  C      -0.260598     -2.776346     -1.607831
  C       1.235348     -5.510352      0.570064
  F       2.372111     -6.024111     -0.006936
  F       0.241751     -6.425450      0.360523
  F       1.468174     -5.469231      1.918187
  F      -5.938655      2.718842      0.265064
  F      -5.024002      2.197989      2.196957
  H      -4.059542      2.847089     -1.251145
  H      -1.971935      2.095066     -2.351972
  H      -1.621090     -1.112502      0.509616
  H      -3.724903     -0.381894      1.581399
  H      -0.084020      1.854484      0.522140
  H       1.655438      3.359181      1.428287
  H       4.361751      2.121602     -1.688022
  H       2.609961      0.638164     -2.618028
  H       1.719571     -0.875792      0.412607
  H       2.208898     -3.103015      1.365548
  H      -0.478957     -4.917689     -1.471675
  H      -0.945299     -2.691972     -2.450876
>
43
-2047.67527864; 31P isotropic shielding: 267.268932 ppm
  F      -6.109633      2.498882     -0.367400
  C      -5.379855      1.727137      0.491428
  C      -4.061996      1.288866     -0.099050
  C      -3.486991      1.998013     -1.160692
  C      -2.253345      1.595292     -1.672606
  C      -1.564608      0.500539     -1.121124
  C      -2.152058     -0.199982     -0.055301
  C      -3.393535      0.187972      0.451224
  P       0.061683      0.068394     -1.882888
  C       1.212370      1.179211     -0.959341
  C       2.547616      1.222812     -1.403781
  C       3.486010      2.032730     -0.768904
  C       3.095595      2.833408      0.314597
  C       1.768825      2.814182      0.754944
  C       0.835444      1.986592      0.123850
  C       4.112436      3.740553      0.962442
  F       5.312395      3.107249      1.155197
  F       3.702607      4.205293      2.179291
  F       4.376485      4.841984      0.184562
  C       0.415899     -1.566192     -1.098250
  C      -0.126812     -2.701869     -1.724566
  C       0.082682     -3.977996     -1.201483
  C       0.858093     -4.135521     -0.046281
  C       1.417258     -3.014408      0.579844
  C       1.192724     -1.739037      0.058783
  C       1.146482     -5.512309      0.500515
  F       1.152500     -5.531721      1.869398
  F       2.380289     -5.964879      0.098385
  F       0.233516     -6.441215      0.087783
  F      -5.195995      2.471204      1.632936
  F      -6.164562      0.662484      0.844692
  H      -4.008780      2.847216     -1.593944
  H      -1.820826      2.137101     -2.512798
  H      -1.641961     -1.053392      0.383669
  H      -3.843031     -0.365172      1.272703
  H       2.854071      0.614343     -2.253845
  H       4.517211      2.049208     -1.114206
  H       1.465944      3.433501      1.595155
  H      -0.189154      1.971586      0.485568
  H      -0.720047     -2.586149     -2.630798
  H      -0.348894     -4.847415     -1.690370
  H       2.017234     -3.137074      1.478674
  H       1.623712     -0.876718      0.560587
>
43
-2047.67216090; 31P isotropic shielding: 266.906931 ppm
  F      -5.643753      3.104233      0.124826
  C      -5.345079      1.833406      0.553204
  C      -4.032837      1.350540     -0.014383
  C      -2.836086      1.865403      0.500285
  C      -1.612842      1.454397     -0.031225
  C      -1.567233      0.531224     -1.088672
  C      -2.776844      0.035751     -1.606406
  C      -4.002573      0.432265     -1.070584
  P      -0.011532     -0.068070     -1.884042
  C       1.253755      1.027087     -1.101504
  C       1.502656      2.260073     -1.727983
  C       2.437251      3.155520     -1.204991
  C       3.150821      2.815848     -0.050368
  C       2.923081      1.583689      0.577102
  C       1.978919      0.698689      0.056272
  C       4.193842      3.743999      0.522575
  F       4.011802      3.943860      1.867109
  F       4.190793      4.973329     -0.069980
  F       5.459828      3.232226      0.375225
  C       0.275021     -1.659618     -0.990329
  C       1.290726     -2.494823     -1.488889
  C       1.578731     -3.715327     -0.878796
  C       0.836464     -4.126983      0.235557
  C      -0.188248     -3.313023      0.733043
  C      -0.462158     -2.085844      0.125916
  C       1.094584     -5.473577      0.866089
  F       2.373091     -5.910440      0.659436
  F       0.260476     -6.437941      0.352594
  F       0.886403     -5.459131      2.218618
  F      -5.322033      1.881964      1.922485
  F      -6.397195      1.039209      0.196510
  H      -2.860067      2.577925      1.321884
  H      -0.691872      1.854590      0.384332
  H      -2.760013     -0.668539     -2.437282
  H      -4.930238      0.035701     -1.474380
  H       0.960880      2.523224     -2.635648
  H       2.616030      4.108381     -1.695650
  H       3.477086      1.320853      1.475828
  H       1.806526     -0.250281      0.557308
  H       1.862654     -2.186236     -2.363184
  H       2.372373     -4.347476     -1.268689
  H      -0.762615     -3.631816      1.599684
  H      -1.252373     -1.458362      0.529306
>
43
-2047.67329663; 31P isotropic shielding: 267.284263 ppm
  F      -6.184425      0.615212      0.812753
  C      -5.403378      1.687153      0.473671
  C      -4.080809      1.261126     -0.115104
  C      -3.409258      0.158832      0.428420
  C      -2.164104     -0.219117     -0.076753
  C      -1.576023      0.492940     -1.134532
  C      -2.267599      1.589548     -1.678915
  C      -3.504950      1.982176     -1.168278
  P       0.054262      0.073262     -1.894812
  C       1.196714      1.186568     -0.963746
  C       2.527645      1.254036     -1.415670
  C       3.458767      2.073551     -0.780230
  C       3.062334      2.862200      0.308565
  C       1.739382      2.814204      0.761386
  C       0.814768      1.978757      0.129793
  C       4.076257      3.725096      1.018794
  F       4.732087      3.024426      2.003722
  F       3.504878      4.808825      1.625202
  F       5.039129      4.198126      0.170069
  C       0.414336     -1.563261     -1.117604
  C      -0.137460     -2.697085     -1.740627
  C       0.074181     -3.973903     -1.221858
  C       0.861861     -4.135588     -0.074732
  C       1.431664     -3.017572      0.545914
  C       1.203893     -1.740252      0.029534
  C       1.147482     -5.517729      0.459619
  F       2.308033     -6.032100     -0.067229
  F       0.153330     -6.407174      0.159827
  F       1.299561     -5.525761      1.819277
  F      -6.133080      2.463904     -0.380723
  F      -5.228620      2.420575      1.623509
  H      -3.859076     -0.403334      1.243560
  H      -1.651790     -1.073841      0.356963
  H      -1.834240      2.140688     -2.512577
  H      -4.029060      2.832769     -1.595955
  H       2.836765      0.661466     -2.275912
  H       4.484182      2.116444     -1.138843
  H       1.430414      3.428136      1.603768
  H      -0.208249      1.948346      0.495060
  H      -0.740614     -2.578397     -2.639928
  H      -0.366199     -4.841284     -1.706963
  H       2.041091     -3.143111      1.437676
  H       1.642216     -0.879958      0.528409
