30
-2518.81954137; 31P isotropic shielding: 321.549660 ppm
  C   -3.35432446757716      1.72424284964201      1.24360435554488
  N   -2.11005620628704      1.74654391529486      0.49324239720987
  C   -1.52083945897266      0.76687896857356     -0.04008994447659
  C   -2.03892390007539     -0.70999939479950     -0.08894509655835
  Cl  -0.90329795535633     -1.83917496514959     -0.92318048536436
  Cl  -3.61740627108554     -0.75111755969054     -1.00982486801674
  Cl  -2.29992065327512     -1.32658449008855      1.59106967549857
  N   -0.28515305047882      1.00246067020460     -0.73561804293962
  P   1.16269720608633      1.15391038279537      0.09633098822534
  C   2.45180703879087     -0.13700616096083      0.14486417085702
  C   2.20384346716323     -1.37023308269559      0.77635405268765
  C   3.18746412430955     -2.36084049512158      0.80145426230308
  C   4.43795820215540     -2.12879181659665      0.22013533040819
  C   4.69802777640791     -0.90097894256492     -0.39588378315221
  C   3.71037467178285      0.08571377909397     -0.44530462284578
  F   1.50701690787867      2.47130050394839      0.93270537908376
  F   1.84889349229179      1.87878858638376     -1.23117415278479
  F   0.42282640349077      0.54761784594063      1.45816393993996
  C   -0.47015953650259      1.30917871825465     -2.17674431394094
  H   -3.99756055417689      0.84955057282261      1.10012300345065
  H   -3.91181072025640      2.63382701029336      0.98752951550640
  H   -3.09192825039474      1.79790047371768      2.30893135025365
  H   1.24554488444896     -1.55693572913898      1.24590583021767
  H   2.97639357169509     -3.31344489689268      1.28417363616440
  H   5.20651335828771     -2.89954433177092      0.24978330454580
  H   5.67107528522594     -0.70865289618068     -0.84442735491631
  H   3.91989918144768      1.03021105056202     -0.93532451681760
  H   0.35863597642454      0.91251683861893     -2.76533318092608
  H   -1.39411966212617      0.82495709747456     -2.50846901984966
  H   -0.55707086132247      2.38950549803007     -2.34195180930783
