34
-961.07073993; 31P isotropic shielding: 285.889905 ppm
  C       4.083501     -1.286918      0.725725
  C       2.973004     -2.023113      0.605194
  C       1.579305     -1.548515      0.898960
  P       0.487009     -1.739310     -0.621311
  C      -1.154941     -1.187086      0.011003
  C      -1.353099     -0.419045      1.170291
  C      -2.636659     -0.011592      1.544989
  C      -3.741982     -0.351094      0.758398
  C      -3.559062     -1.113555     -0.400827
  C      -2.277004     -1.536028     -0.762432
  C       0.993848     -0.201454     -1.630619
  C       0.783635      1.122801     -0.957692
  C      -0.459847      1.775985     -1.026447
  C      -0.680300      2.974596     -0.345116
  C       0.339388      3.547031      0.423513
  C       1.585640      2.915239      0.491676
  C       1.803715      1.716322     -0.193989
  H       5.064356     -1.695857      0.489475
  H       4.053468     -0.256502      1.079468
  H       3.058939     -3.053737      0.250954
  H       1.112625     -2.192497      1.660550
  H       1.585580     -0.520364      1.281574
  H      -0.505700     -0.114732      1.778735
  H      -2.770858      0.585125      2.446149
  H      -4.740481     -0.027882      1.048673
  H      -4.414744     -1.388614     -1.015900
  H      -2.141350     -2.145875     -1.655951
  H       2.049161     -0.362878     -1.886054
  H       0.415524     -0.273089     -2.560067
  H      -1.264203      1.334085     -1.611888
  H      -1.652289      3.461135     -0.411363
  H       0.167532      4.480751      0.956476
  H       2.391897      3.359106      1.074274
  H       2.781195      1.239762     -0.153024
>
34
-961.07397099; 31P isotropic shielding: 283.891261 ppm
  C       4.091177     -1.291787      0.621002
  C       2.976758     -2.023978      0.514409
  C       1.590397     -1.549563      0.841512
  P       0.465726     -1.723896     -0.657145
  C      -1.163121     -1.182298      0.016720
  C      -2.299219     -1.507381     -0.746760
  C      -3.573267     -1.089326     -0.353608
  C      -3.733989     -0.356108      0.827680
  C      -2.614745     -0.041606      1.604740
  C      -1.339133     -0.444208      1.198703
  C       0.946916     -0.171689     -1.657047
  C       0.763170      1.142376     -0.956765
  C       1.811423      1.722924     -0.221837
  C       1.620749      2.911623      0.489217
  C       0.374097      3.546124      0.476063
  C      -0.673919      2.986850     -0.263617
  C      -0.480655      1.798518     -0.970699
  H       5.066288     -1.700047      0.361214
  H       4.070644     -0.265302      0.986449
  H       3.052515     -3.050877      0.147426
  H       1.138998     -2.199123      1.607482
  H       1.606007     -0.524416      1.231739
  H      -2.180420     -2.094735     -1.657534
  H      -4.440017     -1.345002     -0.961413
  H      -4.726179     -0.036627      1.142485
  H      -2.731955      0.531775      2.523190
  H      -0.480592     -0.159818      1.800982
  H       1.993017     -0.332499     -1.948230
  H       0.339800     -0.226598     -2.569173
  H       2.788607      1.244060     -0.222797
  H       2.448471      3.345411      1.048762
  H       0.223588      4.471952      1.028788
  H      -1.646642      3.475712     -0.287364
  H      -1.306296      1.367459     -1.533974
>
34
-961.07397732; 31P isotropic shielding: 283.998651 ppm
  C       2.391190     -1.304941      1.639108
  C       1.411037     -1.759146      0.847957
  C       1.186489     -1.347564     -0.570538
  P      -0.388066     -0.326278     -0.877257
  C      -1.620415     -1.367505      0.024162
  C      -2.092247     -1.116468      1.323534
  C      -3.041128     -1.958369      1.914862
  C      -3.526080     -3.071939      1.222440
  C      -3.064923     -3.333864     -0.073282
  C      -2.131509     -2.482157     -0.668198
  C      -0.108468      1.098554      0.314983
  C       0.944164      2.040623     -0.223351
  C       0.741473      2.738091     -1.427283
  C       1.721571      3.596321     -1.931895
  C       2.928285      3.770327     -1.243889
  C       3.141742      3.082101     -0.045569
  C       2.157255      2.224833      0.457714
  H       2.484294     -1.633091      2.673184
  H       3.142013     -0.603929      1.275165
  H       0.685021     -2.463831      1.257852
  H       2.020071     -0.747429     -0.958784
  H       1.076596     -2.223880     -1.224931
  H      -1.716835     -0.267204      1.888851
  H      -3.396432     -1.745238      2.922251
  H      -4.261767     -3.727628      1.685203
  H      -3.441919     -4.194228     -0.624403
  H      -1.797794     -2.679304     -1.687417
  H      -1.075870      1.611664      0.408783
  H       0.180557      0.732524      1.307498
  H      -0.190879      2.600856     -1.973537
  H       1.543822      4.130092     -2.864378
  H       3.692976      4.437850     -1.637528
  H       4.074672      3.213020      0.501004
  H       2.325805      1.695936      1.393988
>
34
-961.07307251; 31P isotropic shielding: 280.981834 ppm
  C       2.062584     -2.298800      2.377403
  C       2.213732     -2.372524      1.050927
  C       2.080598     -1.217417      0.102271
  P       0.654405     -1.494037     -1.095161
  C      -0.826427     -1.180672     -0.043135
  C      -2.043600     -1.720358     -0.496029
  C      -3.234952     -1.491836      0.198740
  C      -3.221951     -0.733899      1.374763
  C      -2.015330     -0.203815      1.843792
  C      -0.829436     -0.420062      1.137522
  C       0.723052      0.135314     -2.087496
  C       0.626152      1.404060     -1.292467
  C      -0.626643      1.962743     -0.983655
  C      -0.726752      3.108014     -0.190727
  C       0.426220      3.718720      0.314437
  C       1.680592      3.178742      0.009395
  C       1.777168      2.034394     -0.787527
  H       2.155749     -3.179312      3.010497
  H       1.839789     -1.356175      2.877219
  H       2.426139     -3.342357      0.594028
  H       1.992944     -0.264409      0.637167
  H       2.970298     -1.150570     -0.543694
  H      -2.053838     -2.327915     -1.401128
  H      -4.168494     -1.913812     -0.170684
  H      -4.145755     -0.561664      1.924981
  H      -1.998360      0.389470      2.756951
  H       0.090629      0.023041      1.506463
  H       1.662282      0.085759     -2.654978
  H      -0.098320      0.056691     -2.810561
  H      -1.530670      1.487515     -1.360497
  H      -1.707956      3.522200      0.036104
  H       0.349170      4.611383      0.932906
  H       2.585702      3.652456      0.386963
  H       2.758683      1.627431     -1.028391
>
34
-961.07339952; 31P isotropic shielding: 286.151274 ppm
  C       2.990705     -3.126362      1.507158
  C       2.070960     -2.162068      1.392434
  C       2.068622     -1.093843      0.339061
  P       0.763414     -1.428672     -0.978280
  C      -0.810149     -1.165551     -0.048223
  C      -0.930927     -0.405474      1.127150
  C      -2.175270     -0.226754      1.737419
  C      -3.323752     -0.792829      1.174235
  C      -3.219691     -1.549040      0.001590
  C      -1.970587     -1.740728     -0.595865
  C       0.842053      0.206708     -1.965836
  C       0.599797      1.468668     -1.192991
  C       1.660617      2.162242     -0.584017
  C       1.425123      3.300600      0.192605
  C       0.119682      3.770793      0.372452
  C      -0.944193      3.097036     -0.237504
  C      -0.705644      1.958340     -1.009560
  H       2.925873     -3.885209      2.284838
  H       3.841226     -3.191423      0.827370
  H       1.231830     -2.146294      2.090915
  H       1.918670     -0.099584      0.781259
  H       3.029374     -1.077688     -0.194281
  H      -0.057818      0.070557      1.565626
  H      -2.249394      0.366380      2.647788
  H      -4.293389     -0.649477      1.648519
  H      -4.107678     -1.998473     -0.440542
  H      -1.889891     -2.346824     -1.498386
  H       1.833763      0.206971     -2.438385
  H       0.102157      0.082033     -2.766545
  H       2.681822      1.811339     -0.729033
  H       2.262327      3.823925      0.652332
  H      -0.065445      4.658455      0.974956
  H      -1.963808      3.456985     -0.108854
  H      -1.541580      1.433362     -1.468607
>
34
-961.07317419; 31P isotropic shielding: 277.516210 ppm
  C       3.909516     -2.531775      1.184021
  C       2.914058     -2.816374      0.336681
  C       1.457511     -2.581461      0.610539
  P       0.805441     -1.206711     -0.508344
  C      -0.964793     -1.082991      0.003838
  C      -1.497221     -1.597731      1.197836
  C      -2.844862     -1.406915      1.519779
  C      -3.679498     -0.687040      0.657750
  C      -3.161206     -0.167940     -0.533066
  C      -1.818565     -0.373519     -0.859977
  C       1.484513      0.280876      0.454229
  C       0.896269      1.562823     -0.068075
  C      -0.192470      2.167145      0.580479
  C      -0.786261      3.320899      0.061290
  C      -0.302777      3.888551     -1.121941
  C       0.780312      3.293621     -1.779748
  C       1.371525      2.140430     -1.257558
  H       4.950828     -2.706811      0.919755
  H       3.715440     -2.119662      2.174964
  H       3.154612     -3.221925     -0.649179
  H       0.867094     -3.477739      0.369471
  H       1.297409     -2.338611      1.669759
  H      -0.864940     -2.149331      1.890291
  H      -3.241797     -1.817782      2.447299
  H      -4.727706     -0.536104      0.911092
  H      -3.802455      0.394402     -1.210039
  H      -1.422291      0.028919     -1.791044
  H       1.260151      0.148761      1.520697
  H       2.573910      0.254127      0.325895
  H      -0.583300      1.720733      1.493673
  H      -1.629730      3.773957      0.580157
  H      -0.764143      4.787321     -1.527904
  H       1.164422      3.728990     -2.701219
  H       2.207804      1.676268     -1.779706
>
34
-961.07316627; 31P isotropic shielding: 282.680706 ppm
  C       3.844357     -2.567184      0.975909
  C       3.124979     -1.500909      0.609455
  C       1.675815     -1.280164      0.929115
  P       0.583521     -1.647272     -0.562791
  C      -1.090644     -1.180160      0.060111
  C      -2.186010     -1.612770     -0.710001
  C      -3.493808     -1.269600     -0.357977
  C      -3.730726     -0.504990      0.790205
  C      -2.652605     -0.085382      1.575376
  C      -1.343699     -0.413776      1.209590
  C       0.943883     -0.126586     -1.661034
  C       0.719745      1.210618     -1.019074
  C       1.754709      1.872527     -0.335339
  C       1.525696      3.086835      0.318745
  C       0.252325      3.665533      0.300175
  C      -0.784789      3.022811     -0.384879
  C      -0.552883      1.809299     -1.035271
  H       4.891150     -2.670924      0.696313
  H       3.411409     -3.372975      1.569642
  H       3.608792     -0.725690      0.010719
  H       1.343853     -1.966758      1.719271
  H       1.513109     -0.250890      1.275710
  H      -2.009353     -2.226281     -1.593961
  H      -4.327291     -1.608467     -0.971631
  H      -4.749148     -0.243950      1.073499
  H      -2.828165      0.511162      2.469494
  H      -0.521939     -0.050242      1.820568
  H       1.980367     -0.247036     -2.001749
  H       0.297893     -0.259825     -2.537598
  H       2.754075      1.439468     -0.326444
  H       2.344077      3.583159      0.838375
  H       0.072259      4.611703      0.807660
  H      -1.779071      3.466044     -0.410634
  H      -1.369180      1.313472     -1.557149
>
34
-961.07294219; 31P isotropic shielding: 273.267751 ppm
  C       1.660483     -3.176171      1.606448
  C       2.353391     -2.050020      1.414168
  C       2.131167     -1.013211      0.341430
  P       0.850624     -1.428219     -0.956411
  C      -0.743849     -1.185634     -0.062292
  C      -0.871802     -0.607871      1.210034
  C      -2.132455     -0.421184      1.784559
  C      -3.286788     -0.799731      1.091954
  C      -3.173227     -1.382891     -0.175498
  C      -1.910844     -1.583894     -0.739378
  C       0.886312      0.193119     -1.963775
  C       0.656942      1.459295     -1.189978
  C      -0.646753      1.912809     -0.920761
  C      -0.863773      3.056034     -0.148637
  C       0.219502      3.772371      0.372138
  C       1.522513      3.338679      0.105137
  C       1.736336      2.193962     -0.668427
  H       1.908760     -3.854278      2.421123
  H       0.828314     -3.467584      0.967647
  H       3.176094     -1.821969      2.098517
  H       1.926932     -0.035507      0.804175
  H       3.071558     -0.871680     -0.217187
  H       0.010227     -0.292556      1.760038
  H      -2.212554      0.030503      2.772307
  H      -4.268065     -0.649608      1.539295
  H      -4.065575     -1.690178     -0.718954
  H      -1.826738     -2.053741     -1.719860
  H       1.860948      0.202105     -2.469980
  H       0.121580      0.055150     -2.738175
  H      -1.497269      1.359686     -1.313961
  H      -1.882324      3.386982      0.048078
  H       0.050467      4.664197      0.973233
  H       2.374060      3.894708      0.494848
  H       2.755004      1.869428     -0.879055
>
34
-961.07145004; 31P isotropic shielding: 294.755433 ppm
  C       3.695057     -2.081810     -0.001853
  C       3.034020     -1.446981      0.971340
  C       1.542503     -1.241446      1.084693
  P       0.562759     -1.677227     -0.449605
  C      -1.150105     -1.221050      0.061766
  C      -1.489522     -0.484445      1.208572
  C      -2.822197     -0.159193      1.481443
  C      -3.838010     -0.551738      0.605138
  C      -3.515057     -1.286646     -0.541957
  C      -2.185587     -1.626769     -0.801317
  C       0.964804     -0.184640     -1.568151
  C       0.804975      1.163249     -0.930524
  C      -0.442325      1.812441     -0.913539
  C      -0.603349      3.039109     -0.265112
  C       0.480349      3.642267      0.382986
  C       1.728463      3.009845      0.369720
  C       1.887645      1.782892     -0.280987
  H       4.779038     -2.178377      0.026751
  H       3.184231     -2.538264     -0.849032
  H       3.611253     -1.019551      1.796563
  H       1.147093     -1.874661      1.895808
  H       1.350986     -0.203241      1.391234
  H      -0.717248     -0.141262      1.891173
  H      -3.063783      0.414191      2.375385
  H      -4.874430     -0.292879      0.815920
  H      -4.299814     -1.604484     -1.226996
  H      -1.943187     -2.217217     -1.685429
  H       1.993173     -0.344100     -1.914239
  H       0.303179     -0.300379     -2.435574
  H      -1.293217      1.349376     -1.409645
  H      -1.578052      3.524860     -0.265575
  H       0.355443      4.599252      0.886990
  H       2.581412      3.474942      0.862281
  H       2.862801      1.297235     -0.291926
>
34
-961.07184885; 31P isotropic shielding: 298.592021 ppm
  C       2.961683     -2.437876      1.582699
  C       1.792430     -2.746224      1.006161
  C       1.507404     -2.671595     -0.458192
  P       0.535917     -1.146824     -1.063017
  C      -0.869141     -1.088010      0.137255
  C      -2.139140     -1.425803     -0.360958
  C      -3.263903     -1.423143      0.470606
  C      -3.135163     -1.068656      1.816762
  C      -1.877696     -0.721459      2.324833
  C      -0.755755     -0.732335      1.492580
  C       1.658882      0.224295     -0.427862
  C       1.025229      1.576824     -0.641120
  C       0.874462      2.099536     -1.937311
  C       0.258701      3.335919     -2.145218
  C      -0.224456      4.073284     -1.057944
  C      -0.082148      3.563415      0.236185
  C       0.536500      2.325998      0.440162
  H       3.096169     -2.489100      2.661795
  H       3.829131     -2.136041      0.994449
  H       0.954777     -3.043720      1.639165
  H       2.436005     -2.663635     -1.046688
  H       0.913870     -3.533378     -0.792569
  H      -2.245155     -1.684644     -1.414221
  H      -4.239129     -1.688479      0.065135
  H      -4.009194     -1.056955      2.466068
  H      -1.771907     -0.441706      3.372278
  H       0.213518     -0.469942      1.907518
  H       1.928020      0.067288      0.623222
  H       2.583441      0.131604     -1.015597
  H       1.240030      1.527136     -2.789212
  H       0.154896      3.724660     -3.157237
  H      -0.705385      5.036679     -1.218677
  H      -0.452602      4.129003      1.089933
  H       0.642411      1.937484      1.451319
>
34
-961.07212392; 31P isotropic shielding: 283.286017 ppm
  C       3.703701     -2.062067      0.050161
  C       3.025356     -1.434115      1.015849
  C       1.531381     -1.235993      1.107913
  P       0.575256     -1.677759     -0.439330
  C      -1.146837     -1.229098      0.047408
  C      -2.167578     -1.636091     -0.832514
  C      -3.502070     -1.301748     -0.592348
  C      -3.845118     -0.571574      0.551959
  C      -2.844225     -0.177946      1.444765
  C      -1.506329     -0.497389      1.191190
  C       0.984602     -0.184218     -1.553915
  C       0.813273      1.163338     -0.918406
  C      -0.436473      1.808032     -0.914864
  C      -0.608597      3.034535     -0.268959
  C       0.466175      3.641992      0.389895
  C       1.716582      3.013996      0.390111
  C       1.886906      1.787176     -0.258027
  H       4.787599     -2.153649      0.094250
  H       3.207616     -2.517922     -0.806062
  H       3.588208     -1.007063      1.851146
  H       1.128066     -1.870707      1.913965
  H       1.330410     -0.198534      1.411033
  H      -1.909345     -2.222685     -1.714712
  H      -4.275143     -1.620331     -1.290210
  H      -4.885575     -0.317155      0.747743
  H      -3.101606      0.391793      2.336631
  H      -0.745620     -0.153681      1.886360
  H       2.017094     -0.340062     -1.889139
  H       0.332525     -0.302301     -2.428210
  H      -1.280380      1.341655     -1.419667
  H      -1.584946      3.516861     -0.279868
  H       0.332657      4.598881      0.891877
  H       2.562688      3.482429      0.891251
  H       2.863747      1.304799     -0.258177
>
34
-961.07185018; 31P isotropic shielding: 298.508451 ppm
  C       2.778141     -2.308795      2.028370
  C       1.706181     -2.657490      1.304497
  C       1.622137     -2.614366     -0.186213
  P       0.701329     -1.125943     -0.943870
  C      -0.861191     -1.111103      0.045349
  C      -2.032280     -1.519797     -0.615906
  C      -3.260961     -1.557948      0.051648
  C      -3.338284     -1.173116      1.393510
  C      -2.181776     -0.754876      2.062214
  C      -0.955248     -0.725578      1.394079
  C       1.673302      0.286673     -0.169854
  C       1.047237      1.616297     -0.512524
  C       0.374977      2.371937      0.460011
  C      -0.232869      3.588116      0.132186
  C      -0.179900      4.069269     -1.179485
  C       0.487367      3.324859     -2.159425
  C       1.091858      2.110065     -1.828163
  H       2.764928     -2.337589      3.116540
  H       3.710387     -1.994086      1.557693
  H       0.796974     -2.965445      1.823438
  H       2.621498     -2.590162     -0.643698
  H       1.100346     -3.496579     -0.581385
  H      -1.977989     -1.802499     -1.666946
  H      -4.156725     -1.878444     -0.478207
  H      -4.293893     -1.192929      1.915128
  H      -2.236247     -0.450833      3.106807
  H      -0.066821     -0.407733      1.932844
  H       1.775545      0.157351      0.913809
  H       2.681768      0.210119     -0.601168
  H       0.327503      2.005532      1.483771
  H      -0.747760      4.159518      0.903143
  H      -0.652314      5.015803     -1.436690
  H       0.536424      3.691300     -3.183808
  H       1.602054      1.531771     -2.597794
>
34
-961.07214800; 31P isotropic shielding: 283.512777 ppm
  C       0.424133     -1.492966      2.781234
  C       1.015452     -0.633668      1.941456
  C       1.433939     -0.947798      0.541770
  P       0.136856     -0.580866     -0.806085
  C      -1.264112     -1.591426     -0.160690
  C      -1.270328     -2.951035     -0.526979
  C      -2.266605     -3.816120     -0.069527
  C      -3.294971     -3.329182      0.746317
  C      -3.311089     -1.978087      1.103856
  C      -2.299274     -1.118391      0.661808
  C      -0.366069      1.174890     -0.345837
  C       0.774493      2.128507     -0.611562
  C       1.435813      2.771549      0.446233
  C       2.514752      3.628905      0.206164
  C       2.952304      3.856570     -1.102204
  C       2.299800      3.223242     -2.166556
  C       1.223797      2.366289     -1.922535
  H       0.112241     -1.188662      3.778710
  H       0.229786     -2.528012      2.501064
  H       1.177127      0.393995      2.270709
  H       2.327376     -0.381313      0.248816
  H       1.660585     -2.014501      0.418011
  H      -0.486028     -3.331672     -1.182030
  H      -2.248679     -4.865714     -0.359488
  H      -4.079951     -3.997936      1.095666
  H      -4.108009     -1.591293      1.737704
  H      -2.324300     -0.076731      0.970263
  H      -1.233398      1.414819     -0.976283
  H      -0.684762      1.242541      0.700241
  H       1.095507      2.606850      1.467883
  H       3.011097      4.120195      1.041747
  H       3.791456      4.523570     -1.292051
  H       2.630368      3.396944     -3.189526
  H       0.726893      1.870010     -2.755099
>
34
-961.07229889; 31P isotropic shielding: 265.318170 ppm
  C       1.212672     -4.427278      0.360629
  C       1.799676     -3.506714     -0.411548
  C       2.205453     -2.135746      0.040185
  P       1.151521     -0.810177     -0.798154
  C      -0.461409     -0.977756      0.087221
  C      -1.621107     -0.653892     -0.634425
  C      -2.877116     -0.667947     -0.019044
  C      -2.990403     -1.019622      1.328847
  C      -1.842161     -1.352699      2.057815
  C      -0.589075     -1.327812      1.441226
  C       1.819942      0.708326      0.123453
  C       0.938530      1.900992     -0.136328
  C       1.035749      2.616550     -1.341447
  C       0.173216      3.681674     -1.613722
  C      -0.808854      4.046014     -0.685436
  C      -0.917967      3.337591      0.515816
  C      -0.052357      2.274268      0.785774
  H       0.917730     -5.397687     -0.034214
  H       1.004373     -4.242467      1.414449
  H       1.975451     -3.730850     -1.466548
  H       2.167309     -2.046904      1.133992
  H       3.236801     -1.913445     -0.274417
  H      -1.534566     -0.378199     -1.684461
  H      -3.764767     -0.405483     -0.592507
  H      -3.966746     -1.036633      1.810668
  H      -1.924321     -1.629165      3.108265
  H       0.292731     -1.575230      2.028896
  H       1.881438      0.487731      1.196988
  H       2.838386      0.876954     -0.251980
  H       1.791100      2.330173     -2.072809
  H       0.267167      4.227555     -2.551396
  H      -1.482074      4.875179     -0.896554
  H      -1.680183      3.610979      1.243877
  H      -0.151738      1.718420      1.716489
>
34
-961.07308335; 31P isotropic shielding: 276.193367 ppm
  C       1.150678     -4.443836      0.602253
  C       1.853089     -3.502753     -0.037516
  C       2.142865     -2.132107      0.495990
  P       1.288108     -0.801353     -0.537265
  C      -0.479965     -0.984264     -0.035984
  C      -1.448854     -0.608650     -0.979967
  C      -2.809770     -0.627019     -0.658316
  C      -3.221410     -1.036166      0.613083
  C      -2.265467     -1.421672      1.560896
  C      -0.906666     -1.391116      1.238399
  C       1.725479      0.705559      0.531192
  C       0.920685      1.901397      0.097217
  C      -0.270729      2.241305      0.758121
  C      -1.056102      3.308529      0.314763
  C      -0.664166      4.054573     -0.801708
  C       0.519942      3.724072     -1.470314
  C       1.301989      2.654861     -1.025444
  H       0.954356     -5.413903      0.149340
  H       0.746626     -4.277405      1.600905
  H       2.227981     -3.711464     -1.042679
  H       1.874676     -2.051618      1.558007
  H       3.216301     -1.902068      0.409273
  H      -1.130306     -0.288005     -1.970909
  H      -3.546123     -0.322966     -1.400697
  H      -4.280439     -1.057473      0.865698
  H      -2.579879     -1.743305      2.553077
  H      -0.178988     -1.679096      1.994376
  H       1.543441      0.467064      1.587163
  H       2.801812      0.879365      0.397729
  H      -0.589551      1.657300      1.619794
  H      -1.977006      3.556068      0.840676
  H      -1.274784      4.886868     -1.147975
  H       0.834901      4.298939     -2.340089
  H       2.217574      2.395736     -1.556788
>
34
-961.07305506; 31P isotropic shielding: 276.378479 ppm
  C       2.941105     -2.590047      1.268558
  C       1.733503     -2.826681      0.739098
  C       1.373129     -2.645864     -0.699372
  P       0.418342     -1.055437     -1.142267
  C      -0.917702     -1.049539      0.134758
  C      -0.727435     -0.774614      1.500159
  C      -1.803570     -0.800787      2.390813
  C      -3.090747     -1.105183      1.932350
  C      -3.295868     -1.379329      0.576880
  C      -2.217226     -1.344390     -0.313048
  C       1.616280      0.234314     -0.475549
  C       1.022395      1.618294     -0.571448
  C       0.820688      2.225174     -1.823534
  C       0.242218      3.492693     -1.921831
  C      -0.151675      4.177985     -0.766412
  C       0.042153      3.584549      0.484594
  C       0.623031      2.315753      0.578699
  H       3.131199     -2.716164      2.333025
  H       3.784747     -2.273301      0.654100
  H       0.921802     -3.142019      1.396817
  H       2.268863     -2.623105     -1.336309
  H       0.735198     -3.465823     -1.056092
  H       0.265589     -0.546778      1.877599
  H      -1.638283     -0.583391      3.445324
  H      -3.928496     -1.122871      2.627709
  H      -4.294774     -1.610679      0.210104
  H      -2.382475     -1.539661     -1.372346
  H       1.928394      0.000592      0.548907
  H       2.507874      0.149624     -1.113384
  H       1.117325      1.693814     -2.727216
  H       0.097934      3.946479     -2.901261
  H      -0.603828      5.165488     -0.841561
  H      -0.258624      4.109206      1.390286
  H       0.769533      1.862997      1.557648
>
34
-961.07217027; 31P isotropic shielding: 283.556086 ppm
  C       2.974587     -2.580603      1.189111
  C       1.741724     -2.814411      0.720161
  C       1.318517     -2.662241     -0.704341
  P       0.359698     -1.071823     -1.138407
  C      -0.923223     -1.036292      0.191761
  C      -2.237920     -1.350989     -0.193998
  C      -3.278725     -1.368331      0.740163
  C      -3.020281     -1.055680      2.078134
  C      -1.717683     -0.730866      2.474682
  C      -0.679150     -0.722874      1.540046
  C       1.592729      0.219491     -0.543766
  C       1.008727      1.607583     -0.641177
  C       0.751437      2.189632     -1.894810
  C       0.183049      3.461801     -1.992236
  C      -0.144548      4.176885     -0.834278
  C       0.105154      3.608462      0.418445
  C       0.675590      2.334953      0.511556
  H       3.211339     -2.684633      2.246588
  H       3.792901     -2.288374      0.529873
  H       0.956996     -3.104324      1.420941
  H       2.183811     -2.665872     -1.382399
  H       0.655284     -3.482078     -1.011967
  H      -2.445212     -1.575988     -1.239971
  H      -4.290153     -1.615660      0.421221
  H      -3.828752     -1.059225      2.807532
  H      -1.510797     -0.483547      3.515163
  H       0.326919     -0.479506      1.870335
  H       1.943063      0.001170      0.471734
  H       2.458455      0.114339     -1.213462
  H       0.996268      1.635324     -2.800220
  H      -0.005166      3.895928     -2.973131
  H      -0.588617      5.168101     -0.908860
  H      -0.143690      4.156397      1.326116
  H       0.866665      1.901953      1.491761
>
34
-961.07219468; 31P isotropic shielding: 283.944661 ppm
  C       2.561694     -4.315591      0.243882
  C       1.727719     -3.410250      0.767454
  C       2.067072     -1.971646      1.020739
  P       1.277358     -0.828626     -0.260916
  C      -0.524355     -0.986962      0.125030
  C      -1.043383     -1.304132      1.391284
  C      -2.422899     -1.321467      1.614259
  C      -3.306770     -1.010955      0.573838
  C      -2.802899     -0.691460     -0.690311
  C      -1.422547     -0.687630     -0.912289
  C       1.587218      0.833743      0.608461
  C       0.791662      1.923392     -0.057931
  C      -0.447555      2.327632      0.464470
  C      -1.223165      3.286815     -0.191920
  C      -0.773315      3.857290     -1.387258
  C       0.458856      3.460746     -1.919492
  C       1.231306      2.500320     -1.261236
  H       2.245829     -5.340793      0.059397
  H       3.589451     -4.062680     -0.019553
  H       0.703942     -3.707455      1.004392
  H       1.765113     -1.663805      2.032839
  H       3.150251     -1.807658      0.935467
  H      -0.373783     -1.532165      2.218747
  H      -2.808898     -1.573325      2.601317
  H      -4.381456     -1.021224      0.748988
  H      -3.483158     -0.446390     -1.504499
  H      -1.033028     -0.438426     -1.898343
  H       1.324399      0.742943      1.670426
  H       2.666384      1.025552      0.535764
  H      -0.810254      1.876637      1.386690
  H      -2.181586      3.586031      0.229739
  H      -1.376454      4.605077     -1.899604
  H       0.818224      3.899712     -2.849186
  H       2.184627      2.187251     -1.686345
>
34
-961.07257998; 31P isotropic shielding: 268.510767 ppm
  C       3.276302     -0.185088      1.104021
  C       2.415568     -0.949084      0.426067
  C       0.968079     -1.152118      0.777777
  P      -0.175104     -0.758236     -0.675393
  C      -1.774014     -1.470872     -0.068574
  C      -2.211733     -1.387653      1.265505
  C      -3.433387     -1.943335      1.653761
  C      -4.244483     -2.586052      0.710314
  C      -3.824446     -2.672801     -0.620261
  C      -2.595810     -2.123113     -1.003077
  C      -0.529611      1.074279     -0.351107
  C       0.727162      1.903425     -0.399709
  C       1.195362      2.557529      0.748759
  C       2.396931      3.271361      0.729957
  C       3.151571      3.342529     -0.444800
  C       2.687495      2.705765     -1.601658
  C       1.486724      1.994354     -1.578650
  H       4.314020     -0.083307      0.793082
  H       2.971165      0.378395      1.984493
  H       2.762238     -1.481894     -0.462802
  H       0.780788     -2.216629      0.988425
  H       0.697869     -0.583617      1.678194
  H      -1.597472     -0.886187      2.011698
  H      -3.755211     -1.873945      2.692086
  H      -5.196979     -3.017896      1.013306
  H      -4.449157     -3.172589     -1.359095
  H      -2.264615     -2.202335     -2.038159
  H      -1.242106      1.378066     -1.130770
  H      -1.032511      1.186864      0.617646
  H       0.616818      2.495969      1.670233
  H       2.746058      3.768077      1.634097
  H       4.090320      3.893617     -0.461314
  H       3.266073      2.760166     -2.522685
  H       1.139597      1.487156     -2.477969
>
34
-961.07052799; 31P isotropic shielding: 282.974330 ppm
  C       1.195441     -4.043239     -0.611400
  C       1.868658     -3.591423      0.450451
  C       2.003847     -2.156139      0.894044
  P       1.346013     -0.846807     -0.275426
  C      -0.485164     -0.994515     -0.086198
  C      -1.271113     -0.317484     -1.035404
  C      -2.665277     -0.314426     -0.941617
  C      -3.297624     -1.006705      0.095927
  C      -2.527046     -1.698446      1.037556
  C      -1.131859     -1.689016      0.948655
  C       1.623814      0.650425      0.865040
  C       0.908719      1.865536      0.340737
  C      -0.343500      2.235741      0.856038
  C      -1.044173      3.321936      0.324898
  C      -0.504628      4.055400     -0.736774
  C       0.741941      3.694194     -1.261367
  C       1.439629      2.607598     -0.727524
  H       1.161500     -5.106347     -0.843280
  H       0.656585     -3.380780     -1.286764
  H       2.383438     -4.315440      1.089178
  H       1.569610     -2.034275      1.900543
  H       3.073800     -1.918466      1.015907
  H      -0.783108      0.220356     -1.846971
  H      -3.255932      0.226382     -1.679338
  H      -4.384125     -1.013554      0.167887
  H      -3.013646     -2.246955      1.843118
  H      -0.552460     -2.233949      1.690212
  H       1.283831      0.401179      1.878495
  H       2.709879      0.812653      0.895467
  H      -0.777100      1.657179      1.670208
  H      -2.014792      3.592074      0.737971
  H      -1.049183      4.902028     -1.151502
  H       1.170909      4.259398     -2.087544
  H       2.404217      2.323387     -1.147325
