39
-4873.16666966; 31P isotropic shielding: 209.103896 ppm
  Cl      0.667702      0.496769      2.784859
  Se     -2.062808     -0.205647      1.082631
  N      -0.316438      0.176042      1.129165
  P       0.728292      0.253005     -0.152204
  C      -0.265941      0.180443     -1.647058
  C      -0.647087     -1.083476     -2.136286
  C      -1.503115     -1.164237     -3.232381
  C      -1.977895      0.004536     -3.841362
  C      -1.595535      1.258695     -3.355173
  C      -0.740229      1.353229     -2.256520
  C       1.618366      1.815728     -0.044303
  C       2.998718      1.908825     -0.276136
  C       3.632392      3.150610     -0.185916
  C       2.894104      4.293149      0.139582
  C       1.519401      4.195248      0.385720
  C       0.875647      2.960563      0.301363
  C       1.861779     -1.146498     -0.197417
  C       1.843009     -2.108510      0.822717
  C       2.697544     -3.211323      0.742648
  C       3.562794     -3.356694     -0.345677
  C       3.568553     -2.404709     -1.373027
  C       2.715648     -1.302816     -1.305347
  Cl     -2.721732      2.160010      0.775386
  Cl     -1.719163     -2.649781      1.063747
  H      -0.310818     -1.989213     -1.640068
  H      -1.810055     -2.139774     -3.603566
  H      -2.651699     -0.063827     -4.693644
  H      -1.970992      2.166264     -3.822995
  H      -0.458162      2.328079     -1.872500
  H       3.582233      1.021578     -0.504336
  H       4.704359      3.222257     -0.359605
  H       3.392709      5.257933      0.215404
  H       0.946497      5.079219      0.658819
  H      -0.187305      2.879241      0.527108
  H       1.151064     -2.011050      1.652061
  H       2.675862     -3.962272      1.529577
  H       4.224493     -4.219207     -0.403321
  H       4.226677     -2.527408     -2.231033
  H       2.696732     -0.583981     -2.122111
>
39
-4873.16663339; 31P isotropic shielding: 209.086293 ppm
  Cl      0.430703     -0.681499      2.712486
  Se     -2.196762     -0.465609      0.739980
  N      -0.429024     -0.358427      0.991602
  P       0.718231      0.068119     -0.123038
  C      -0.093820      0.124378     -1.725101
  C      -0.778737      1.300685     -2.085170
  C      -1.496291      1.337771     -3.278645
  C      -1.532210      0.212646     -4.112326
  C      -0.849384     -0.953548     -3.753266
  C      -0.129064     -1.004455     -2.558909
  C       1.394410      1.708375      0.189030
  C       2.282325      2.273657     -0.745253
  C       2.781248      3.559676     -0.537182
  C       2.386960      4.287364      0.592805
  C       1.487675      3.732326      1.507806
  C       0.986619      2.442634      1.311742
  C       2.006290     -1.190904     -0.097313
  C       3.371085     -0.866810     -0.116797
  C       4.324237     -1.887954     -0.100515
  C       3.918316     -3.225842     -0.059512
  C       2.555937     -3.546309     -0.024259
  C       1.594541     -2.535635     -0.036854
  Cl     -2.584458      1.943570      1.105391
  Cl     -2.100350     -2.833334      0.020350
  H      -0.782045      2.159816     -1.420654
  H      -2.037415      2.241070     -3.552330
  H      -2.098478      0.244764     -5.041512
  H      -0.884825     -1.829919     -4.396906
  H       0.387250     -1.916010     -2.276509
  H       2.563908      1.723819     -1.641143
  H       3.465683      3.998145     -1.260798
  H       2.771957      5.293334      0.750650
  H       1.163000      4.305221      2.373851
  H       0.267464      2.022950      2.006622
  H       3.692360      0.170744     -0.122973
  H       5.383134     -1.636855     -0.109222
  H       4.663980     -4.018810     -0.040573
  H       2.237983     -4.585725      0.028194
  H       0.535368     -2.784220      0.026953
