25
-1277.66583976; 31P isotropic shielding: 176.376480 ppm
  S      -0.966300     -2.152361     -0.001893
  P      -0.343481     -0.311933      0.000190
  O      -0.822738      0.595948     -1.264471
  C      -2.210855      0.547016     -1.680536
  C      -3.239665      0.979710     -0.668872
  C      -3.239669      0.978231      0.672005
  C      -2.210890      0.543291      1.682739
  O      -0.822750      0.593119      1.266864
  C       1.431153      0.007770      0.000550
  C       1.908159      1.330205      0.002696
  C       3.283323      1.570096      0.002864
  C       4.183769      0.497279      0.000891
  C       3.708048     -0.818056     -0.001241
  C       2.332261     -1.065405     -0.001412
  H      -2.256549      1.202626     -2.558317
  H      -2.440079     -0.480132     -2.012243
  H      -4.166280      1.303184     -1.150731
  H      -4.166287      1.300637      1.154574
  H      -2.440148     -0.484590      2.012145
  H      -2.256623      1.196945      2.561976
  H       1.206500      2.160586      0.004239
  H       3.653528      2.593909      0.004532
  H       5.255808      0.688113      0.001021
  H       4.406983     -1.652577     -0.002757
  H       1.947282     -2.082912     -0.003012
>
25
-1277.67897663; 31P isotropic shielding: 161.573438 ppm
  S      -0.636677     -2.498163      0.700182
  P      -0.424500     -0.657667      0.156003
  O      -1.183058     -0.384125     -1.261812
  C      -1.460043      0.994573     -1.662729
  C      -2.718777      1.544453     -1.034193
  C      -3.157487      1.338496      0.213944
  C      -2.472223      0.562385      1.306375
  O      -1.029071      0.506991      1.124461
  C       1.268891     -0.050252     -0.046783
  C       1.788634      1.011453      0.710659
  C       3.115259      1.414981      0.526737
  C       3.923834      0.769166     -0.413373
  C       3.406084     -0.288254     -1.172347
  C       2.086257     -0.701106     -0.987835
  H      -0.585331      1.627501     -1.445557
  H      -1.576550      0.949958     -2.751044
  H      -3.330532      2.157216     -1.697956
  H      -4.115526      1.773437      0.505364
  H      -2.871074     -0.461610      1.392935
  H      -2.623868      1.059808      2.272079
  H       1.158742      1.513116      1.439495
  H       3.515956      2.235125      1.120222
  H       4.956115      1.085572     -0.553660
  H       4.033752     -0.795254     -1.903142
  H       1.688293     -1.534803     -1.563125
>
25
-1277.67562512; 31P isotropic shielding: 169.364954 ppm
  S      -0.936072     -2.025387     -0.616484
  P      -0.347231     -0.255173     -0.071529
  O      -0.846527      0.968618     -1.019351
  C      -2.234416      0.993362     -1.442144
  C      -3.271704      1.069774     -0.351432
  C      -3.266885      0.672643      0.929601
  C      -2.222198     -0.004703      1.778650
  O      -0.837368      0.216946      1.405872
  C       1.423055      0.060518      0.020628
  C       2.110039      0.556975     -1.098759
  C       3.496367      0.720885     -1.047319
  C       4.201296      0.387841      0.114661
  C       3.517220     -0.109756      1.229659
  C       2.131378     -0.276814      1.185309
  H      -2.308048      1.878217     -2.085364
  H      -2.427749      0.102077     -2.062950
  H      -4.211494      1.488149     -0.721596
  H      -4.203250      0.806267      1.477950
  H      -2.413116     -1.091323      1.788579
  H      -2.289142      0.361371      2.809995
  H       1.560398      0.817995     -1.999454
  H       4.026110      1.110193     -1.915014
  H       5.281839      0.516024      0.151442
  H       4.063151     -0.367636      2.135477
  H       1.598346     -0.662161      2.050973
>
25
-1277.67599649; 31P isotropic shielding: 166.169660 ppm
  S      -0.969084     -2.169630      0.260406
  P      -0.347037     -0.334126      0.122170
  O      -0.828540      0.474276     -1.207434
  C      -2.216768      0.392466     -1.616912
  C      -3.241821      0.913976     -0.643814
  C      -3.240276      1.016937      0.693062
  C      -2.214140      0.650453      1.733576
  O      -0.825803      0.664706      1.316215
  C       1.427420     -0.016226      0.095052
  C       1.907067      1.302483      0.012632
  C       3.282486      1.538829     -0.011578
  C       4.180983      0.466029      0.045729
  C       3.702840     -0.845848      0.128142
  C       2.326788     -1.089511      0.153141
  H      -2.262416      0.970546     -2.547520
  H      -2.448057     -0.659019     -1.858532
  H      -4.164723      1.210032     -1.149636
  H      -4.162092      1.387357      1.149496
  H      -2.447152     -0.350111      2.136214
  H      -2.257682      1.366026      2.563253
  H       1.206797      2.132941     -0.031466
  H       3.654888      2.559853     -0.075084
  H       5.253256      0.654378      0.026310
  H       4.400467     -1.680217      0.173228
  H       1.940198     -2.104301      0.217551
>
25
-1277.67899213; 31P isotropic shielding: 161.567308 ppm
  S      -0.692259     -2.523438     -0.641348
  P      -0.434497     -0.664541     -0.184555
  O      -1.192032      0.295780     -1.266530
  C      -1.438191      1.700123     -0.959030
  C      -2.657331      1.915655     -0.094632
  C      -3.101673      1.133959      0.897378
  C      -2.462140     -0.120923      1.428694
  O      -1.018306     -0.131616      1.241296
  C       1.272127     -0.069278     -0.063022
  C       2.225520     -0.595839     -0.950823
  C       3.538586     -0.122661     -0.929599
  C       3.912603      0.872754     -0.018546
  C       2.969029      1.393560      0.872768
  C       1.650165      0.929127      0.851927
  H      -0.537711      2.150505     -0.511740
  H      -1.590313      2.175088     -1.934907
  H      -3.232861      2.810088     -0.338880
  H      -4.029310      1.413831      1.400373
  H      -2.897754     -1.025779      0.974258
  H      -2.613867     -0.189751      2.512527
  H       1.933275     -1.383998     -1.641574
  H       4.272827     -0.536710     -1.618446
  H       4.939077      1.235343      0.001450
  H       3.259133      2.159938      1.589722
  H       0.921305      1.321685      1.555241
>
25
-1277.67696973; 31P isotropic shielding: 167.742021 ppm
  S      -0.568912     -2.535747      1.123839
  P      -0.397384     -0.721118      0.484908
  O      -1.185836     -0.542269     -0.934213
  C      -1.497982      0.789408     -1.440258
  C      -2.732711      1.391744     -0.813995
  C      -3.151529      1.262283      0.450969
  C      -2.462365      0.529257      1.570475
  O      -1.017433      0.480341      1.395876
  C       1.280955     -0.086888      0.234108
  C       1.607241      1.264647      0.442982
  C       2.905253      1.717044      0.186341
  C       3.879235      0.830621     -0.284022
  C       3.556877     -0.516164     -0.491444
  C       2.265118     -0.975746     -0.230335
  H      -0.622533      1.448639     -1.327963
  H      -1.663143      0.645747     -2.514152
  H      -3.343294      1.983518     -1.497977
  H      -4.094182      1.734091      0.734707
  H      -2.851176     -0.495148      1.690219
  H      -2.621339      1.056424      2.518729
  H       0.855143      1.949759      0.823776
  H       3.155492      2.762531      0.358941
  H       4.889396      1.185924     -0.481047
  H       4.315171     -1.210648     -0.848798
  H       2.013640     -2.025151     -0.368565
>
25
-1277.67703128; 31P isotropic shielding: 167.556195 ppm
  S      -0.723027     -2.571199      1.046206
  P      -0.460004     -0.746499      0.470301
  O      -1.006322     -0.315984     -1.004329
  C      -2.444816     -0.326384     -1.229739
  C      -3.100512      0.961280     -0.808642
  C      -2.686210      1.811056      0.139248
  C      -1.494168      1.660058      1.053624
  O      -1.251655      0.281197      1.462519
  C       1.247339     -0.152508      0.353006
  C       1.644285      0.792121     -0.609469
  C       2.962645      1.257868     -0.628261
  C       3.887027      0.791453      0.311742
  C       3.494287     -0.150667      1.270367
  C       2.181689     -0.624681      1.290328
  H      -2.567473     -0.475654     -2.309101
  H      -2.889186     -1.197462     -0.721099
  H      -4.011771      1.204158     -1.358513
  H      -3.267836      2.719940      0.302214
  H      -1.678781      2.198295      1.990313
  H      -0.581869      2.084898      0.605328
  H       0.930595      1.141061     -1.350406
  H       3.267614      1.982161     -1.381831
  H       4.913415      1.154281      0.292901
  H       4.213945     -0.522708      1.997471
  H       1.875589     -1.372880      2.018424
>
25
-1277.67696590; 31P isotropic shielding: 167.577089 ppm
  S      -0.934695     -2.323865     -0.256791
  P      -0.490231     -0.465215      0.022481
  O      -0.936922      0.614640     -1.113924
  C      -2.361129      0.842981     -1.316286
  C      -2.915460      1.877210     -0.373298
  C      -2.464802      2.184804      0.849249
  C      -1.329212      1.534058      1.602053
  O      -1.227778      0.098770      1.366149
  C       1.265697     -0.047238      0.178166
  C       1.787364      1.174394     -0.282338
  C       3.139854      1.472907     -0.089184
  C       3.974804      0.562673      0.566510
  C       3.457832     -0.655525      1.024206
  C       2.110486     -0.962736      0.828409
  H      -2.454466      1.189985     -2.352198
  H      -2.900043     -0.115069     -1.236256
  H      -3.778051      2.423496     -0.759448
  H      -2.967951      2.984912      1.394739
  H      -1.503144      1.625926      2.680267
  H      -0.365311      2.020208      1.382250
  H       1.143088      1.874902     -0.806100
  H       3.541111      2.416309     -0.455861
  H       5.027702      0.797554      0.713814
  H       4.107052     -1.370322      1.526799
  H       1.706902     -1.916162      1.162591
>
25
-1277.67701062; 31P isotropic shielding: 167.576168 ppm
  S      -0.507569     -2.647891      0.751475
  P      -0.526600     -0.798015      0.225538
  O      -1.273659     -0.579097     -1.206410
  C      -1.522379      0.760000     -1.766441
  C      -2.702310      1.434310     -1.116886
  C      -2.711936      1.798602      0.172358
  C      -1.543722      1.570603      1.095921
  O      -1.285356      0.138899      1.322160
  C       1.105061     -0.026339      0.012047
  C       1.758380      0.561947      1.107828
  C       3.051725      1.070367      0.965455
  C       3.704420      0.993738     -0.270094
  C       3.060423      0.403487     -1.363500
  C       1.767150     -0.105810     -1.224467
  H      -0.609145      1.364825     -1.665956
  H      -1.698838      0.579827     -2.830445
  H      -3.594096      1.578534     -1.726497
  H      -3.611520      2.237272      0.603677
  H      -1.739843      1.969983      2.094822
  H      -0.628555      2.044001      0.710213
  H       1.258181      0.607669      2.072986
  H       3.551971      1.522113      1.820450
  H       4.713085      1.388442     -0.379243
  H       3.567668      0.335702     -2.324474
  H       1.273665     -0.577969     -2.071416
>
25
-1277.66956633; 31P isotropic shielding: 176.321756 ppm
  S      -1.008658     -2.094452     -0.964055
  P      -0.522248     -0.384321     -0.209963
  O      -1.329377      0.819058     -0.963995
  C      -1.396022      2.146317     -0.362925
  C      -2.461672      2.265259      0.699973
  C      -2.838907      1.331532      1.582135
  C      -2.253304     -0.043402      1.763288
  O      -0.854932     -0.110378      1.362447
  C       1.232165      0.066036     -0.241014
  C       2.000210     -0.332050     -1.348331
  C       3.340793      0.044613     -1.442559
  C       3.927883      0.813404     -0.430098
  C       3.169805      1.204061      0.678099
  C       1.824019      0.836569      0.774963
  H      -0.405127      2.433649      0.022928
  H      -1.630276      2.817368     -1.197066
  H      -2.976682      3.227123      0.719078
  H      -3.658124      1.565223      2.264761
  H      -2.828435     -0.808410      1.216509
  H      -2.262854     -0.318633      2.824686
  H       1.543652     -0.947515     -2.120599
  H       3.930367     -0.268773     -2.302342
  H       4.975831      1.100014     -0.501747
  H       3.626431      1.792314      1.472404
  H       1.239661      1.127096      1.643424
>
25
-1277.67701775; 31P isotropic shielding: 167.607541 ppm
  S      -0.824797     -2.318345      0.620768
  P      -0.460759     -0.477095      0.165237
  O      -0.973565      0.077171     -1.279559
  C      -2.409401      0.170035     -1.506616
  C      -2.985644      1.467427     -1.005811
  C      -2.526572      2.226707     -0.003196
  C      -1.356746      1.940906      0.907284
  O      -1.201806      0.525439      1.220448
  C       1.276596      0.032407      0.095200
  C       2.175162     -0.539970      1.011286
  C       3.509606     -0.131068      1.032021
  C       3.959887      0.845220      0.134891
  C       3.071109      1.411110     -0.784628
  C       1.731303      1.011224     -0.805849
  H      -2.535381      0.097538     -2.593371
  H      -2.908461     -0.702584     -1.054714
  H      -3.873396      1.804409     -1.544317
  H      -3.049459      3.159792      0.213443
  H      -1.520398      2.423210      1.877807
  H      -0.415565      2.340640      0.497039
  H       1.823809     -1.313073      1.691392
  H       4.200701     -0.580376      1.743035
  H       5.002800      1.157663      0.147932
  H       3.420353      2.162710     -1.490728
  H       1.044624      1.439504     -1.530493
>
25
-1277.67699118; 31P isotropic shielding: 167.689587 ppm
  S      -0.453567     -2.833705     -0.041121
  P      -0.565159     -0.909438     -0.014336
  O      -1.411085     -0.361031     -1.287800
  C      -1.640276      1.010925     -1.669314
  C      -2.233890      1.940695     -0.648164
  C      -2.240764      1.919113      0.692142
  C      -1.658338      0.959658      1.692128
  O      -1.409625     -0.398215      1.274987
  C       1.034220     -0.021055     -0.003332
  C       2.211404     -0.789701     -0.026857
  C       3.463842     -0.172284     -0.019953
  C       3.561435      1.222887      0.010562
  C       2.397956      1.997372      0.034152
  C       1.141388      1.383628      0.027332
  H      -0.695389      1.439981     -2.046948
  H      -2.321605      0.940957     -2.526931
  H      -2.706235      2.806400     -1.120372
  H      -2.718160      2.769361      1.186963
  H      -2.354498      0.858019      2.534670
  H      -0.724239      1.383982      2.100920
  H       2.126725     -1.873515     -0.049767
  H       4.364545     -0.783547     -0.038281
  H       4.538207      1.703878      0.016047
  H       2.464253      3.084003      0.057965
  H       0.257454      2.012931      0.045707
