35
-1260.00188110; 31P isotropic shielding: 274.685100 ppm
  C      -3.017748      2.864302      0.033305
  O      -2.542468      1.618217     -0.502019
  C      -3.178170      0.466933     -0.105953
  C      -4.444381      0.404296      0.486743
  C      -5.002339     -0.837914      0.816454
  C      -4.302200     -2.018877      0.563964
  C      -3.026980     -1.960103     -0.011722
  C      -2.470545     -0.728939     -0.337592
  O      -1.210649     -0.703463     -0.938913
  P      -0.000144      0.254016     -0.412058
  O      -0.000019      0.621374      1.018868
  O       1.210096     -0.703631     -0.939231
  C       2.470465     -0.728742     -0.338915
  C       3.027665     -1.959821     -0.013967
  C       4.303274     -2.018289      0.560866
  C       5.003068     -0.837133      0.813458
  C       4.444355      0.404963      0.484640
  C       3.177747      0.467310     -0.107231
  O       2.541438      1.618542     -0.502557
  C       3.014872      2.864335      0.035187
  H      -3.048472      2.828808      1.130805
  H      -2.297745      3.619436     -0.293120
  H      -4.013233      3.113358     -0.361589
  H      -5.000478      1.316050      0.685457
  H      -5.989411     -0.873027      1.273401
  H      -4.735512     -2.982937      0.820882
  H      -2.446394     -2.859314     -0.204623
  H      -0.000235      1.296162     -1.346168
  H       2.447332     -2.859200     -0.206847
  H       4.737170     -2.982276      0.817070
  H       5.990442     -0.872029      1.269767
  H       5.000160      1.316898      0.683370
  H       3.045265      2.826841      1.132618
  H       2.293951      3.619092     -0.290088
  H       4.010126      3.115462     -0.358961
>
35
-1260.00137217; 31P isotropic shielding: 271.915738 ppm
  C      -3.166944      2.622048     -1.626971
  O      -2.585191      1.311244     -1.530646
  C      -2.870441      0.564084     -0.417426
  C      -3.938894      0.786028      0.459874
  C      -4.149685     -0.082288      1.539549
  C      -3.300964     -1.170535      1.753049
  C      -2.216929     -1.384279      0.891721
  C      -2.001678     -0.517831     -0.172510
  O      -0.930026     -0.757778     -1.032118
  P       0.197413      0.366766     -1.369167
  O       0.280361      1.564429     -0.507143
  O       1.528328     -0.555841     -1.519862
  C       2.592622     -0.578750     -0.612387
  C       3.882571     -0.547056     -1.134195
  C       4.986183     -0.572206     -0.274947
  C       4.784645     -0.618012      1.106670
  C       3.488174     -0.656729      1.631586
  C       2.377250     -0.655138      0.777552
  O       1.074397     -0.741646      1.196370
  C       0.748915     -0.148442      2.469629
  H      -2.941145      3.213367     -0.729239
  H      -2.703963      3.086587     -2.501407
  H      -4.255016      2.565124     -1.775247
  H      -4.612317      1.623242      0.299939
  H      -4.988020      0.097751      2.209792
  H      -3.471561     -1.847312      2.587491
  H      -1.519591     -2.205116      1.038987
  H      -0.029958      0.584546     -2.736654
  H       4.003854     -0.487341     -2.213535
  H       5.992866     -0.543655     -0.686051
  H       5.635812     -0.625589      1.784828
  H       3.339622     -0.699593      2.707252
  H       1.133065     -0.755459      3.301844
  H      -0.342143     -0.119853      2.510809
  H       1.150291      0.871232      2.527360
>
35
-1260.00252306; 31P isotropic shielding: 276.408067 ppm
  C      -3.310527      2.690897      0.781263
  O      -2.325413      1.794517      0.238512
  C      -2.732742      0.528110     -0.102218
  C      -4.055193      0.139485     -0.344269
  C      -4.338637     -1.180001     -0.720208
  C      -3.311946     -2.117119     -0.850424
  C      -1.989009     -1.738454     -0.590494
  C      -1.707603     -0.430676     -0.215205
  O      -0.377979     -0.070149      0.015009
  P       0.107956      0.702728      1.366739
  O      -0.693876      0.508562      2.589886
  O       1.622801      0.134160      1.509340
  C       2.406918     -0.451735      0.514537
  C       2.939548     -1.713179      0.752443
  C       3.769747     -2.314377     -0.202079
  C       4.052351     -1.642226     -1.391771
  C       3.517923     -0.369671     -1.634670
  C       2.695779      0.240481     -0.679398
  O       2.126076      1.483251     -0.801350
  C       2.242396      2.155262     -2.064462
  H      -4.036384      2.995632      0.013710
  H      -3.832757      2.225622      1.627967
  H      -2.754416      3.566768      1.125727
  H      -4.862211      0.860376     -0.247937
  H      -5.370878     -1.469075     -0.907901
  H      -3.533939     -3.141738     -1.140309
  H      -1.167728     -2.448025     -0.660728
  H       0.294416      2.029385      0.964482
  H       2.692655     -2.209961      1.687958
  H       4.185003     -3.301772     -0.012816
  H       4.692542     -2.101445     -2.142542
  H       3.750143      0.142069     -2.563999
  H       1.666641      3.078767     -1.960536
  H       1.821210      1.544476     -2.875737
  H       3.290431      2.399256     -2.291323
>
35
-1260.00046438; 31P isotropic shielding: 280.298522 ppm
  C      -3.867616      2.769245     -0.343014
  O      -2.996479      1.741820      0.154577
  C      -3.175421      0.466684     -0.315710
  C      -4.135162      0.077581     -1.260775
  C      -4.219458     -1.261310     -1.665383
  C      -3.355021     -2.221476     -1.137316
  C      -2.393004     -1.840219     -0.193917
  C      -2.307548     -0.513951      0.211670
  O      -1.390250     -0.144132      1.206098
  P       0.035071      0.522434      0.811147
  O       0.731710      1.134575      1.956752
  O       0.763163     -0.758163      0.101146
  C       2.149638     -0.922124      0.057959
  C       2.683811     -2.158418      0.401635
  C       4.068557     -2.359186      0.347326
  C       4.905233     -1.311642     -0.042099
  C       4.368668     -0.065380     -0.390809
  C       2.984034      0.134112     -0.356613
  O       2.341011      1.296281     -0.706871
  C       3.109968      2.512097     -0.710262
  H      -4.917871      2.550700     -0.101287
  H      -3.557168      3.686319      0.164426
  H      -3.758863      2.892329     -1.430762
  H      -4.817842      0.809522     -1.681947
  H      -4.971245     -1.546442     -2.398918
  H      -3.423287     -3.259886     -1.453535
  H      -1.701840     -2.559387      0.238191
  H      -0.289469      1.347805     -0.276038
  H       2.006832     -2.946330      0.723714
  H       4.485788     -3.325978      0.620026
  H       5.983408     -1.455237     -0.076006
  H       5.028885      0.741964     -0.694761
  H       2.385551      3.319367     -0.846426
  H       3.831433      2.523492     -1.539749
  H       3.634685      2.640133      0.245831
>
35
-1259.99983645; 31P isotropic shielding: 272.621723 ppm
  C      -3.886482      2.765102     -0.260513
  O      -3.004597      1.735816      0.213176
  C      -3.187932      0.464417     -0.265832
  C      -4.162654      0.080894     -1.197731
  C      -4.249205     -1.254390     -1.613437
  C      -3.372350     -2.216305     -1.109569
  C      -2.395466     -1.840681     -0.179252
  C      -2.307907     -0.517984      0.237470
  O      -1.375294     -0.153609      1.219227
  P       0.041216      0.520618      0.806653
  O       0.749568      1.136296      1.943524
  O       0.767366     -0.756266      0.087378
  C       2.154278     -0.913325      0.030153
  C       2.698118     -2.146913      0.368410
  C       4.083253     -2.340455      0.300145
  C       4.910628     -1.288623     -0.097633
  C       4.364248     -0.045264     -0.440887
  C       2.978982      0.147106     -0.392681
  O       2.326733      1.306283     -0.736028
  C       3.088461      2.526501     -0.741516
  H      -4.932053      2.542022     -0.002944
  H      -3.569654      3.678665      0.249358
  H      -3.796846      2.897856     -1.348914
  H      -4.854962      0.814423     -1.600025
  H      -5.012681     -1.535324     -2.336472
  H      -3.442222     -3.251952     -1.434450
  H      -1.694542     -2.561605      0.233786
  H      -0.302558      1.341620     -0.278359
  H       2.028832     -2.938573      0.697286
  H       4.507996     -3.305156      0.568707
  H       5.989149     -1.426643     -0.142512
  H       5.017020      0.765504     -0.751885
  H       3.798774      2.547714     -1.580468
  H       3.625381      2.651503      0.208177
  H       2.357603      3.330428     -0.862445
>
35
-1259.99982403; 31P isotropic shielding: 272.267723 ppm
  C      -3.891146      2.768829     -0.201829
  O      -3.005596      1.735422      0.255978
  C      -3.193345      0.468011     -0.231662
  C      -4.176940      0.091883     -1.157254
  C      -4.267090     -1.239969     -1.583103
  C      -3.385074     -2.205670     -1.095709
  C      -2.399359     -1.837436     -0.171729
  C      -2.308248     -0.518202      0.255118
  O      -1.366428     -0.161375      1.230906
  P       0.044843      0.518489      0.808847
  O       0.759887      1.134925      1.941063
  O       0.769639     -0.755152      0.082609
  C       2.156541     -0.906890      0.012662
  C       2.707898     -2.139328      0.342921
  C       4.093111     -2.327481      0.262152
  C       4.913106     -1.271523     -0.139959
  C       4.359156     -0.029302     -0.475176
  C       2.973660      0.157698     -0.414538
  O       2.314143      1.315309     -0.749172
  C       3.070617      2.538870     -0.755487
  H      -3.568700      3.678384      0.311647
  H      -3.811733      2.909281     -1.290041
  H      -4.934369      2.544597      0.064111
  H      -4.873351      0.828512     -1.546575
  H      -5.037407     -1.515285     -2.301026
  H      -3.457768     -3.238599     -1.428525
  H      -1.694238     -2.561468      0.228566
  H      -0.310177      1.339950     -0.272072
  H       2.044353     -2.934268      0.675520
  H       4.523798     -3.291286      0.524395
  H       5.991706     -1.405399     -0.194485
  H       5.006156      0.784792     -0.789541
  H       3.613797      2.662481      0.190810
  H       2.335430      3.340067     -0.867990
  H       3.774627      2.566432     -1.599533
>
35
-1259.99981750; 31P isotropic shielding: 272.076030 ppm
  C      -3.897439      2.767322     -0.141942
  O      -3.007252      1.731377      0.300593
  C      -3.199858      0.466791     -0.192347
  C      -4.194190      0.095392     -1.108296
  C      -4.288212     -1.233963     -1.541159
  C      -3.399406     -2.201670     -1.070319
  C      -2.403035     -1.838093     -0.155933
  C      -2.308152     -0.521457      0.277938
  O      -1.355286     -0.169237      1.244672
  P       0.049545      0.515564      0.808905
  O       0.773019      1.135498      1.933787
  O       0.772537     -0.755955      0.077309
  C       2.159370     -0.901683     -0.005849
  C       2.719232     -2.131591      0.319358
  C       4.104464     -2.313625      0.225675
  C       4.916006     -1.254107     -0.184168
  C       4.353404     -0.014378     -0.514317
  C       2.967752      0.166414     -0.440740
  O       2.299996      1.321094     -0.769162
  C       3.050527      2.548200     -0.781133
  H      -3.830698      2.912958     -1.230326
  H      -4.937657      2.542433      0.135033
  H      -3.568624      3.674303      0.372043
  H      -4.895931      0.833708     -1.484596
  H      -5.066789     -1.505743     -2.251460
  H      -3.475071     -3.232605     -1.408585
  H      -1.692510     -2.563901      0.231411
  H      -0.319099      1.334500     -0.269357
  H       2.062393     -2.929397      0.658334
  H       4.541860     -3.275457      0.483989
  H       5.994614     -1.383237     -0.248809
  H       4.993791      0.802528     -0.834860
  H       2.310518      3.346072     -0.885409
  H       3.746184      2.580366     -1.631921
  H       3.602197      2.673278      0.160041
>
35
-1259.99981530; 31P isotropic shielding: 271.883808 ppm
  C      -3.018344      2.562464     -0.821750
  O      -2.278416      1.328983     -0.797124
  C      -2.959995      0.180868     -0.474320
  C      -4.346056      0.011462     -0.565126
  C      -4.923168     -1.222618     -0.238666
  C      -4.125853     -2.287640      0.184589
  C      -2.740425     -2.116899      0.295505
  C      -2.166162     -0.892682     -0.026056
  O      -0.779288     -0.758061      0.074843
  P      -0.056227      0.509814      0.812863
  O      -0.789906      1.137698      1.926553
  O       1.337649     -0.185525      1.267212
  C       2.311200     -0.520124      0.314986
  C       2.418237     -1.829138     -0.138806
  C       3.434924     -2.175415     -1.037492
  C       4.331552     -1.198302     -1.472806
  C       4.225117      0.123560     -1.020243
  C       3.210356      0.477657     -0.119929
  O       3.003581      1.733412      0.389151
  C       3.899378      2.779280     -0.017806
  H      -3.579420      2.695269      0.112778
  H      -2.270377      3.353605     -0.920326
  H      -3.703903      2.597634     -1.680550
  H      -4.975418      0.832835     -0.895926
  H      -6.001919     -1.342957     -0.316643
  H      -4.574645     -3.244983      0.440043
  H      -2.094481     -2.918923      0.645336
  H       0.332778      1.323713     -0.261868
  H       1.701075     -2.562429      0.221401
  H       3.520310     -3.200379     -1.391248
  H       5.125837     -1.456834     -2.170556
  H       4.933038      0.869533     -1.368847
  H       3.556174      3.676808      0.503281
  H       3.855372      2.941677     -1.104950
  H       4.934124      2.553337      0.278099
>
35
-1259.99979302; 31P isotropic shielding: 271.387850 ppm
  C      -3.889213      2.828523      0.259035
  O      -2.985756      1.762299      0.588535
  C      -3.219171      0.529835      0.036176
  C      -4.268802      0.217690     -0.839276
  C      -4.399544     -1.083825     -1.341765
  C      -3.492726     -2.081841     -0.981618
  C      -2.441087     -1.777443     -0.108140
  C      -2.310296     -0.489011      0.395448
  O      -1.300698     -0.197888      1.323992
  P       0.076439      0.515732      0.847421
  O       0.838230      1.124685      1.952880
  O       0.786442     -0.733272      0.065573
  C       2.170654     -0.854477     -0.078924
  C       2.763322     -2.080706      0.198807
  C       4.146264     -2.237341      0.044536
  C       4.922975     -1.156699     -0.377537
  C       4.327208      0.079363     -0.659982
  C       2.943103      0.234985     -0.525941
  O       2.243709      1.384264     -0.804028
  C       2.971480      2.625167     -0.813573
  H      -3.884513      3.036160     -0.821312
  H      -4.913752      2.595373      0.583496
  H      -3.521201      3.701844      0.803771
  H      -4.985036      0.980402     -1.130051
  H      -5.220783     -1.309902     -2.019291
  H      -3.596951     -3.090804     -1.374195
  H      -1.715049     -2.528009      0.194155
  H      -0.347977      1.348259     -0.199470
  H       2.134017     -2.895568      0.549329
  H       4.609550     -3.196295      0.265821
  H       5.999934     -1.266415     -0.488893
  H       4.940127      0.913193     -0.990579
  H       3.554204      2.738497      0.110202
  H       2.214069      3.411287     -0.872410
  H       3.635133      2.690238     -1.687694
>
35
-1259.99980827; 31P isotropic shielding: 270.738737 ppm
  C      -2.973493      2.618228     -0.823471
  O      -2.246034      1.377090     -0.811786
  C      -2.945007      0.229025     -0.527831
  C      -4.329490      0.073305     -0.657762
  C      -4.924848     -1.161592     -0.369427
  C      -4.147336     -2.240971      0.054450
  C      -2.763985     -2.084165      0.204614
  C      -2.171692     -0.859092     -0.078966
  O      -0.787132     -0.737707      0.061562
  P      -0.074112      0.513705      0.836577
  O      -0.831916      1.128040      1.941627
  O       1.303803     -0.198966      1.312020
  C       2.310078     -0.496024      0.381842
  C       2.437571     -1.786961     -0.116158
  C       3.486129     -2.096974     -0.991339
  C       4.393341     -1.101995     -1.358825
  C       4.265973      0.202054     -0.862046
  C       3.219366      0.519806      0.014981
  O       2.989304      1.755190      0.562085
  C       3.893132      2.818660      0.224704
  H      -2.215962      3.403821     -0.887484
  H      -3.639705      2.680457     -1.695831
  H      -3.553194      2.734884      0.101762
  H      -4.943084      0.906112     -0.989670
  H      -6.002108     -1.271396     -0.477677
  H      -4.610339     -3.198983      0.280330
  H      -2.133882     -2.897865      0.556396
  H       0.347434      1.341960     -0.214745
  H       1.711298     -2.534969      0.191863
  H       3.587771     -3.107878     -1.379552
  H       5.212267     -1.332479     -2.037657
  H       4.982458      0.962358     -1.158409
  H       3.527790      3.695057      0.766282
  H       3.885504      3.020830     -0.856637
  H       4.918300      2.585932      0.547480
>
35
-1259.99979909; 31P isotropic shielding: 270.859936 ppm
  C      -4.043206      2.279574      0.743719
  O      -2.818244      1.760409      0.199127
  C      -2.792108      0.438378     -0.170736
  C      -3.914194     -0.378064     -0.352081
  C      -3.750409     -1.710714     -0.753823
  C      -2.475457     -2.236948     -0.968977
  C      -1.348708     -1.428082     -0.773165
  C      -1.510493     -0.107045     -0.377612
  O      -0.375572      0.694961     -0.222401
  P      -0.075707      1.514262      1.154464
  O      -0.686078      0.956502      2.379859
  O       1.539076      1.615341      1.089228
  C       2.321925      0.447391      1.102642
  C       2.431949     -0.327941      2.250559
  C       3.248306     -1.466623      2.242214
  C       3.944279     -1.807276      1.081947
  C       3.833022     -1.025247     -0.075811
  C       3.014788      0.113917     -0.079897
  O       2.820430      0.946286     -1.148127
  C       3.488320      0.623743     -2.376077
  H      -4.831794      2.320464     -0.021393
  H      -4.379079      1.671320      1.594637
  H      -3.810185      3.292777      1.081487
  H      -4.912103      0.017939     -0.187152
  H      -4.630854     -2.334815     -0.894223
  H      -2.351120     -3.272927     -1.276262
  H      -0.339727     -1.810604     -0.909552
  H      -0.353931      2.854594      0.852513
  H       1.866305     -0.038752      3.132368
  H       3.334304     -2.076956      3.138364
  H       4.583791     -2.687999      1.066297
  H       4.382208     -1.307793     -0.968973
  H       4.581597      0.638652     -2.253496
  H       3.188258      1.400208     -3.084828
  H       3.175712     -0.361132     -2.753839
>
35
-1260.00190565; 31P isotropic shielding: 274.694641 ppm
  C      -3.635348      2.546702     -0.528671
  O      -2.889098      1.355575     -0.832428
  C      -3.058421      0.267982     -0.010612
  C      -4.135510      0.070117      0.860489
  C      -4.208037     -1.100274      1.627372
  C      -3.209183     -2.071315      1.536368
  C      -2.120221     -1.869049      0.679264
  C      -2.047572     -0.709773     -0.082558
  O      -0.967410     -0.544425     -0.955134
  P      -0.060626      0.817607     -0.970207
  O       0.007929      1.547138      0.312356
  O       1.311777      0.233352     -1.603850
  C       2.228596     -0.445374     -0.779921
  C       2.170486     -1.828406     -0.670315
  C       3.105094     -2.502467      0.126629
  C       4.082423     -1.772482      0.804764
  C       4.143509     -0.377467      0.690878
  C       3.217028      0.305785     -0.110767
  O       3.187659      1.655362     -0.312969
  C       4.041610      2.474050      0.499340
  H      -4.708189      2.403946     -0.722087
  H      -3.479426      2.845760      0.516624
  H      -3.244907      3.318392     -1.197366
  H      -4.919941      0.817572      0.938586
  H      -5.052757     -1.244515      2.298187
  H      -3.265442     -2.977842      2.134856
  H      -1.313660     -2.594592      0.602984
  H      -0.496641      1.516704     -2.104183
  H       1.388909     -2.360494     -1.207001
  H       3.062641     -3.585751      0.215067
  H       4.811327     -2.284999      1.429981
  H       4.913330      0.172183      1.224275
  H       3.844510      2.308761      1.568184
  H       3.794465      3.505569      0.235102
  H       5.103895      2.283268      0.284764
>
35
-1260.00149200; 31P isotropic shielding: 274.861649 ppm
  C      -2.609139     -0.876809     -3.091773
  O      -2.192067     -0.009201     -2.027025
  C      -2.507697     -0.370367     -0.740785
  C      -3.322512     -1.451990     -0.382846
  C      -3.588609     -1.713795      0.967506
  C      -3.045924     -0.904191      1.966275
  C      -2.221703      0.170939      1.613815
  C      -1.952684      0.432652      0.276220
  O      -1.166734      1.543388     -0.039075
  P       0.192920      1.550739     -0.925514
  O       1.170733      2.563336     -0.480246
  O       0.676399     -0.005308     -1.005708
  C       1.827244     -0.487412     -0.371785
  C       2.731961     -1.228488     -1.124398
  C       3.892204     -1.729534     -0.522870
  C       4.138606     -1.470900      0.827778
  C       3.224442     -0.730587      1.586318
  C       2.050202     -0.246113      0.996941
  O       1.067929      0.442984      1.657582
  C       1.469300      1.303146      2.739737
  H      -2.205405     -0.434904     -4.006656
  H      -2.202966     -1.889638     -2.958014
  H      -3.705661     -0.924668     -3.160355
  H      -3.756104     -2.087177     -1.149509
  H      -4.226074     -2.555922      1.229828
  H      -3.252523     -1.107046      3.014762
  H      -1.773890      0.813838      2.366331
  H      -0.275355      1.710629     -2.236493
  H       2.524394     -1.388840     -2.180106
  H       4.601882     -2.305536     -1.112655
  H       5.044850     -1.845137      1.300087
  H       3.418612     -0.538413      2.638295
  H       2.302323      1.945602      2.427558
  H       1.747329      0.722385      3.630806
  H       0.596519      1.922037      2.964374
>
35
-1260.00068514; 31P isotropic shielding: 281.716281 ppm
  C      -2.288611     -1.812111     -3.081938
  O      -2.107309     -0.730829     -2.157405
  C      -2.628699     -0.873390     -0.900502
  C      -3.360894     -1.979600     -0.445453
  C      -3.838004     -2.013710      0.871997
  C      -3.594551     -0.953973      1.746222
  C      -2.867316      0.157527      1.300624
  C      -2.394961      0.191418     -0.005687
  O      -1.691789      1.307168     -0.492288
  P      -0.185490      1.607048      0.021845
  O       0.004356      1.951760      1.446836
  O       0.572709      0.256442     -0.486294
  C       1.716810     -0.236397      0.148002
  C       1.733386     -1.560253      0.566469
  C       2.883091     -2.081951      1.173026
  C       3.997933     -1.263140      1.361877
  C       3.980699      0.073619      0.941753
  C       2.840211      0.594438      0.320318
  O       2.705631      1.875636     -0.155791
  C       3.647423      2.861281      0.300539
  H      -3.354870     -1.992446     -3.284673
  H      -1.789183     -1.497377     -4.002145
  H      -1.825405     -2.737685     -2.708948
  H      -3.559677     -2.815213     -1.109785
  H      -4.404135     -2.880627      1.207779
  H      -3.963022     -0.984072      2.769060
  H      -2.646946      0.995241      1.956995
  H       0.136585      2.589733     -0.924941
  H       0.838828     -2.162430      0.425196
  H       2.897284     -3.117846      1.504380
  H       4.891660     -1.657454      1.841489
  H       4.854864      0.699876      1.094967
  H       4.652185      2.666766     -0.101428
  H       3.682225      2.886937      1.398121
  H       3.281784      3.818215     -0.081014
>
35
-1260.00190027; 31P isotropic shielding: 274.612759 ppm
  C      -2.362498     -1.501489     -3.227650
  O      -2.143960     -0.520546     -2.204279
  C      -2.650312     -0.775439     -0.959171
  C      -3.394758     -1.908959     -0.601455
  C      -3.853930     -2.063080      0.713893
  C      -3.580636     -1.096637      1.682339
  C      -2.841580      0.041782      1.334576
  C      -2.386677      0.194452      0.030442
  O      -1.673625      1.342176     -0.358125
  P      -0.162244      1.582949      0.169811
  O       0.039989      1.783528      1.620442
  O       0.584657      0.286075     -0.477218
  C       1.741678     -0.262548      0.083592
  C       1.774313     -1.624647      0.352413
  C       2.935344     -2.199453      0.884948
  C       4.045873     -1.396351      1.151566
  C       4.012871     -0.021629      0.881443
  C       2.861297      0.553717      0.333128
  O       2.713428      1.877925     -0.000413
  C       3.628662      2.821449      0.583049
  H      -3.435424     -1.638175     -3.429428
  H      -1.869071     -1.108267     -4.120490
  H      -1.915389     -2.469069     -2.955097
  H      -3.617726     -2.673021     -1.340176
  H      -4.429706     -2.949686      0.973260
  H      -3.935268     -1.220079      2.703105
  H      -2.598985      0.809207      2.064902
  H       0.156467      2.653900     -0.676520
  H       0.883179     -2.216082      0.154964
  H       2.962115     -3.265579      1.099035
  H       4.948177     -1.833174      1.575062
  H       4.883610      0.592485      1.092733
  H       3.245668      3.809549      0.314533
  H       4.641573      2.698596      0.173473
  H       3.650589      2.715219      1.676013
