50
-1432.47553636; 31P isotropic shielding: 299.193240 ppm
  C      -3.857490      0.903505     -2.007550
  N      -2.453131      0.658812     -1.657958
  P      -1.979423      0.130523     -0.124255
  O      -0.801795     -1.106468     -0.135547
  C       0.502081     -0.659555     -0.055997
  C       0.586987      0.702839     -0.055995
  O      -0.616506      1.314561     -0.154774
  C       1.838260      1.377661      0.017005
  C       1.926855      2.790055      0.001259
  C       3.159190      3.416726      0.072873
  C       4.333939      2.641289      0.161978
  C       4.262306      1.255542      0.177471
  C       3.024816      0.572048      0.105802
  C       2.921735     -0.883968      0.118692
  C       1.630240     -1.511761      0.033597
  C       1.516801     -2.923759      0.042612
  C       2.647660     -3.716536      0.135199
  C       3.921556     -3.117016      0.220637
  C       4.048174     -1.734966      0.211709
  N      -3.251758     -1.057617     -0.002536
  C      -3.245401     -2.235880     -0.862084
  C      -3.660182     -1.289547      1.372041
  C      -3.623475      0.103808      1.990626
  N      -2.490028      0.784429      1.354902
  C      -2.198224      2.098734      1.930137
  C      -1.516000      1.210334     -2.645333
  H      -4.114142      0.398913     -2.952794
  H      -4.038683      1.983635     -2.140055
  H      -4.513269      0.524145     -1.223725
  H       1.008364      3.367976     -0.073302
  H       3.222893      4.503617      0.059664
  H       5.304524      3.131241      0.218016
  H       5.186754      0.688463      0.244702
  H       0.526463     -3.368368     -0.023081
  H       2.554789     -4.801449      0.142933
  H       4.811239     -3.739940      0.294338
  H       5.043656     -1.304233      0.279442
  H      -4.268227     -2.633782     -0.947368
  H      -2.591410     -3.038894     -0.479020
  H      -2.897924     -1.963361     -1.863629
  H      -2.972887     -1.977102      1.906902
  H      -4.669068     -1.726113      1.411527
  H      -3.469965      0.068385      3.078725
  H      -4.565885      0.649102      1.798735
  H      -1.354661      2.565006      1.427113
  H      -3.077488      2.760648      1.846335
  H      -1.958838      1.990185      2.998797
  H      -1.429321      2.306510     -2.581727
  H      -0.520272      0.776777     -2.536155
  H      -1.887130      0.949549     -3.647484
>
50
-1432.47559816; 31P isotropic shielding: 298.637741 ppm
  C      -1.288642      1.040037     -2.542994
  N      -2.290365      0.459392     -1.639443
  P      -1.969879      0.069828     -0.020445
  O      -0.769138     -1.138033      0.063396
  C       0.529838     -0.669869      0.053380
  C       0.594035      0.693583      0.059221
  O      -0.621004      1.284819      0.051134
  C       1.838223      1.385981      0.051764
  C       1.905028      2.799498      0.040648
  C       3.130187      3.443971      0.030903
  C       4.319299      2.685424      0.032246
  C       4.268916      1.298696      0.041770
  C       3.039327      0.597353      0.051032
  C       2.958338     -0.860181      0.057572
  C       1.673074     -1.506371      0.058361
  C       1.580636     -2.920029      0.063655
  C       2.726497     -3.696548      0.067708
  C       3.994596     -3.078974      0.066255
  C       4.100475     -1.695116      0.061542
  N      -3.162128     -1.170953      0.157383
  C      -3.317152     -2.270497     -0.779466
  C      -4.285138     -0.876137      1.016069
  C      -3.762737      0.195480      1.969397
  N      -2.742985      0.943586      1.223760
  C      -2.207667      2.097593      1.959121
  C      -3.665816      0.751481     -2.050746
  H      -0.299803      0.614914     -2.359082
  H      -1.220590      2.136955     -2.461058
  H      -1.574321      0.785230     -3.573599
  H       0.974936      3.363364      0.036401
  H       3.177306      4.531755      0.021600
  H       5.284334      3.189332      0.024557
  H       5.203969      0.745194      0.040217
  H       0.594390     -3.378559      0.068246
  H       2.649815     -4.782750      0.072846
  H       4.896092     -3.689147      0.069730
  H       5.092081     -1.250327      0.062099
  H      -4.172028     -2.117391     -1.465571
  H      -3.488584     -3.213914     -0.236882
  H      -2.412627     -2.382757     -1.381072
  H      -4.613801     -1.773580      1.563514
  H      -5.165679     -0.503341      0.448372
  H      -3.323628     -0.263337      2.873944
  H      -4.562354      0.876182      2.291861
  H      -1.758164      2.823298      1.282774
  H      -3.045517      2.578358      2.481930
  H      -1.455702      1.807303      2.710344
  H      -3.851656      1.839253     -2.092260
  H      -3.858419      0.334251     -3.050475
  H      -4.383265      0.315300     -1.354659
>
50
-1432.47230217; 31P isotropic shielding: 293.594752 ppm
  C      -3.844195      0.645285     -2.141727
  N      -2.444035      0.453878     -1.745241
  P      -1.993735      0.067121     -0.162499
  O      -0.800302     -1.147236     -0.052668
  C       0.497572     -0.677864     -0.009238
  C       0.564043      0.681140     -0.118386
  O      -0.647286      1.267060     -0.265187
  C       1.806436      1.376107     -0.099069
  C       1.876435      2.783954     -0.225584
  C       3.100215      3.430746     -0.201055
  C       4.284811      2.680391     -0.049356
  C       4.231513      1.299201      0.073630
  C       3.003395      0.595646      0.053243
  C       2.919799     -0.856227      0.178632
  C       1.636720     -1.505682      0.145032
  C       1.541901     -2.914070      0.263443
  C       2.683343     -3.682545      0.413522
  C       3.949355     -3.061596      0.448747
  C       4.057530     -1.682748      0.333648
  N      -3.251894     -1.123969      0.040305
  C      -3.214167     -2.374794     -0.708782
  C      -3.694790     -1.233830      1.419323
  C      -3.692089      0.211468      1.904474
  N      -2.544486      0.842535      1.243594
  C      -2.290889      2.212260      1.695458
  C      -1.495681      0.934759     -2.758346
  H      -4.073271      0.060016     -3.046694
  H      -4.038904      1.707460     -2.367756
  H      -4.511209      0.321237     -1.342629
  H       0.950435      3.341687     -0.346562
  H       3.149794      4.514041     -0.298796
  H       5.248566      3.186365     -0.029442
  H       5.163182      0.751487      0.186812
  H       0.557221     -3.374957      0.235532
  H       2.605122     -4.764797      0.504658
  H       4.847359     -3.665421      0.566915
  H       5.047177     -1.234791      0.365100
  H      -4.230585     -2.791803     -0.777817
  H      -2.559702     -3.131709     -0.241816
  H      -2.849036     -2.190095     -1.724059
  H      -3.014164     -1.857991      2.034443
  H      -4.699017     -1.679524      1.472973
  H      -3.574976      0.281712      2.995348
  H      -4.633169      0.722639      1.629838
  H      -1.423415      2.633287      1.193463
  H      -3.166980      2.854407      1.498774
  H      -2.109342      2.213728      2.780733
  H      -1.838070      0.578956     -3.741306
  H      -1.431645      2.033960     -2.790972
  H      -0.494589      0.533714     -2.590353
>
50
-1432.47551823; 31P isotropic shielding: 298.754299 ppm
  C      -1.463901     -0.334423     -2.457294
  N      -2.204466      0.418825     -1.431617
  P      -1.973687      0.034573      0.225809
  O      -0.768360     -1.186896      0.257181
  C       0.515164     -0.703052      0.153468
  C       0.575147      0.650113      0.313629
  O      -0.636273      1.211233      0.543554
  C       1.806408      1.361101      0.257773
  C       1.867555      2.765085      0.424510
  C       3.081989      3.426401      0.361875
  C       4.265583      2.695461      0.129207
  C       4.220670      1.318618     -0.037294
  C       3.002146      0.600541      0.019875
  C       2.927227     -0.847439     -0.149900
  C       1.654195     -1.512694     -0.078303
  C       1.568329     -2.917259     -0.239195
  C       2.708844     -3.667261     -0.468325
  C       3.964953     -3.030271     -0.543755
  C       4.064479     -1.654868     -0.387196
  N      -3.122914     -1.253152      0.495970
  C      -3.149333     -2.467704     -0.322354
  C      -4.454595     -0.708719      0.720658
  C      -4.217729      0.497163      1.613908
  N      -2.965493      1.085238      1.132316
  C      -2.572058      2.311258      1.839060
  C      -2.341550      1.835746     -1.792939
  H      -1.351275     -1.380863     -2.170672
  H      -0.458356      0.083345     -2.642092
  H      -2.027547     -0.295149     -3.400407
  H       0.942212      3.308487      0.601745
  H       3.124984      4.506666      0.491123
  H       5.221905      3.213295      0.079570
  H       5.151194      0.786205     -0.214730
  H       0.592597     -3.392917     -0.171250
  H       2.637510     -4.747000     -0.589407
  H       4.862482     -3.619164     -0.724160
  H       5.047075     -1.194840     -0.448702
  H      -2.155243     -2.910206     -0.391609
  H      -3.534317     -2.277727     -1.342352
  H      -3.817858     -3.198099      0.155484
  H      -5.098684     -1.457563      1.202531
  H      -4.937955     -0.399431     -0.229316
  H      -4.129004      0.194517      2.672884
  H      -5.032699      1.231039      1.535487
  H      -2.029037      2.103045      2.773684
  H      -1.947924      2.950756      1.214860
  H      -3.490693      2.858256      2.090512
  H      -2.958873      2.354034     -1.054926
  H      -1.368332      2.352069     -1.868262
  H      -2.844692      1.901228     -2.767917
>
50
-1432.46878425; 31P isotropic shielding: 283.053299 ppm
  C      -1.549417      0.103797     -2.920799
  N      -2.461887      0.318351     -1.789950
  P      -1.996117      0.137236     -0.175155
  O      -0.763313     -1.082999     -0.682618
  C       0.492858     -0.692355     -0.363468
  C       0.549012      0.559785      0.177270
  O      -0.698795      1.139217      0.296071
  C       1.754728      1.182236      0.583835
  C       1.786229      2.480122      1.150413
  C       2.989099      3.047783      1.533463
  C       4.191687      2.331498      1.359386
  C       4.176004      1.058831      0.805936
  C       2.971586      0.437566      0.399696
  C       2.924778     -0.898623     -0.185973
  C       1.665574     -1.471413     -0.575297
  C       1.609771     -2.764274     -1.148147
  C       2.768012     -3.498441     -1.337965
  C       4.012002     -2.953013     -0.958125
  C       4.082252     -1.685368     -0.397934
  N      -2.629615     -0.992883      0.920885
  C      -2.499701     -2.451496      0.917106
  C      -3.719726     -0.504541      1.772714
  C      -3.585528      1.014138      1.771375
  N      -3.143939      1.309385      0.419554
  C      -2.982535      2.724686      0.106586
  C      -3.869174      0.391366     -2.200339
  H      -1.849554      0.783153     -3.732199
  H      -1.582922     -0.928812     -3.302793
  H      -0.518315      0.340598     -2.652292
  H       0.848807      3.016453      1.278270
  H       3.008000      4.045648      1.968918
  H       5.137928      2.777470      1.660558
  H       5.119311      0.532617      0.686350
  H       0.640217     -3.162657     -1.438809
  H       2.720593     -4.492851     -1.778931
  H       4.924409     -3.528265     -1.105777
  H       5.056794     -1.293848     -0.119084
  H      -1.679519     -2.766527      0.276957
  H      -3.433553     -2.922256      0.564014
  H      -2.309464     -2.807566      1.940843
  H      -3.618253     -0.927801      2.782172
  H      -4.701095     -0.815701      1.369921
  H      -2.855147      1.345372      2.538194
  H      -4.544857      1.507494      1.986875
  H      -2.626321      2.840693     -0.921975
  H      -3.954827      3.233406      0.194132
  H      -2.265161      3.230393      0.776573
  H      -4.159637     -0.521538     -2.747511
  H      -4.511405      0.504409     -1.326649
  H      -4.032172      1.252824     -2.867578
>
50
-1432.47562056; 31P isotropic shielding: 298.939661 ppm
  C      -2.157880     -1.006113     -2.384663
  N      -2.253456      0.211882     -1.576626
  P      -1.949132      0.154862      0.089556
  O      -0.768781     -1.197291     -0.006617
  C       0.505903     -0.736425     -0.018075
  C       0.597749      0.593940      0.265662
  O      -0.633359      1.173332      0.483742
  C       1.827370      1.294675      0.333575
  C       1.898006      2.678936      0.623979
  C       3.122821      3.321605      0.676351
  C       4.307944      2.595134      0.438293
  C       4.253715      1.238303      0.151189
  C       3.025796      0.538591      0.087592
  C       2.938296     -0.887352     -0.213368
  C       1.656827     -1.534658     -0.268475
  C       1.559144     -2.915412     -0.562163
  C       2.699454     -3.664234     -0.797855
  C       3.965748     -3.045652     -0.745484
  C       4.076141     -1.691832     -0.461157
  N      -2.984546     -0.926666      0.906596
  C      -2.782905     -2.304772      1.358384
  C      -4.336564     -0.411499      1.145023
  C      -4.374512      0.966360      0.450920
  N      -3.010720      1.511710      0.498785
  C      -2.751556      2.236991      1.760332
  C      -1.980188      1.448883     -2.318622
  H      -1.135089     -1.206797     -2.745477
  H      -2.817836     -0.896590     -3.257473
  H      -2.493443     -1.872831     -1.808620
  H       0.973447      3.224269      0.799036
  H       3.171513      4.386229      0.899403
  H       5.271503      3.099999      0.478449
  H       5.185126      0.708258     -0.029125
  H       0.572067     -3.370810     -0.601026
  H       2.620338     -4.726549     -1.023031
  H       4.864131     -3.632291     -0.929643
  H       5.066945     -1.246816     -0.428879
  H      -3.280893     -3.027860      0.690409
  H      -3.222245     -2.417318      2.361533
  H      -1.723833     -2.547984      1.408775
  H      -4.534705     -0.343484      2.228800
  H      -5.086776     -1.093119      0.713544
  H      -5.079849      1.650669      0.935384
  H      -4.673221      0.844005     -0.597351
  H      -1.798410      2.764150      1.701028
  H      -3.549667      2.978009      1.899532
  H      -2.729735      1.588913      2.656840
  H      -2.138765      2.308869     -1.664640
  H      -0.949009      1.478011     -2.712119
  H      -2.673209      1.521873     -3.169923
>
50
-1432.46789370; 31P isotropic shielding: 285.485913 ppm
  C      -2.080602      1.448468     -2.290283
  N      -2.313467      0.194696     -1.562823
  P      -1.988970      0.120428      0.098884
  O      -0.784485     -1.208632     -0.035986
  C       0.481141     -0.724126     -0.046479
  C       0.550783      0.601561      0.264430
  O      -0.690001      1.153255      0.502390
  C       1.767121      1.323753      0.338913
  C       1.814534      2.702630      0.659058
  C       3.027655      3.366377      0.717518
  C       4.224294      2.667286      0.455946
  C       4.192951      1.316364      0.139393
  C       2.977613      0.595572      0.068377
  C       2.914221     -0.824824     -0.263381
  C       1.644672     -1.494904     -0.322777
  C       1.570416     -2.870634     -0.645998
  C       2.722546     -3.592232     -0.907256
  C       3.977401     -2.950997     -0.851411
  C       4.064915     -1.601991     -0.537974
  N      -2.990558     -0.990725      0.917860
  C      -2.755932     -2.369502      1.351502
  C      -4.348267     -0.504679      1.184777
  C      -4.425857      0.876630      0.501976
  N      -3.073155      1.450534      0.535851
  C      -2.811864      2.171160      1.799802
  C      -2.200849     -1.008195     -2.391257
  H      -1.058283      1.504303     -2.703419
  H      -2.243737      2.295243     -1.620491
  H      -2.791595      1.520338     -3.126862
  H       0.881516      3.226998      0.852298
  H       3.058352      4.426572      0.963664
  H       5.178744      3.188739      0.501042
  H       5.132745      0.807840     -0.058514
  H       0.591749     -3.343610     -0.686893
  H       2.661584     -4.650662     -1.155210
  H       4.885071     -3.516225     -1.055870
  H       5.047470     -1.139224     -0.503867
  H      -3.265148     -3.093065      0.692609
  H      -3.162396     -2.497033      2.366777
  H      -1.692685     -2.598404      1.366407
  H      -4.527620     -0.448422      2.272501
  H      -5.092089     -1.198681      0.762146
  H      -5.138856      1.542142      1.001170
  H      -4.736294      0.755557     -0.543059
  H      -2.752944      1.515775      2.689233
  H      -1.876479      2.727921      1.728400
  H      -3.629329      2.885992      1.961435
  H      -1.178628     -1.178540     -2.768794
  H      -2.508049     -1.891762     -1.825230
  H      -2.875155     -0.900165     -3.253227
>
50
-1432.46790483; 31P isotropic shielding: 285.942812 ppm
  C      -2.256907     -0.884061     -2.343875
  N      -1.889642      0.274466     -1.526823
  P      -1.917955      0.112688      0.174359
  O      -0.753013     -1.206187      0.245637
  C       0.525984     -0.743037      0.148940
  C       0.611017      0.603019      0.348090
  O      -0.608740      1.173228      0.592948
  C       1.840999      1.308516      0.325273
  C       1.916068      2.706664      0.535912
  C       3.137818      3.356224      0.503421
  C       4.316223      2.621192      0.257477
  C       4.258250      1.250380      0.049490
  C       3.032576      0.543584      0.075378
  C       2.943565     -0.897796     -0.138692
  C       1.664693     -1.552728     -0.099910
  C       1.565584     -2.949867     -0.304936
  C       2.700166     -3.705180     -0.545769
  C       3.963133     -3.078524     -0.587759
  C       4.075423     -1.709739     -0.388833
  N      -3.123829     -1.070418      0.564489
  C      -2.912416     -2.504940      0.783913
  C      -4.301868     -0.554082      1.254734
  C      -4.358981      0.923416      0.899450
  N      -2.967406      1.335799      0.805481
  C      -2.773821      2.783162      0.883364
  C      -2.262466      1.560226     -2.114558
  H      -1.805448     -1.791625     -1.935026
  H      -1.863999     -0.740441     -3.360026
  H      -3.349701     -1.036143     -2.411352
  H       0.997315      3.256891      0.725720
  H       3.189890      4.431516      0.666544
  H       5.277926      3.130520      0.230574
  H       5.184711      0.713801     -0.136559
  H       0.582621     -3.414105     -0.268044
  H       2.619197     -4.779645     -0.702459
  H       4.856739     -3.670733     -0.777007
  H       5.063256     -1.258628     -0.427496
  H      -3.892600     -2.999969      0.736968
  H      -2.464494     -2.723521      1.767315
  H      -2.273114     -2.938613      0.014743
  H      -4.215798     -0.688917      2.350123
  H      -5.202825     -1.088376      0.920263
  H      -4.875321      1.505079      1.676407
  H      -4.902324      1.081373     -0.053554
  H      -3.149147      3.151211      1.851329
  H      -1.720799      3.043660      0.804848
  H      -3.331819      3.308943      0.088186
  H      -1.775972      2.380141     -1.579586
  H      -1.909719      1.586688     -3.154447
  H      -3.354129      1.741990     -2.123161
>
50
-1432.46759328; 31P isotropic shielding: 292.213876 ppm
  C      -2.294690      1.500420     -2.137174
  N      -1.917552      0.220737     -1.537557
  P      -1.928844      0.056315      0.162251
  O      -0.725491     -1.231747      0.204168
  C       0.538161     -0.731884      0.123776
  C       0.588222      0.611657      0.347405
  O      -0.650773      1.143826      0.595337
  C       1.797289      1.351641      0.344441
  C       1.831533      2.746905      0.582688
  C       3.034992      3.430542      0.569070
  C       4.234527      2.733498      0.315098
  C       4.216121      1.365714      0.080572
  C       3.010659      0.624731      0.086447
  C       2.961350     -0.814204     -0.155706
  C       1.700908     -1.504635     -0.136453
  C       1.640987     -2.898794     -0.372695
  C       2.796673     -3.618229     -0.623443
  C       4.042141     -2.956884     -0.644226
  C       4.116007     -1.590004     -0.416172
  N      -3.062517     -1.133666      0.678662
  C      -2.995844     -2.592288      0.553115
  C      -4.420172     -0.618792      0.817916
  C      -4.249184      0.800161      1.334077
  N      -3.039070      1.294455      0.691632
  C      -2.692926      2.654773      1.108339
  C      -2.270653     -0.946542     -2.347275
  H      -1.918046      1.526525     -3.169315
  H      -1.829691      2.327257     -1.593583
  H      -3.386201      1.669935     -2.158845
  H       0.896095      3.266177      0.778551
  H       3.056416      4.503444      0.753501
  H       5.181681      3.269949      0.303086
  H       5.158340      0.859356     -0.111363
  H       0.670614     -3.389973     -0.355738
  H       2.745515     -4.690679     -0.804445
  H       4.952576     -3.520437     -0.840696
  H       5.091410     -1.111650     -0.439767
  H      -3.427292     -2.945755     -0.399687
  H      -3.580663     -3.039651      1.370234
  H      -1.970218     -2.944891      0.629367
  H      -4.988647     -1.241195      1.522668
  H      -4.958516     -0.626137     -0.149583
  H      -4.149728      0.801792      2.437801
  H      -5.110875      1.433855      1.075917
  H      -3.603653      3.269707      1.057995
  H      -2.307141      2.697814      2.141480
  H      -1.945155      3.098616      0.450308
  H      -1.802139     -1.845624     -1.939258
  H      -3.362667     -1.114516     -2.414468
  H      -1.890168     -0.801526     -3.367654
>
50
-1432.46771445; 31P isotropic shielding: 292.492385 ppm
  C      -2.494278      1.421811     -2.644240
  N      -2.653277      0.215423     -1.816274
  P      -1.954441      0.255030     -0.273074
  O      -0.753143     -1.036375     -0.788411
  C       0.494792     -0.667760     -0.423169
  C       0.583535      0.626490      0.002173
  O      -0.638477      1.284078     -0.016934
  C       1.788199      1.234784      0.428204
  C       1.846495      2.581157      0.865913
  C       3.049201      3.132744      1.271750
  C       4.224218      2.352622      1.250198
  C       4.181902      1.032714      0.823186
  C       2.976762      0.425096      0.399327
  C       2.899723     -0.960255     -0.053281
  C       1.640789     -1.514236     -0.469019
  C       1.555647     -2.856582     -0.908101
  C       2.684226     -3.657500     -0.941832
  C       3.927767     -3.130138     -0.536189
  C       4.026980     -1.815136     -0.104669
  N      -2.457590     -0.751558      0.989967
  C      -2.156105     -2.164652      1.242097
  C      -3.091791     -0.049537      2.119802
  C      -2.918951      1.447631      1.792821
  N      -3.015096      1.556669      0.324643
  C      -4.432158      1.515461     -0.097693
  C      -2.701873     -1.020143     -2.603380
  H      -2.432483      2.311160     -2.011900
  H      -3.359135      1.521452     -3.316854
  H      -1.580774      1.369455     -3.261710
  H       0.930579      3.167667      0.871959
  H       3.089338      4.168159      1.606488
  H       5.170234      2.786714      1.568859
  H       5.104582      0.458550      0.817586
  H       0.586898     -3.240206     -1.220334
  H       2.614111     -4.690095     -1.280084
  H       4.817277     -3.757336     -0.561519
  H       5.000384     -1.440298      0.199897
  H      -1.354624     -2.282332      1.988646
  H      -1.848808     -2.666202      0.326467
  H      -3.061738     -2.654058      1.630233
  H      -2.583511     -0.324580      3.056380
  H      -4.151682     -0.338480      2.216521
  H      -1.929443      1.791302      2.117197
  H      -3.677853      2.071076      2.278693
  H      -4.534086      1.792617     -1.148298
  H      -4.922677      0.534442      0.036876
  H      -4.982515      2.256712      0.497587
  H      -2.886452     -1.880802     -1.955022
  H      -3.541827     -0.939235     -3.308919
  H      -1.776652     -1.205021     -3.171864
>
50
-1432.45893364; 31P isotropic shielding: 274.995809 ppm
  C      -1.590215     -0.344081     -2.824966
  N      -2.498625     -0.043737     -1.710440
  P      -2.010992     -0.022824     -0.091843
  O      -0.721295     -1.226126     -0.479718
  C       0.517502     -0.733686     -0.244268
  C       0.513275      0.570589      0.158020
  O      -0.762722      1.089064      0.252389
  C       1.690772      1.299975      0.454511
  C       1.660519      2.651604      0.877652
  C       2.837518      3.323933      1.157258
  C       4.075224      2.661372      1.020637
  C       4.120280      1.337662      0.606247
  C       2.944214      0.609640      0.308787
  C       2.961259     -0.781672     -0.132355
  C       1.727882     -1.463118     -0.414777
  C       1.733428     -2.810096     -0.849350
  C       2.927783     -3.492297     -1.005486
  C       4.147222     -2.839846     -0.729283
  C       4.157385     -1.518893     -0.304544
  N      -2.578117     -1.055960      1.129068
  C      -2.375240     -2.498791      1.277191
  C      -3.692904     -0.536716      1.928425
  C      -3.641749      0.977869      1.762153
  N      -3.210645      1.150253      0.386200
  C      -3.117566      2.530659     -0.074895
  C      -3.911030     -0.070907     -2.109028
  H      -1.591200     -1.411884     -3.095697
  H      -0.565699     -0.044921     -2.597613
  H      -1.922954      0.234715     -3.699259
  H       0.696789      3.145397      0.977997
  H       2.809074      4.362727      1.482476
  H       5.001246      3.189419      1.241153
  H       5.089727      0.855768      0.511430
  H       0.781856     -3.292224     -1.062317
  H       2.927240     -4.528334     -1.340413
  H       5.088084     -3.373954     -0.850515
  H       5.114682     -1.045811     -0.102987
  H      -3.268848     -3.054634      0.944150
  H      -2.205414     -2.736878      2.337836
  H      -1.515752     -2.830813      0.700276
  H      -3.567619     -0.842104      2.977096
  H      -4.656547     -0.943278      1.569979
  H      -2.935848      1.431978      2.487894
  H      -4.628476      1.437084      1.923492
  H      -2.429317      3.138796      0.538028
  H      -2.761448      2.554215     -1.109693
  H      -4.113909      2.997664     -0.041984
  H      -4.166608     -1.048034     -2.552915
  H      -4.551178      0.107894     -1.245119
  H      -4.115247      0.706742     -2.862381
