33
-922.98416352; 31P isotropic shielding: 248.809599 ppm
  C      -0.175671     -1.926546      1.783123
  C      -0.206654     -2.293568      0.292262
  P      -0.026572     -0.855568     -0.934306
  C      -1.337478      0.296199     -0.323596
  C      -1.212406      1.125750      0.805481
  C      -2.276592      1.930027      1.220757
  C      -3.488817      1.913685      0.519958
  C      -3.626893      1.094916     -0.604739
  C      -2.555813      0.299374     -1.025375
  C       1.526617     -0.027443     -0.389853
  C       1.705749      1.346756     -0.644515
  C       2.921540      1.977220     -0.372617
  C       3.994675      1.246385      0.150663
  C       3.837957     -0.121587      0.392270
  C       2.618601     -0.751540      0.122763
  C      -1.481030     -3.083093     -0.064177
  H      -1.059128     -1.338737      2.060112
  H      -0.179529     -2.839837      2.396536
  H       0.715030     -1.346898      2.050256
  H       0.659563     -2.932617      0.060671
  H      -0.276532      1.149885      1.358007
  H      -2.161774      2.567591      2.096471
  H      -4.316909      2.541338      0.845539
  H      -4.563030      1.082270     -1.161004
  H      -2.660214     -0.324015     -1.912709
  H       0.884220      1.930283     -1.056169
  H       3.031996      3.042257     -0.572339
  H       4.943100      1.737074      0.362285
  H       4.666026     -0.703824      0.794386
  H       2.527888     -1.818569      0.314364
  H      -2.380961     -2.480905      0.118439
  H      -1.554479     -3.986475      0.557292
  H      -1.487182     -3.390488     -1.117538
>
33
-922.98416752; 31P isotropic shielding: 248.715289 ppm
  C      -1.819864     -2.738338      0.453136
  C      -0.373867     -2.210265      0.435950
  P      -0.214357     -0.826636     -0.842132
  C      -1.376031      0.425993     -0.122396
  C      -1.062311      1.248333      0.972626
  C      -2.004696      2.147046      1.480982
  C      -3.276911      2.236658      0.903774
  C      -3.599174      1.427530     -0.190626
  C      -2.651766      0.535266     -0.702865
  C       1.414647     -0.055600     -0.425134
  C       1.947277      0.824819     -1.385040
  C       3.160145      1.482520     -1.166588
  C       3.876812      1.255300      0.013817
  C       3.367034      0.372906      0.971368
  C       2.144836     -0.273295      0.755303
  C       0.622676     -3.336130      0.100408
  H      -2.533621     -1.966267      0.761218
  H      -2.119640     -3.102496     -0.539629
  H      -1.904755     -3.578892      1.156283
  H      -0.146393     -1.800561      1.431263
  H      -0.074421      1.195310      1.425245
  H      -1.745463      2.780007      2.328834
  H      -4.009120      2.938428      1.300082
  H      -4.583744      1.496541     -0.651099
  H      -2.900630     -0.083628     -1.564367
  H       1.401089      0.993113     -2.313079
  H       3.550583      2.164029     -1.920978
  H       4.827468      1.758244      0.183459
  H       3.919351      0.188886      1.892068
  H       1.764431     -0.944903      1.521125
  H       0.542836     -4.147892      0.837508
  H       1.661310     -2.985404      0.095578
  H       0.408467     -3.760320     -0.890197
>
33
-922.98511159; 31P isotropic shielding: 263.000182 ppm
  C       0.222582     -3.553363     -0.100280
  C      -0.526511     -2.264668      0.296724
  P      -0.148917     -0.846953     -0.911437
  C      -1.430328      0.366269     -0.354088
  C      -2.651466      0.362311     -1.050821
  C      -3.700438      1.205160     -0.669477
  C      -3.536905      2.080103      0.409025
  C      -2.321782      2.102886      1.103846
  C      -1.279476      1.250942      0.728599
  C       1.411817     -0.052515     -0.335157
  C       1.649251      1.288774     -0.699982
  C       2.864413      1.911620     -0.411291
  C       3.883088      1.204904      0.239243
  C       3.670814     -0.130824      0.590230
  C       2.450642     -0.752851      0.303511
  C      -0.417532     -1.954847      1.797849
  H      -0.187162     -4.412369      0.449952
  H       0.125351     -3.757619     -1.173942
  H       1.292940     -3.499341      0.132324
  H      -1.591680     -2.427214      0.064728
  H      -2.776208     -0.304015     -1.904304
  H      -4.638910      1.186551     -1.221689
  H      -4.347500      2.745171      0.702688
  H      -2.186833      2.782733      1.944189
  H      -0.340385      1.280782      1.275761
  H       0.871932      1.853167     -1.212427
  H       3.017635      2.951044     -0.698441
  H       4.832002      1.688938      0.463565
  H       4.455875     -0.695749      1.091211
  H       2.319617     -1.793611      0.581998
  H       0.613990     -1.741657      2.100646
  H      -0.762819     -2.819112      2.384633
  H      -1.035496     -1.094446      2.076711
>
33
-922.98151222; 31P isotropic shielding: 248.713353 ppm
  C      -1.491110     -2.983130      0.870237
  C      -0.215253     -2.120863      0.917544
  P      -0.111141     -1.067694     -0.647742
  C      -1.424251      0.209060     -0.386616
  C      -1.747272      1.001619     -1.503996
  C      -2.706199      2.013274     -1.417856
  C      -3.379293      2.239687     -0.211545
  C      -3.079512      1.451164      0.903400
  C      -2.107544      0.447863      0.817337
  C       1.403640     -0.065802     -0.275392
  C       1.422953      1.016457      0.620791
  C       2.611491      1.704764      0.880127
  C       3.800602      1.321038      0.248299
  C       3.792847      0.249275     -0.650032
  C       2.600645     -0.433192     -0.913668
  C       1.042660     -2.999943      1.037911
  H      -2.401261     -2.377351      0.789454
  H      -1.465974     -3.664521      0.008697
  H      -1.572475     -3.595790      1.779600
  H      -0.252316     -1.453010      1.790960
  H      -1.237935      0.820192     -2.450402
  H      -2.935295      2.618493     -2.293807
  H      -4.134748      3.020805     -0.143360
  H      -3.599873      1.618189      1.845719
  H      -1.885594     -0.142846      1.702830
  H       0.504069      1.330805      1.111428
  H       2.610159      2.543115      1.575731
  H       4.725304      1.859549      0.450047
  H       4.711804     -0.050391     -1.151964
  H       2.594674     -1.259690     -1.623657
  H       0.961082     -3.655170      1.916656
  H       1.952214     -2.398823      1.146713
  H       1.163099     -3.641531      0.153555
>
33
-922.98511424; 31P isotropic shielding: 262.855844 ppm
  C      -0.077438     -2.001822      1.700453
  C      -0.124905     -2.276417      0.190145
  P       0.034388     -0.766555     -0.949950
  C      -1.272805      0.342045     -0.256955
  C      -1.138759      1.097729      0.921840
  C      -2.198431      1.876648      1.393198
  C      -3.414503      1.907656      0.699473
  C      -3.561546      1.161762     -0.473744
  C      -2.495041      0.391813     -0.949987
  C       1.589729      0.036474     -0.374550
  C       1.759598      1.424227     -0.549307
  C       2.975087      2.043974     -0.252472
  C       4.056732      1.289252      0.216474
  C       3.909065     -0.091439      0.378433
  C       2.690200     -0.710945      0.083769
  C      -1.401386     -3.047775     -0.198215
  H      -0.078624     -2.951707      2.255569
  H       0.818014     -1.442997      1.994805
  H      -0.956250     -1.430248      2.022472
  H       0.739992     -2.897732     -0.089573
  H      -0.199369      1.083945      1.468638
  H      -2.077375      2.457641      2.306609
  H      -4.238820      2.515991      1.068413
  H      -4.500803      1.186733     -1.024318
  H      -2.605610     -0.173804     -1.874485
  H       0.930974      2.026347     -0.917669
  H       3.078492      3.119495     -0.390127
  H       5.004794      1.771629      0.447954
  H       4.743864     -0.691624      0.738016
  H       2.605851     -1.787775      0.213049
  H      -2.301009     -2.463502      0.036377
  H      -1.461295     -3.990111      0.364018
  H      -1.421712     -3.286004     -1.269153
