24
-778.65991198; 31P isotropic shielding: 259.303738 ppm
  C       1.776886     -2.157590     -0.176850
  C       0.415196     -1.728124      0.393829
  P      -0.126466      0.058483      0.064466
  C      -1.762264     -0.101080      0.918726
  C      -2.890960     -0.408960     -0.088742
  C       1.252415      0.897585      0.971247
  C       2.293864      1.523129      0.019045
  F       0.006963     -0.241966     -1.537494
  F      -0.643239      1.627985     -0.468772
  H       1.797815     -2.060349     -1.268169
  H       1.992322     -3.206188      0.070474
  H       2.599867     -1.554849      0.229433
  H       0.409154     -1.848958      1.488902
  H      -0.374555     -2.387933      0.004452
  H      -1.962686      0.847262      1.429106
  H      -1.692754     -0.897442      1.669422
  H      -2.713688     -1.353156     -0.619230
  H      -2.976214      0.390011     -0.832651
  H      -3.849926     -0.495907      0.437546
  H       1.727423      0.172508      1.642728
  H       0.791347      1.683381      1.581827
  H       2.774551      0.765639     -0.611065
  H       1.822790      2.262675     -0.635733
  H       3.077858      2.023645      0.601702
>
24
-778.66236960; 31P isotropic shielding: 264.290125 ppm
  C       1.619159     -2.407633     -0.352698
  C       0.461257     -1.745822      0.412945
  P      -0.003186      0.018941     -0.101927
  C      -1.459025      0.150766      1.033289
  C      -2.769389     -0.205707      0.298315
  C       1.585782      0.826314      0.411764
  C       1.428879      2.085236      1.284871
  F      -0.212281     -0.534283     -1.628928
  F      -0.482439      1.532475     -0.795344
  H       1.841180     -3.403167      0.055638
  H       2.544092     -1.818475     -0.291207
  H       1.371985     -2.527196     -1.413327
  H       0.694626     -1.692989      1.488608
  H      -0.443001     -2.365602      0.320507
  H      -1.507115      1.179892      1.403773
  H      -1.302196     -0.522487      1.884680
  H      -3.620103     -0.119013      0.985920
  H      -2.752652     -1.233173     -0.086321
  H      -2.936966      0.471905     -0.545432
  H       2.090497      1.083036     -0.530643
  H       2.207124      0.081432      0.920999
  H       2.418234      2.495686      1.526789
  H       0.850523      2.854982      0.766825
  H       0.927514      1.856079      2.234302
>
24
-778.66207651; 31P isotropic shielding: 262.431733 ppm
  C       0.245705     -2.849282     -0.089168
  C       1.045233     -1.567169      0.194175
  P       0.180388      0.083577     -0.151017
  C      -1.221990     -0.133696      1.038492
  C      -2.548552     -0.477831      0.327639
  C       1.622075      1.138818      0.355352
  C       1.301916      2.246811      1.375426
  F       0.003869     -0.382231     -1.709054
  F      -0.597139      1.535472     -0.696265
  H       0.844801     -3.741970      0.137464
  H      -0.051214     -2.904812     -1.142699
  H      -0.665552     -2.909624      0.519977
  H       1.976502     -1.573978     -0.391770
  H       1.345794     -1.531304      1.254317
  H      -1.329572      0.813443      1.579412
  H      -0.954866     -0.914390      1.760438
  H      -2.481710     -1.422853     -0.223609
  H      -2.822791      0.310582     -0.380187
  H      -3.353234     -0.575258      1.067645
  H       1.976293      1.585428     -0.584919
  H       2.420299      0.488547      0.730480
  H       2.207186      2.830344      1.589158
  H       0.535289      2.926223      0.992112
  H       0.949370      1.827853      2.327101
>
24
-778.66175141; 31P isotropic shielding: 261.349174 ppm
  C       1.298601     -2.287488      0.885884
  C       0.626607     -1.732801     -0.383766
  P       0.013164      0.065849     -0.315846
  C      -1.233189     -0.171777      1.031468
  C      -2.630119     -0.452994      0.434581
  C       1.647525      0.859681      0.048129
  C       1.681546      1.663464      1.361948
  F      -0.443849     -0.116852     -1.873404
  F      -0.633002      1.668958     -0.511524
  H       0.595928     -2.383299      1.722866
  H       2.132102     -1.660560      1.229424
  H       1.708689     -3.288773      0.696272
  H      -0.231042     -2.363871     -0.657774
  H       1.326452     -1.791011     -1.229654
  H      -1.260651      0.740803      1.634976
  H      -0.921965     -1.003693      1.671405
  H      -2.959888      0.379461     -0.195604
  H      -3.360130     -0.585764      1.243072
  H      -2.635504     -1.366206     -0.173826
  H       1.821422      1.529358     -0.804483
  H       2.433241      0.097060      0.038751
  H       2.661915      2.142199      1.484779
  H       0.915854      2.445372      1.359975
  H       1.516594      1.018785      2.234949
>
24
-778.66080224; 31P isotropic shielding: 257.264720 ppm
  C       1.157985     -2.408514      0.512518
  C       0.073701     -1.813287     -0.406265
  P      -0.055223      0.033941     -0.320941
  C      -1.848402      0.122377      0.306380
  C      -2.151224     -0.588482      1.638703
  C       0.713705      0.969954      1.079191
  C       0.848345      2.466429      0.719542
  F      -0.557710      0.849758     -1.642612
  F       1.499503      0.097508     -1.099632
  H       2.142437     -1.993175      0.274400
  H       1.204692     -3.497696      0.382643
  H       0.945162     -2.210327      1.570919
  H      -0.904088     -2.255582     -0.188450
  H       0.313823     -2.026489     -1.455758
  H      -2.480027     -0.298090     -0.489177
  H      -2.120825      1.185227      0.379227
  H      -3.224627     -0.536226      1.866038
  H      -1.622429     -0.134047      2.485859
  H      -1.879733     -1.651898      1.616294
  H       1.701467      0.540897      1.274084
  H       0.098196      0.850678      1.976536
  H      -0.127983      2.924076      0.516197
  H       1.305411      3.010602      1.555654
  H       1.478645      2.599166     -0.165848
>
24
-778.66072450; 31P isotropic shielding: 256.970504 ppm
  C       0.304540     -2.726813     -0.431552
  C       0.704661     -1.482591      0.378381
  P      -0.041075      0.174680     -0.172996
  C      -1.830091     -0.241170      0.084746
  C      -2.182000     -0.880340      1.441583
  C       0.796642      1.176400      1.142053
  C       2.108305      1.801486      0.619837
  F       0.651807     -0.083066     -1.636876
  F      -0.528114      1.671438     -0.897889
  H       0.803020     -3.625087     -0.041804
  H       0.583781     -2.620405     -1.485698
  H      -0.776606     -2.915387     -0.390680
  H       1.796018     -1.351358      0.335683
  H       0.457495     -1.621968      1.439777
  H      -2.098963     -0.918565     -0.738906
  H      -2.398168      0.680335     -0.063655
  H      -1.751435     -1.879138      1.562248
  H      -3.272114     -0.977361      1.526272
  H      -1.842723     -0.260206      2.281194
  H       0.998530      0.529980      2.004271
  H       0.102423      1.966510      1.448852
  H       1.912589      2.454295     -0.237154
  H       2.579619      2.399278      1.410183
  H       2.827157      1.033153      0.308328
>
24
-778.66043053; 31P isotropic shielding: 260.190656 ppm
  C       1.025770     -2.534337      0.648042
  C       0.718545     -1.557604     -0.501848
  P      -0.046621      0.133151     -0.062956
  C      -1.511462     -0.494023      0.872601
  C      -2.694162     -0.774308     -0.079790
  C       1.395110      0.800620      0.881311
  C       2.285452      1.684884     -0.018765
  F      -0.755268      1.718379      0.027407
  F      -0.139433      0.391805     -1.676278
  H       1.601584     -2.070433      1.459962
  H       1.618903     -3.382904      0.280503
  H       0.112931     -2.950953      1.091155
  H       0.048155     -2.041430     -1.225111
  H       1.641383     -1.335089     -1.056989
  H      -1.789653      0.266914      1.608065
  H      -1.226989     -1.407774      1.404538
  H      -2.440769     -1.536799     -0.826716
  H      -2.994135      0.136678     -0.609152
  H      -3.556360     -1.139455      0.492210
  H       1.977121     -0.033391      1.287732
  H       1.000410      1.390396      1.715822
  H       3.132103      2.073065      0.561366
  H       2.691617      1.118966     -0.866462
  H       1.717767      2.533244     -0.414249
>
24
-778.66093741; 31P isotropic shielding: 260.874638 ppm
  C       0.855734     -2.699284     -0.282733
  C       1.187529     -1.288130      0.236263
  P      -0.001399      0.082712     -0.313446
  C      -1.487062     -0.558860      0.599956
  C      -2.275143      0.500425      1.392830
  C       0.883449      1.527918      0.442020
  C       1.682042      1.317148      1.739269
  F       0.361705     -0.330047     -1.860977
  F      -1.050083      1.218195     -1.089686
  H       0.902905     -2.740029     -1.376296
  H      -0.148089     -3.026365      0.019642
  H       1.568588     -3.435707      0.112894
  H       2.199143     -1.008271     -0.091417
  H       1.197940     -1.288282      1.335532
  H      -1.164949     -1.370937      1.261413
  H      -2.129828     -1.005763     -0.171997
  H      -3.126000      0.028048      1.901788
  H      -2.656918      1.284991      0.734229
  H      -1.652235      0.971535      2.164346
  H       0.130713      2.310215      0.576407
  H       1.543817      1.881196     -0.365135
  H       1.056741      0.904882      2.541444
  H       2.539681      0.651107      1.603736
  H       2.065818      2.284706      2.088917
>
24
-778.65927828; 31P isotropic shielding: 260.613370 ppm
  C       1.625364     -2.152286     -0.120791
  C       0.179723     -1.697330      0.148276
  P      -0.184614      0.133896     -0.175293
  C      -1.992385      0.125668      0.258288
  C      -2.528967     -0.904571      1.265001
  C       0.977442      0.826979      1.091496
  C       2.258473      1.423907      0.470878
  F       0.284814     -0.116432     -1.726075
  F      -0.432019      1.758992     -0.731605
  H       1.736470     -3.226722      0.080081
  H       2.346282     -1.629522      0.520888
  H       1.913088     -1.975291     -1.163004
  H      -0.080587     -1.900931      1.196542
  H      -0.511754     -2.288808     -0.469257
  H      -2.492750      0.012717     -0.716062
  H      -2.219835      1.143570      0.590396
  H      -3.593592     -0.707672      1.449018
  H      -2.013409     -0.837728      2.231522
  H      -2.441534     -1.934340      0.904665
  H       1.226667      0.038500      1.811697
  H       0.424129      1.613184      1.619845
  H       2.009261      2.220477     -0.236837
  H       2.893506      1.846368      1.260236
  H       2.843927      0.665377     -0.061405
>
24
-778.65930396; 31P isotropic shielding: 262.337945 ppm
  C       0.859974     -2.737133      0.280836
  C       1.333383     -1.325827     -0.114370
  P       0.023433     -0.014500     -0.048434
  C      -1.363416     -0.221179      1.160089
  C      -2.546555      0.707694      0.811783
  C       0.992189      1.227151      1.007191
  C       2.252310      1.839151      0.373501
  F      -0.079164      1.129005     -1.214712
  F      -0.897531     -0.960835     -1.170975
  H       0.504996     -2.765878      1.319310
  H       1.694284     -3.446286      0.198713
  H       0.049811     -3.078122     -0.369663
  H       1.685013     -1.325050     -1.155874
  H       2.174834     -1.013556      0.513953
  H      -0.988316     -0.001769      2.167086
  H      -1.686934     -1.266614      1.126552
  H      -3.360099      0.565166      1.534194
  H      -2.930905      0.487127     -0.189574
  H      -2.254220      1.764909      0.840647
  H       1.251258      0.693929      1.936241
  H       0.296728      2.029995      1.293749
  H       2.973728      1.070676      0.064598
  H       1.999054      2.430850     -0.513107
  H       2.767142      2.500697      1.083767
>
24
-778.66208386; 31P isotropic shielding: 262.320575 ppm
  C       2.110989     -1.877140     -0.326964
  C       0.716953     -1.609326      0.264314
  P      -0.149372     -0.018993     -0.304132
  C      -1.696502     -0.310083      0.675568
  C      -2.328964      0.923951      1.342160
  C       1.055621      1.210410      0.392912
  C       1.606015      0.925111      1.801952
  F       0.002270     -0.587162     -1.838418
  F      -0.942307      1.293114     -1.100797
  H       2.817682     -1.066259     -0.105999
  H       2.062983     -1.985613     -1.415872
  H       2.540215     -2.801195      0.084329
  H       0.760270     -1.591666      1.362089
  H       0.040343     -2.435179     -0.000877
  H      -1.485230     -1.087653      1.418695
  H      -2.397446     -0.749307     -0.050911
  H      -3.225431      0.625846      1.902161
  H      -2.614179      1.672343      0.598649
  H      -1.638544      1.395527      2.053396
  H       0.558528      2.183466      0.365919
  H       1.875229      1.262777     -0.339352
  H       2.257224      0.046635      1.834368
  H       2.195793      1.786504      2.141777
  H       0.798860      0.774793      2.530034
>
24
-778.65985972; 31P isotropic shielding: 259.238543 ppm
  C       0.384068     -2.645533     -0.325469
  C       0.900313     -1.302642      0.222454
  P      -0.037768      0.239036     -0.363568
  C      -1.708885     -0.214872      0.309448
  C      -1.741754     -0.657984      1.784611
  C       0.917039      1.526583      0.581210
  C       1.800442      1.134114      1.775086
  F       0.406020     -0.182230     -1.888420
  F      -0.786690      1.569475     -1.183316
  H      -0.643253     -2.855532     -0.001104
  H       1.009936     -3.475424      0.030377
  H       0.398977     -2.661608     -1.420827
  H       1.946811     -1.163476     -0.083109
  H       0.899791     -1.321583      1.318903
  H      -2.087698     -1.016238     -0.341109
  H      -2.359214      0.649720      0.156627
  H      -1.301804      0.100958      2.443982
  H      -1.216009     -1.602233      1.956863
  H      -2.784084     -0.798224      2.099200
  H       0.170784      2.273308      0.876398
  H       1.518573      2.016392     -0.199036
  H       1.226301      0.647989      2.572792
  H       2.616682      0.462705      1.489612
  H       2.252121      2.039699      2.201896
>
24
-778.65720377; 31P isotropic shielding: 258.193283 ppm
  C       1.856230     -2.124708     -0.398662
  C       0.368760     -1.868597     -0.107515
  P      -0.210588     -0.064660     -0.109552
  C      -1.985450     -0.452941      0.274966
  C      -2.562976      0.289089      1.494335
  C       0.879336      0.533656      1.262885
  C       2.064038      1.380369      0.750866
  F       0.294472      0.052603     -1.661081
  F      -0.701508      1.583187     -0.344875
  H       2.136414     -1.742202     -1.386760
  H       2.079232     -3.200350     -0.380576
  H       2.508570     -1.647370      0.343978
  H       0.098773     -2.268180      0.883914
  H      -0.251010     -2.408298     -0.839000
  H      -2.093023     -1.536627      0.396748
  H      -2.533714     -0.165521     -0.633251
  H      -2.479997      1.372866      1.371214
  H      -2.046402      0.003871      2.420246
  H      -3.623831      0.034901      1.618931
  H       1.239648     -0.332254      1.830935
  H       0.251545      1.141361      1.924425
  H       2.718353      0.805140      0.085619
  H       1.703522      2.255411      0.201342
  H       2.667606      1.727457      1.599367
>
24
-778.66167209; 31P isotropic shielding: 260.939806 ppm
  C       1.124285     -2.294723      0.949970
  C       0.772667     -1.764307     -0.452320
  P      -0.006125     -0.032915     -0.480387
  C      -1.568235     -0.510259      0.409050
  C      -2.022367      0.353482      1.597923
  C       1.451979      0.858810      0.250936
  C       1.206184      1.637677      1.555131
  F      -0.047983     -0.131947     -2.107590
  F      -0.724321      1.529609     -0.720214
  H       0.241644     -2.374945      1.598103
  H       1.849979     -1.652407      1.465562
  H       1.568918     -3.296873      0.886476
  H       0.075806     -2.451842     -0.952940
  H       1.675591     -1.730252     -1.078575
  H      -1.501634     -1.562879      0.701857
  H      -2.314303     -0.447623     -0.397732
  H      -3.007680      0.014509      1.945026
  H      -2.101490      1.406152      1.313598
  H      -1.330123      0.273164      2.444114
  H       1.738796      1.556915     -0.547581
  H       2.275005      0.148140      0.378801
  H       0.397798      2.364856      1.436083
  H       0.950501      0.967528      2.384791
  H       2.117109      2.181129      1.839219
>
24
-778.65877035; 31P isotropic shielding: 258.336331 ppm
  C       1.815230     -2.107727      0.054313
  C       0.327927     -1.832182     -0.233056
  P      -0.189685     -0.049350     -0.201285
  C      -1.684723     -0.339616      0.941044
  C      -2.556605      0.875536      1.299617
  C       0.663981      1.134377      0.942525
  C       2.140325      1.491083      0.719509
  F       0.983736      0.252699     -1.423414
  F      -1.240256      0.514954     -1.326681
  H       2.093358     -1.794620      1.068881
  H       2.459622     -1.584861     -0.657752
  H       2.015994     -3.184634     -0.022689
  H      -0.307196     -2.394378      0.460442
  H       0.074884     -2.165714     -1.250176
  H      -1.295626     -0.814204      1.855914
  H      -2.304272     -1.098340      0.440142
  H      -2.005484      1.620039      1.887917
  H      -3.424470      0.568680      1.899670
  H      -2.934462      1.370961      0.397658
  H       0.502047      0.732987      1.952460
  H       0.046418      2.043636      0.887366
  H       2.293500      1.955990     -0.257819
  H       2.467497      2.196262      1.496326
  H       2.785861      0.608226      0.773888
>
24
-778.66033070; 31P isotropic shielding: 266.641731 ppm
  C       1.917757     -2.311392     -0.261857
  C       0.593511     -1.833291      0.359488
  P      -0.028795     -0.127093     -0.208323
  C      -1.614115     -0.259590      0.745465
  C      -2.529405      0.963659      0.888927
  C       1.374733      0.846939      0.521780
  C       0.971194      2.081236      1.349801
  F       0.019670     -0.692220     -1.747298
  F      -0.561139      1.322934     -0.964474
  H       2.214041     -3.284661      0.152853
  H       2.742406     -1.612453     -0.068284
  H       1.825504     -2.423343     -1.347766
  H       0.686400     -1.785327      1.455842
  H      -0.195981     -2.567054      0.141984
  H      -1.328830     -0.655232      1.730126
  H      -2.150633     -1.081982      0.247091
  H      -2.872054      1.320561     -0.086024
  H      -2.020115      1.795368      1.386668
  H      -3.408846      0.695664      1.490938
  H       1.980475      1.157393     -0.341862
  H       1.992010      0.170554      1.122860
  H       1.871144      2.589858      1.720685
  H       0.395163      2.790565      0.749646
  H       0.370605      1.799911      2.224435
>
24
-778.66053108; 31P isotropic shielding: 267.550977 ppm
  C       1.325340     -2.302808      0.948591
  C       0.857672     -1.756168     -0.413550
  P       0.021967     -0.041744     -0.429696
  C      -1.347832     -0.524180      0.722791
  C      -2.439155      0.486938      1.095713
  C       1.484437      0.904332      0.215526
  C       1.207108      1.714130      1.496394
  F      -0.167201     -0.251264     -2.040566
  F      -0.725508      1.483841     -0.725099
  H       1.973904     -3.178925      0.811610
  H       0.483748     -2.621243      1.575566
  H       1.902909     -1.564990      1.522029
  H       0.170896     -2.470176     -0.888491
  H       1.717887     -1.668853     -1.093121
  H      -0.839315     -0.892181      1.624029
  H      -1.789953     -1.417717      0.256439
  H      -3.157847      0.014664      1.780212
  H      -2.980862      0.834759      0.211446
  H      -2.021866      1.367309      1.594890
  H       1.753615      1.583524     -0.604527
  H       2.324944      0.219198      0.367191
  H       0.400425      2.436027      1.337773
  H       0.928032      1.062220      2.334419
  H       2.108157      2.266009      1.795231
>
24
-778.65925317; 31P isotropic shielding: 260.894283 ppm
  C       0.933139     -2.328445      1.160774
  C       0.992788     -1.646856     -0.218731
  P      -0.018875     -0.050887     -0.427221
  C      -1.677505     -0.762674     -0.009237
  C      -2.337243     -0.130068      1.230830
  C       0.911714      0.962328      0.811949
  C       2.007419      1.799084      0.115002
  F       0.455400     -0.044490     -1.989338
  F      -0.848249      1.415351     -0.866372
  H      -0.094593     -2.560348      1.469157
  H       1.380671     -1.713699      1.951655
  H       1.484380     -3.278422      1.143583
  H       0.642093     -2.344921     -0.992283
  H       2.036024     -1.411266     -0.474412
  H      -1.588608     -1.847614      0.109824
  H      -2.291631     -0.570983     -0.898498
  H      -2.456035      0.950337      1.101016
  H      -1.745972     -0.307284      2.138414
  H      -3.331231     -0.567236      1.392693
  H       1.360550      0.300212      1.559212
  H       0.199431      1.623788      1.314977
  H       2.736611      1.163144     -0.402677
  H       1.567575      2.482120     -0.618829
  H       2.551847      2.393430      0.859711
>
24
-778.66077680; 31P isotropic shielding: 257.043073 ppm
  C       0.687366     -2.881000     -0.416301
  C       1.245117     -1.531331      0.065222
  P       0.157589      0.012444     -0.178807
  C      -1.230964     -0.593650      0.889077
  C      -2.327807      0.377788      1.347230
  C       1.404348      1.190889      0.532984
  C       0.873315      2.181830      1.584447
  F       0.159972     -0.319695     -1.784692
  F      -0.772986      1.377036     -0.658856
  H       1.433508     -3.677985     -0.291759
  H       0.417593     -2.841087     -1.478001
  H      -0.204366     -3.184133      0.146898
  H       2.191050     -1.320335     -0.455507
  H       1.488208     -1.578960      1.138561
  H      -0.745975     -1.075711      1.749441
  H      -1.676133     -1.414768      0.307451
  H      -2.869395      0.795972      0.494643
  H      -1.917198      1.213879      1.922606
  H      -3.044279     -0.154871      1.987975
  H       1.782907      1.739215     -0.342405
  H       2.241444      0.612225      0.938798
  H       0.060948      2.791113      1.179273
  H       0.503835      1.660028      2.476670
  H       1.681701      2.851204      1.907554
>
24
-778.66029375; 31P isotropic shielding: 267.122208 ppm
  C       0.132515     -2.735143     -0.651814
  C       0.831367     -1.565518      0.060906
  P       0.094600      0.162092     -0.218843
  C      -1.570396     -0.124887      0.548850
  C      -1.597691     -0.908006      1.873882
  C       1.352926      1.046406      0.818354
  C       0.831223      2.192788      1.701862
  F       0.330616     -0.089588     -1.825081
  F      -0.475835      1.699079     -0.764154
  H       0.622360     -3.688723     -0.410914
  H       0.162019     -2.608888     -1.739498
  H      -0.921209     -2.830650     -0.357904
  H       1.878152     -1.505687     -0.272048
  H       0.866657     -1.741032      1.145143
  H      -2.159765     -0.645305     -0.220742
  H      -2.029799      0.858547      0.676523
  H      -2.617664     -0.897957      2.279944
  H      -0.942387     -0.452650      2.627093
  H      -1.300115     -1.954259      1.756849
  H       2.079713      1.433240      0.087476
  H       1.881396      0.300101      1.422751
  H       0.082997      1.837917      2.422424
  H       1.660790      2.626697      2.276064
  H       0.374232      2.981125      1.098579
