41
-1168.40820540; 31P isotropic shielding: 265.639418 ppm
  C       0.775630      3.169617      1.699138
  O      -0.081016      2.719183      0.615565
  P       0.554837      1.699236     -0.469923
  O       1.805868      2.128108     -1.120434
  O      -0.688965      1.539635     -1.471199
  C      -1.946955      0.956411     -0.995563
  C      -1.729854     -0.400124     -0.301747
  C      -0.711028     -0.219134      0.850219
  N       0.621170      0.231814      0.372415
  C       1.648711     -0.736348      0.151819
  C       1.346160     -2.101523     -0.002850
  C       2.369412     -3.040327     -0.173399
  C       3.705603     -2.637716     -0.211235
  C       4.007896     -1.277835     -0.067380
  C       2.997981     -0.335632      0.122141
  C      -3.070890     -1.078318      0.151870
  C      -3.742808     -0.318637      1.320103
  C      -2.774648     -2.529984      0.599145
  C      -4.058934     -1.144641     -1.038275
  H       1.652268      3.689733      1.296227
  H       1.098106      2.317014      2.312205
  H       0.173200      3.855291      2.301373
  H      -2.424875      1.681944     -0.324159
  H      -2.552196      0.856637     -1.898706
  H      -1.272583     -1.066749     -1.048858
  H      -0.565531     -1.143081      1.413128
  H      -1.081921      0.535239      1.554846
  H       0.316191     -2.444493     -0.004585
  H       2.110420     -4.091701     -0.290213
  H       4.499476     -3.368790     -0.350712
  H       5.044181     -0.944129     -0.091536
  H       3.244493      0.715463      0.227681
  H      -4.697016     -0.797458      1.576321
  H      -3.121497     -0.322285      2.223971
  H      -3.958331      0.725468      1.060973
  H      -3.708189     -3.039637      0.871423
  H      -2.114560     -2.571458      1.473699
  H      -2.304997     -3.104122     -0.210973
  H      -4.931256     -1.754502     -0.769144
  H      -3.590107     -1.602041     -1.920452
  H      -4.431644     -0.154129     -1.325621
>
41
-1168.40993790; 31P isotropic shielding: 275.080911 ppm
  C       1.548186      2.144641      1.993916
  O       0.337766      2.134085      1.186475
  P       0.455147      1.652835     -0.361116
  O       1.561961      2.259550     -1.124117
  O      -1.007203      2.016121     -0.889958
  C      -2.175694      1.349776     -0.314987
  C      -2.057185     -0.171134     -0.468039
  C      -0.780345     -0.672146      0.237533
  N       0.443468     -0.041883     -0.320197
  C       1.675128     -0.760885     -0.188505
  C       1.843418     -1.735046      0.812437
  C       3.042643     -2.448915      0.911226
  C       4.094546     -2.194434      0.028628
  C       3.929459     -1.220698     -0.964666
  C       2.732784     -0.514661     -1.084166
  C      -3.354699     -0.935695     -0.018766
  C      -4.550088     -0.461438     -0.881599
  C      -3.690308     -0.702348      1.473244
  C      -3.171824     -2.453117     -0.262546
  H       1.268671      2.584910      2.955319
  H       2.319970      2.752169      1.508002
  H       1.921413      1.123947      2.146015
  H      -2.263205      1.652001      0.736497
  H      -3.021588      1.756036     -0.873669
  H      -1.927438     -0.373630     -1.542751
  H      -0.671837     -1.747535      0.078122
  H      -0.855511     -0.500801      1.324028
  H       1.049202     -1.934117      1.526944
  H       3.151987     -3.200359      1.691961
  H       5.028096     -2.747925      0.109273
  H       4.737116     -1.015448     -1.665661
  H       2.609013      0.238342     -1.855407
  H      -5.435282     -1.074310     -0.667560
  H      -4.822503      0.581785     -0.681914
  H      -4.327540     -0.556085     -1.953185
  H      -4.598420     -1.257919      1.742670
  H      -3.878451      0.356141      1.691222
  H      -2.886695     -1.047190      2.135514
  H      -2.429551     -2.897376      0.411045
  H      -2.856999     -2.653289     -1.295799
  H      -4.120706     -2.978353     -0.093161
>
41
-1168.41123649; 31P isotropic shielding: 274.538591 ppm
  C       1.670658      2.352927      1.659912
  O       1.491157      2.444711      0.221354
  P       0.353143      1.601481     -0.526076
  O       0.399768      1.800868     -1.988848
  O      -0.987588      2.064131      0.243833
  C      -2.235675      1.342852     -0.007557
  C      -1.997903     -0.166850     -0.217421
  C      -0.757662     -0.608064      0.592573
  N       0.468582      0.007547      0.038896
  C       1.686170     -0.713275      0.007689
  C       2.685115     -0.388960     -0.933140
  C       3.897561     -1.078251     -0.933178
  C       4.139116     -2.111280     -0.019102
  C       3.146790     -2.441763      0.907630
  C       1.933764     -1.747265      0.931951
  C      -3.278568     -1.028381      0.059813
  C      -4.481552     -0.413929     -0.696950
  C      -3.611812     -1.104359      1.567751
  C      -3.056141     -2.460003     -0.481507
  H       0.752060      2.650599      2.178815
  H       2.480842      3.044669      1.905704
  H       1.954074      1.332684      1.945069
  H      -2.840961      1.536867      0.884128
  H      -2.723077      1.798215     -0.876027
  H      -1.741386     -0.317681     -1.276681
  H      -0.637253     -1.691962      0.518008
  H      -0.879346     -0.355845      1.657720
  H       2.496420      0.385387     -1.672733
  H       4.654968     -0.814111     -1.669638
  H       5.084244     -2.650232     -0.031847
  H       3.317209     -3.238561      1.630294
  H       1.190828     -1.997363      1.684910
  H      -4.259838     -0.297693     -1.766365
  H      -5.358789     -1.067482     -0.604768
  H      -4.762932      0.568689     -0.298730
  H      -4.542801     -1.666690      1.717285
  H      -3.755340     -0.110738      2.011115
  H      -2.824490     -1.617122      2.134115
  H      -2.238965     -2.978643      0.034580
  H      -2.821493     -2.442594     -1.554079
  H      -3.964098     -3.061633     -0.344198
>
41
-1168.40940421; 31P isotropic shielding: 280.239023 ppm
  C       1.518865      2.213640      1.924184
  O       0.317910      2.175512      1.103534
  P       0.453637      1.638773     -0.424284
  O       1.566662      2.221422     -1.197159
  O      -1.004174      1.977164     -0.981429
  C      -2.176114      1.328649     -0.393496
  C      -2.052561     -0.196223     -0.492791
  C      -0.781477     -0.668776      0.242188
  N       0.446880     -0.053566     -0.322360
  C       1.678693     -0.764328     -0.152940
  C       1.836854     -1.706339      0.879929
  C       3.036579     -2.413223      1.016026
  C       4.098909     -2.183496      0.139206
  C       3.943794     -1.241816     -0.886047
  C       2.747042     -0.543288     -1.042591
  C      -3.352476     -0.947809     -0.028754
  C      -4.539345     -0.511983     -0.923138
  C      -3.706013     -0.657039      1.448963
  C      -3.162093     -2.472961     -0.210666
  H       1.881597      1.197871      2.126342
  H       1.231644      2.698804      2.861411
  H       2.301148      2.793089      1.421073
  H      -2.273178      1.665746      0.646420
  H      -3.018197      1.713846     -0.972518
  H      -1.912516     -0.435735     -1.558536
  H      -0.668057     -1.748434      0.119297
  H      -0.868746     -0.462547      1.321735
  H       1.034463     -1.885686      1.590446
  H       3.137795     -3.139468      1.821323
  H       5.032698     -2.731563      0.248792
  H       4.759612     -1.056401     -1.583106
  H       2.630895      0.184930     -1.838324
  H      -5.425949     -1.116997     -0.693234
  H      -4.815066      0.538113     -0.769773
  H      -4.305271     -0.650639     -1.987436
  H      -3.908626      0.407234      1.620994
  H      -2.904925     -0.963930      2.132610
  H      -4.610198     -1.211889      1.732519
  H      -2.831429     -2.712136     -1.230581
  H      -4.112063     -2.994090     -0.034923
  H      -2.429002     -2.888733      0.490597
>
41
-1168.41123529; 31P isotropic shielding: 274.490108 ppm
  C       0.619819      3.639319      0.868158
  O       0.532542      2.186758      0.852855
  P       0.604474      1.431904     -0.589272
  O       1.710243      1.858438     -1.466264
  O      -0.848668      1.690167     -1.240965
  C      -2.029834      1.189376     -0.541462
  C      -1.955199     -0.335074     -0.370333
  C      -0.708003     -0.698913      0.458504
  N       0.546954     -0.180017     -0.151842
  C       1.749294     -0.932279      0.046456
  C       1.790807     -2.277629     -0.355419
  C       2.952762     -3.030974     -0.179165
  C       4.095417     -2.447462      0.380448
  C       4.059226     -1.104883      0.769256
  C       2.891698     -0.351931      0.617341
  C      -3.284023     -0.955888      0.192618
  C      -3.122080     -2.489008      0.329584
  C      -4.435127     -0.690447     -0.808160
  C      -3.670417     -0.367297      1.570522
  H       1.530175      3.968908      0.354658
  H       0.648666      3.933745      1.921182
  H      -0.258906      4.082436      0.381114
  H      -2.104981      1.697649      0.429491
  H      -2.871078      1.494330     -1.167991
  H      -1.805899     -0.758502     -1.376197
  H      -0.601352     -1.782670      0.520739
  H      -0.800812     -0.317722      1.488467
  H       0.918823     -2.724368     -0.829353
  H       2.971269     -4.071400     -0.499940
  H       5.004622     -3.032231      0.506337
  H       4.941416     -0.638668      1.205034
  H       2.867328      0.686640      0.935712
  H      -4.086577     -2.947465      0.583777
  H      -2.775562     -2.937691     -0.611680
  H      -2.413443     -2.763062      1.119963
  H      -4.181265     -1.060661     -1.810729
  H      -4.678570      0.375351     -0.891193
  H      -5.346561     -1.207066     -0.480229
  H      -3.878252      0.708439      1.513814
  H      -2.882654     -0.520582      2.318143
  H      -4.579674     -0.856267      1.944520
>
41
-1168.41034838; 31P isotropic shielding: 274.643023 ppm
  C       0.679557      3.511482      1.295133
  O       0.588382      2.070979      1.109459
  P       0.614125      1.495075     -0.413704
  O       1.700677      2.013300     -1.264732
  O      -0.850860      1.843346     -0.992820
  C      -2.028123      1.269052     -0.345331
  C      -1.958612     -0.265419     -0.340868
  C      -0.699221     -0.717560      0.423703
  N       0.546865     -0.156542     -0.166573
  C       1.734846     -0.952797     -0.125589
  C       1.710576     -2.251951     -0.660043
  C       2.858440     -3.046259     -0.637017
  C       4.051959     -2.549183     -0.100944
  C       4.080985     -1.251478      0.419065
  C       2.929481     -0.459824      0.420959
  C      -3.279599     -0.939791      0.175178
  C      -4.461670     -0.513433     -0.729890
  C      -3.604791     -0.557360      1.638829
  C      -3.144643     -2.478719      0.076825
  H       0.731236      3.678956      2.374765
  H      -0.207738      4.009339      0.882201
  H       1.580145      3.899838      0.805899
  H      -2.099448      1.669022      0.675739
  H      -2.871492      1.641789     -0.930856
  H      -1.829697     -0.579053     -1.388770
  H      -0.603895     -1.803430      0.388810
  H      -0.765843     -0.427707      1.484551
  H       0.797555     -2.629771     -1.116202
  H       2.824473     -4.049725     -1.058557
  H       4.949272     -3.164964     -0.093715
  H       5.002833     -0.851769      0.838539
  H       2.957995      0.542409      0.839560
  H      -5.363620     -1.079111     -0.462243
  H      -4.704270      0.550898     -0.627088
  H      -4.242430     -0.712051     -1.787922
  H      -2.808752     -0.860817      2.329617
  H      -4.527242     -1.059869      1.958713
  H      -3.762733      0.521932      1.756811
  H      -2.398838     -2.878509      0.773884
  H      -2.863878     -2.788406     -0.939353
  H      -4.103406     -2.955319      0.319175
>
41
-1168.41038100; 31P isotropic shielding: 274.895564 ppm
  C       0.762096      3.451693      1.386533
  O       0.646199      2.017776      1.166885
  P       0.641663      1.479761     -0.370366
  O       1.723225      2.006382     -1.222720
  O      -0.827521      1.861538     -0.916604
  C      -1.996976      1.281956     -0.260295
  C      -1.950937     -0.252243     -0.315194
  C      -0.686313     -0.753653      0.408535
  N       0.558569     -0.176572     -0.168001
  C       1.744913     -0.977758     -0.146579
  C       1.726113     -2.248974     -0.743740
  C       2.871836     -3.046591     -0.740526
  C       4.057261     -2.579014     -0.161477
  C       4.080802     -1.308447      0.421689
  C       2.930696     -0.514896      0.443181
  C      -3.274344     -0.923688      0.199172
  C      -4.453269     -0.489802     -0.706204
  C      -3.598120     -0.541752      1.663341
  C      -3.147402     -2.463100      0.099463
  H       0.834086      3.591626      2.468912
  H      -0.124559      3.971939      1.000777
  H       1.660052      3.838886      0.891601
  H      -2.035174      1.643423      0.776531
  H      -2.849820      1.688739     -0.808491
  H      -1.844885     -0.528017     -1.376280
  H      -0.602704     -1.837076      0.314330
  H      -0.737390     -0.520283      1.484391
  H       0.819298     -2.600650     -1.232163
  H       2.843409     -4.028357     -1.210726
  H       4.953170     -3.196857     -0.169752
  H       4.996685     -0.932473      0.874823
  H       2.952555      0.465396      0.911391
  H      -5.363784     -1.035815     -0.426868
  H      -4.676629      0.580002     -0.618117
  H      -4.241928     -0.706870     -1.762135
  H      -4.508757     -1.060390      1.991112
  H      -3.776079      0.534729      1.778038
  H      -2.791730     -0.826881      2.350039
  H      -2.416439     -2.868515      0.808974
  H      -2.850973     -2.773147     -0.912167
  H      -4.113394     -2.933727      0.323986
>
41
-1168.41034241; 31P isotropic shielding: 274.860797 ppm
  C       1.428776      2.713204      0.993576
  O       0.203465      2.370883      0.287139
  P       0.313651      1.396131     -1.008146
  O       1.363375      1.758496     -1.978784
  O      -1.179689      1.484734     -1.566840
  C      -2.291996      0.999020     -0.750065
  C      -2.085147     -0.475553     -0.385406
  C      -0.765738     -0.644019      0.394940
  N       0.405617     -0.181771     -0.393335
  C       1.681810     -0.746008     -0.069960
  C       2.708724     -0.762096     -1.032906
  C       3.949326     -1.318480     -0.723156
  C       4.190299     -1.885119      0.535063
  C       3.169508     -1.881235      1.488058
  C       1.926006     -1.310474      1.195341
  C      -3.324870     -1.107190      0.344525
  C      -3.648458     -0.394214      1.678569
  C      -3.053381     -2.604745      0.626449
  C      -4.561017     -1.020830     -0.584763
  H       2.154242      3.151687      0.299102
  H       1.861719      1.824417      1.469689
  H       1.145525      3.443584      1.756819
  H      -2.371590      1.636772      0.139548
  H      -3.174564      1.149258     -1.375564
  H      -1.964665     -1.022059     -1.333880
  H      -0.596518     -1.703110      0.603589
  H      -0.823823     -0.117819      1.362040
  H       2.525656     -0.324355     -2.008538
  H       4.731992     -1.320187     -1.480328
  H       5.158160     -2.326146      0.765515
  H       3.337615     -2.314646      2.472971
  H       1.156487     -1.296748      1.962399
  H      -3.905354      0.661727      1.528353
  H      -4.510118     -0.874840      2.160744
  H      -2.809780     -0.441119      2.384250
  H      -3.967776     -3.089686      0.991918
  H      -2.279795     -2.752937      1.389256
  H      -2.736808     -3.128874     -0.285656
  H      -4.349692     -1.466948     -1.566095
  H      -4.892794      0.011897     -0.744662
  H      -5.403680     -1.567606     -0.142069
>
41
-1168.41108594; 31P isotropic shielding: 274.438506 ppm
  C       1.387567      2.597820      1.425639
  O       0.217832      2.324906      0.603348
  P       0.427930      1.493514     -0.777530
  O       1.563587      1.935754     -1.608629
  O      -1.009682      1.674256     -1.448676
  C      -2.195891      1.124879     -0.792252
  C      -2.040191     -0.385355     -0.579247
  C      -0.795669     -0.667259      0.287065
  N       0.446230     -0.143959     -0.336784
  C       1.683739     -0.754858      0.049601
  C       1.804669     -1.439843      1.272293
  C       3.012162     -2.052774      1.623931
  C       4.117880     -1.980481      0.773990
  C       3.999341     -1.294270     -0.441417
  C       2.796057     -0.694014     -0.810760
  C      -3.346010     -1.065472     -0.027232
  C      -3.133862     -2.595827      0.062315
  C      -4.512418     -0.808452     -1.012582
  C      -3.743476     -0.531105      1.369286
  H       2.168308      3.075214      0.823132
  H       1.774460      1.670195      1.865935
  H       1.051720      3.273623      2.217278
  H      -2.347821      1.661479      0.153231
  H      -3.016283      1.362883     -1.472452
  H      -1.847174     -0.826809     -1.569330
  H      -0.656208     -1.746312      0.389392
  H      -0.936926     -0.252202      1.298682
  H       0.965510     -1.487834      1.960948
  H       3.085072     -2.580140      2.574015
  H       5.057648     -2.454626      1.050384
  H       4.849895     -1.235298     -1.118854
  H       2.707901     -0.163238     -1.752915
  H      -4.076480     -3.090271      0.330736
  H      -2.800468     -3.007930     -0.899901
  H      -2.395157     -2.870472      0.824319
  H      -4.243921     -1.112144     -2.033582
  H      -4.811599      0.246051     -1.038617
  H      -5.394114     -1.388461     -0.710921
  H      -4.657792     -1.032355      1.713236
  H      -3.946390      0.546908      1.355664
  H      -2.964476     -0.719919      2.117860
>
41
-1168.41131605; 31P isotropic shielding: 274.132411 ppm
  C       2.163075      3.391251      0.482107
  O       1.447976      2.172089      0.831297
  P       0.356273      1.557683     -0.169348
  O       0.476597      2.010097     -1.577519
  O      -1.025651      1.911983      0.580120
  C      -2.255956      1.247826      0.148281
  C      -2.014305     -0.233058     -0.216976
  C      -0.800726     -0.765528      0.579087
  N       0.440610     -0.096968      0.127996
  C       1.650037     -0.823713      0.002911
  C       2.641886     -0.407757     -0.907790
  C       3.842506     -1.111007     -1.007014
  C       4.076334     -2.247559     -0.223608
  C       3.089554     -2.668134      0.672507
  C       1.889576     -1.961973      0.795225
  C      -3.304588     -1.112711     -0.079188
  C      -4.475150     -0.417851     -0.816878
  C      -3.696742     -1.339527      1.398837
  C      -3.061800     -2.483675     -0.752597
  H       2.255733      3.482465     -0.604910
  H       3.149719      3.312572      0.947946
  H       1.624134      4.256260      0.887104
  H      -2.925473      1.348749      1.008674
  H      -2.673227      1.807679     -0.695760
  H      -1.722172     -0.270086     -1.277191
  H      -0.676728     -1.834190      0.388088
  H      -0.950444     -0.629154      1.660741
  H       2.451576      0.447739     -1.551319
  H       4.595119     -0.776228     -1.719465
  H       5.011372     -2.796965     -0.312486
  H       3.255597     -3.545502      1.296043
  H       1.152707     -2.283095      1.526966
  H      -4.763918      0.525708     -0.337727
  H      -4.212952     -0.203303     -1.861735
  H      -5.359797     -1.067992     -0.819126
  H      -2.933855     -1.913299      1.939474
  H      -4.635035     -1.907108      1.453963
  H      -3.853256     -0.395570      1.936345
  H      -2.269719     -3.056570     -0.255232
  H      -2.779284     -2.361196     -1.806759
  H      -3.975903     -3.090883     -0.717684
>
41
-1168.40977515; 31P isotropic shielding: 272.420585 ppm
  C       0.957397      2.885006      1.850866
  O       1.236111      2.764836      0.432673
  P       0.479305      1.667460     -0.465562
  O       0.990060      1.661530     -1.849207
  O      -1.065750      2.060614     -0.214197
  C      -2.120434      1.149954     -0.667328
  C      -1.824078     -0.327106     -0.296242
  C      -0.775820     -0.331690      0.839449
  N       0.526800      0.180895      0.354362
  C       1.624983     -0.703365      0.155521
  C       2.930460     -0.177943      0.105482
  C       4.023834     -1.018244     -0.099396
  C       3.847339     -2.399694     -0.240842
  C       2.554281     -2.925863     -0.189051
  C       1.449157     -2.089568     -0.002984
  C      -3.119488     -1.153188      0.003176
  C      -4.118821     -0.977535     -1.165636
  C      -3.791227     -0.714629      1.324460
  C      -2.753208     -2.653012      0.097795
  H      -0.071422      3.230229      2.008927
  H       1.663362      3.624951      2.237891
  H       1.113027      1.922173      2.354491
  H      -3.014668      1.519575     -0.157189
  H      -2.248227      1.280824     -1.747137
  H      -1.341663     -0.801533     -1.163587
  H      -0.616853     -1.334054      1.237667
  H      -1.116591      0.294221      1.674286
  H       3.085258      0.891590      0.223434
  H       5.023447     -0.588496     -0.139228
  H       4.703803     -3.053421     -0.392518
  H       2.394527     -3.996317     -0.310140
  H       0.454419     -2.525269     -0.004630
  H      -3.658754     -1.256121     -2.123442
  H      -4.995816     -1.620657     -1.014794
  H      -4.481253      0.054513     -1.250427
  H      -3.142897     -0.898520      2.190346
  H      -4.718863     -1.280586      1.481193
  H      -4.055583      0.350505      1.321154
  H      -3.658397     -3.258865      0.235724
  H      -2.087983     -2.864140      0.944140
  H      -2.256574     -2.995359     -0.819998
>
41
-1168.40711354; 31P isotropic shielding: 275.762670 ppm
  C       1.469755      3.816029      0.983489
  O       1.088342      2.420873      1.163272
  P       0.516674      1.603742     -0.101402
  O       1.176784      1.917395     -1.388975
  O      -1.063049      1.918781      0.017048
  C      -2.000273      1.057826     -0.706690
  C      -1.801790     -0.449865     -0.365198
  C      -0.781036     -0.563756      0.788805
  N       0.530176     -0.004579      0.383022
  C       1.633305     -0.855539      0.101960
  C       2.943162     -0.348718      0.188756
  C       4.036971     -1.163487     -0.100528
  C       3.854782     -2.503340     -0.462271
  C       2.556352     -3.013318     -0.540467
  C       1.452153     -2.199503     -0.270919
  C      -3.150618     -1.206586     -0.118550
  C      -4.080959     -0.989570     -1.336339
  C      -3.859045     -0.718824      1.165344
  C      -2.873679     -2.723885      0.002899
  H       2.077766      3.929838      0.079409
  H       2.046762      4.088338      1.871610
  H       0.572665      4.443749      0.913862
  H      -2.979986      1.421918     -0.387212
  H      -1.891770      1.244804     -1.781132
  H      -1.332613     -0.929178     -1.236976
  H      -0.625016     -1.602633      1.081275
  H      -1.133010     -0.024658      1.676069
  H       3.100941      0.683102      0.490741
  H       5.041309     -0.748872     -0.029584
  H       4.711347     -3.138291     -0.679238
  H       2.392680     -4.050887     -0.827948
  H       0.453283     -2.614531     -0.371778
  H      -3.594361     -1.313916     -2.266431
  H      -5.003726     -1.572816     -1.218608
  H      -4.371597      0.061523     -1.455630
  H      -4.056685      0.360397      1.144104
  H      -3.266381     -0.933946      2.063044
  H      -4.825747     -1.227040      1.278631
  H      -2.283860     -2.969309      0.894358
  H      -2.334403     -3.098522     -0.877846
  H      -3.818909     -3.277647      0.075927
>
41
-1168.40834530; 31P isotropic shielding: 268.095344 ppm
  C       0.951970      3.095680      1.651817
  O       0.441073      1.851435      1.093685
  P       0.471788      1.637677     -0.508684
  O       1.548809      2.376593     -1.202084
  O      -0.986401      2.037579     -1.061096
  C      -2.139312      1.330598     -0.501758
  C      -2.134209     -0.175597     -0.880378
  C      -0.736119     -0.568906     -1.419024
  N       0.389341     -0.043156     -0.606746
  C       1.446554     -0.876648     -0.151748
  C       1.276522     -2.265652      0.009372
  C       2.317761     -3.062543      0.493183
  C       3.549381     -2.501294      0.836709
  C       3.727979     -1.123737      0.671142
  C       2.700887     -0.320103      0.177175
  C      -2.715002     -1.073324      0.266960
  C      -1.829789     -1.071628      1.534356
  C      -2.874786     -2.524024     -0.241974
  C      -4.125739     -0.546728      0.633555
  H       1.115030      2.904888      2.716251
  H       0.214255      3.897812      1.523162
  H       1.890079      3.375217      1.161431
  H      -2.127429      1.471125      0.584044
  H      -3.009600      1.850463     -0.910173
  H      -2.814569     -0.307326     -1.736071
  H      -0.639314     -0.186364     -2.444659
  H      -0.641015     -1.650965     -1.486415
  H       0.332663     -2.743614     -0.230020
  H       2.152529     -4.132918      0.607067
  H       4.356741     -3.124640      1.215319
  H       4.685568     -0.664425      0.911922
  H       2.884029      0.737214      0.009805
  H      -1.657185     -0.060506      1.920408
  H      -2.322060     -1.650192      2.327799
  H      -0.850373     -1.523118      1.353654
  H      -1.911142     -2.996871     -0.465191
  H      -3.488354     -2.561173     -1.152963
  H      -3.367889     -3.141129      0.520387
  H      -4.596418     -1.208255      1.372371
  H      -4.779264     -0.510564     -0.249423
  H      -4.092391      0.458421      1.072330
>
41
-1168.40771115; 31P isotropic shielding: 272.401726 ppm
  C       0.782918      1.669184      2.207256
  O       1.127468      2.127126      0.872485
  P       0.365855      1.633423     -0.438799
  O       0.914034      2.241517     -1.670792
  O      -1.185718      1.962998     -0.126401
  C      -2.156244      1.354271     -1.038155
  C      -2.146232     -0.182603     -0.947916
  C      -0.712362     -0.695413     -1.218945
  N       0.333646     -0.060653     -0.362095
  C       1.539817     -0.796785     -0.148119
  C       2.799234     -0.268780     -0.480601
  C       3.960450     -0.992472     -0.193498
  C       3.886379     -2.256458      0.399265
  C       2.631924     -2.792679      0.713922
  C       1.468483     -2.067692      0.451956
  C      -2.875513     -0.799873      0.300566
  C      -4.334096     -0.281959      0.343667
  C      -2.192905     -0.462785      1.644335
  C      -2.933526     -2.338583      0.140619
  H       0.940887      0.588452      2.292783
  H      -0.257974      1.917954      2.438163
  H       1.455864      2.199744      2.886209
  H      -3.120712      1.784692     -0.761338
  H      -1.915325      1.675047     -2.061350
  H      -2.734682     -0.518860     -1.818349
  H      -0.467715     -0.514214     -2.279462
  H      -0.653687     -1.773439     -1.063032
  H       2.864419      0.697573     -0.974728
  H       4.928696     -0.567656     -0.453648
  H       4.793284     -2.818889      0.612598
  H       2.557991     -3.773556      1.181124
  H       0.500366     -2.477816      0.731464
  H      -4.897643     -0.809658      1.123861
  H      -4.387020      0.788267      0.576058
  H      -4.850378     -0.449604     -0.612236
  H      -2.751276     -0.926728      2.469163
  H      -2.166650      0.617623      1.817470
  H      -1.164201     -0.833743      1.679384
  H      -3.537690     -2.777904      0.944790
  H      -1.941352     -2.802662      0.192321
  H      -3.391516     -2.624407     -0.816696
>
41
-1168.40725649; 31P isotropic shielding: 274.948201 ppm
  C       0.933581      3.142516      1.811088
  O      -0.104669      2.534148      0.994741
  P       0.359776      1.636282     -0.262161
  O       1.501120      2.168450     -1.035127
  O      -1.081918      1.527980     -0.974931
  C      -1.416541      0.217044     -1.537812
  C      -1.700622     -0.812024     -0.422127
  C      -0.710185     -0.553793      0.752081
  N       0.567274      0.060656      0.318454
  C       1.700512     -0.757175      0.047768
  C       2.997055     -0.208210      0.058286
  C       4.106063     -1.016616     -0.188132
  C       3.958041     -2.387753     -0.430323
  C       2.674696     -2.938139     -0.433354
  C       1.553445     -2.133492     -0.206215
  C      -3.196518     -0.863516      0.043836
  C      -4.071399     -1.391193     -1.116799
  C      -3.714954      0.527297      0.476540
  C      -3.330023     -1.851311      1.227951
  H       1.490763      2.370031      2.358154
  H       0.416603      3.795936      2.519075
  H       1.618958      3.724271      1.184998
  H      -2.285438      0.395276     -2.174734
  H      -0.590708     -0.117372     -2.178168
  H      -1.475689     -1.800284     -0.852280
  H      -0.482363     -1.475281      1.292407
  H      -1.166279      0.134961      1.471334
  H       3.127646      0.853614      0.237860
  H       5.098614     -0.568746     -0.179608
  H       4.828664     -3.014258     -0.613444
  H       2.534509     -4.000985     -0.625060
  H       0.566542     -2.586214     -0.238273
  H      -5.118843     -1.473175     -0.797963
  H      -4.048771     -0.726432     -1.989256
  H      -3.740128     -2.387281     -1.442127
  H      -3.689844      1.247337     -0.349310
  H      -3.124828      0.951053      1.297571
  H      -4.754562      0.445864      0.821030
  H      -2.808953     -1.494603      2.124562
  H      -2.926051     -2.840159      0.968773
  H      -4.386974     -1.982005      1.494694
>
41
-1168.40900152; 31P isotropic shielding: 267.202933 ppm
  C       0.836625      3.320151      1.493359
  O       0.396439      1.990917      1.087859
  P       0.461690      1.615296     -0.490113
  O       1.581914      2.251243     -1.212867
  O      -0.981813      2.008976     -1.095355
  C      -2.137095      1.333831     -0.500888
  C      -2.159857     -0.175745     -0.855789
  C      -0.748890     -0.635968     -1.300310
  N       0.328487     -0.060418     -0.457897
  C       1.453105     -0.869253     -0.111827
  C       2.140134     -0.639722      1.093396
  C       3.241106     -1.426689      1.435211
  C       3.664782     -2.464786      0.598073
  C       2.978695     -2.699411     -0.596999
  C       1.887573     -1.904074     -0.957795
  C      -2.802531     -1.045169      0.281201
  C      -3.042658     -2.480688     -0.240874
  C      -4.180049     -0.444019      0.655699
  C      -1.909344     -1.111244      1.541094
  H       0.102795      4.073827      1.180741
  H       1.811909      3.547242      1.050751
  H       0.903116      3.296530      2.584820
  H      -2.100781      1.489625      0.582768
  H      -3.008892      1.858737     -0.899339
  H      -2.803635     -0.302101     -1.739608
  H      -0.599647     -0.376275     -2.358285
  H      -0.671052     -1.722220     -1.223956
  H       1.799290      0.147843      1.758089
  H       3.762163     -1.234794      2.371989
  H       4.518905     -3.080739      0.872462
  H       3.302442     -3.495087     -1.266259
  H       1.393201     -2.074670     -1.910630
  H      -3.561040     -3.078559      0.520159
  H      -3.665264     -2.476586     -1.146431
  H      -2.104976     -2.999086     -0.475547
  H      -4.689969     -1.090126      1.382082
  H      -4.827682     -0.357465     -0.228035
  H      -4.091070      0.550316      1.110710
  H      -1.671533     -0.115934      1.934393
  H      -0.960189     -1.620442      1.341890
  H      -2.428207     -1.668462      2.332858
>
41
-1168.40870724; 31P isotropic shielding: 268.707736 ppm
  C       1.843134      2.691519      1.657135
  O       0.806765      1.727047      1.321838
  P       0.275564      1.570648     -0.179032
  O       0.968289      2.402986     -1.196038
  O      -1.296399      1.875388     -0.002029
  C      -2.200925      1.343329     -1.018292
  C      -2.180974     -0.192807     -1.039110
  C      -0.739674     -0.659297     -1.337440
  N       0.276299     -0.101191     -0.403479
  C       1.478249     -0.845352     -0.200394
  C       2.743635     -0.271414     -0.414227
  C       3.902853     -1.006704     -0.148953
  C       3.821644     -2.327122      0.302686
  C       2.562366     -2.907474      0.496681
  C       1.400107     -2.173066      0.256988
  C      -2.898708     -0.901340      0.167309
  C      -4.357771     -0.390857      0.255903
  C      -2.209467     -0.668462      1.532400
  C      -2.952633     -2.423587     -0.110582
  H       2.703572      2.134409      2.043332
  H       1.442551      3.351851      2.433596
  H       2.131107      3.271809      0.774761
  H      -3.183658      1.748887     -0.768382
  H      -1.903388      1.741002     -1.999704
  H      -2.764158     -0.473731     -1.932509
  H      -0.482738     -0.373854     -2.372467
  H      -0.668245     -1.746944     -1.288040
  H       2.811962      0.739062     -0.810152
  H       4.875317     -0.546645     -0.318268
  H       4.726365     -2.899284      0.498704
  H       2.482946     -3.932996      0.854216
  H       0.428485     -2.622314      0.448943
  H      -4.917618     -0.980029      0.993486
  H      -4.409251      0.657314      0.573516
  H      -4.876730     -0.483072     -0.708983
  H      -1.178534     -1.034251      1.536938
  H      -2.764512     -1.203472      2.315618
  H      -2.183465      0.392811      1.797346
  H      -3.411708     -2.639422     -1.085884
  H      -3.551823     -2.925526      0.659931
  H      -1.958032     -2.885350     -0.096165
>
41
-1168.40847116; 31P isotropic shielding: 268.912754 ppm
  C       1.635068      2.583021      1.769814
  O       0.385278      2.051562      1.243410
  P       0.336560      1.528627     -0.282205
  O       1.306634      2.185236     -1.186480
  O      -1.236323      1.726240     -0.543981
  C      -1.849785      0.752768     -1.447873
  C      -1.996265     -0.618918     -0.754339
  C      -0.800533     -0.846645      0.212647
  N       0.424586     -0.162361     -0.268271
  C       1.695481     -0.786565     -0.058145
  C       1.899941     -1.682627      1.005650
  C       3.146105     -2.292280      1.185372
  C       4.207860     -2.002718      0.324563
  C       4.007914     -1.099605     -0.727183
  C       2.764070     -0.500549     -0.927825
  C      -3.383483     -0.839387     -0.058974
  C      -3.713648      0.296771      0.935531
  C      -3.376976     -2.192798      0.691681
  C      -4.487706     -0.904234     -1.140067
  H       1.367802      3.149662      2.666461
  H       2.113293      3.234233      1.030998
  H       2.310945      1.760579      2.034781
  H      -2.811436      1.189138     -1.726869
  H      -1.235701      0.671207     -2.352559
  H      -1.917870     -1.375525     -1.550523
  H      -0.576777     -1.914339      0.266786
  H      -1.059297     -0.514078      1.228322
  H       1.095714     -1.896512      1.705073
  H       3.285673     -2.986603      2.012709
  H       5.177995     -2.474314      0.469114
  H       4.824765     -0.867762     -1.408972
  H       2.608685      0.199460     -1.742838
  H      -4.684422      0.105369      1.412172
  H      -2.963596      0.381081      1.731139
  H      -3.772366      1.271695      0.437592
  H      -2.676757     -2.194548      1.535725
  H      -3.104061     -3.018245      0.019360
  H      -4.375502     -2.406992      1.094697
  H      -5.463280     -1.100684     -0.676242
  H      -4.288626     -1.709926     -1.860084
  H      -4.578258      0.034468     -1.700965
>
41
-1168.40945685; 31P isotropic shielding: 263.438632 ppm
  C       1.903281      2.905115      1.096264
  O       0.729745      2.046668      0.996504
  P       0.250760      1.486597     -0.424434
  O       1.002281      1.993271     -1.599681
  O      -1.315589      1.849386     -0.375746
  C      -2.222948      1.119602     -1.261387
  C      -2.160507     -0.399409     -1.031339
  C      -0.699484     -0.865945     -1.205820
  N       0.217288     -0.202169     -0.240435
  C       1.464382     -0.854727      0.032749
  C       2.111308     -1.647782     -0.928597
  C       3.316659     -2.285020     -0.619230
  C       3.899855     -2.126519      0.641318
  C       3.258229     -1.332421      1.599493
  C       2.045024     -0.708401      1.304734
  C      -2.907900     -0.908834      0.256891
  C      -2.505773     -0.160621      1.549829
  C      -2.633443     -2.417467      0.456890
  C      -4.429237     -0.727878      0.032048
  H       1.626148      3.752625      1.730849
  H       2.212136      3.249929      0.104916
  H       2.710479      2.329619      1.563606
  H      -3.212668      1.532484     -1.049873
  H      -1.959602      1.360543     -2.300999
  H      -2.701468     -0.843088     -1.884339
  H      -0.393276     -0.670269     -2.248334
  H      -0.613865     -1.943251     -1.044434
  H       1.686773     -1.752687     -1.923498
  H       3.808231     -2.895493     -1.375221
  H       4.841336     -2.619062      0.876936
  H       3.695015     -1.213034      2.589951
  H       1.529837     -0.112613      2.052722
  H      -1.436357     -0.264278      1.755400
  H      -2.732834      0.908940      1.491786
  H      -3.063171     -0.578572      2.399677
  H      -1.596065     -2.606695      0.757395
  H      -2.838668     -2.993119     -0.457170
  H      -3.280274     -2.812937      1.250770
  H      -4.987607     -1.101944      0.899884
  H      -4.770494     -1.283807     -0.852542
  H      -4.706036      0.325663     -0.101034
>
41
-1168.40775305; 31P isotropic shielding: 265.516695 ppm
  C       2.089471      2.726824      1.242208
  O       0.885457      1.911822      1.140738
  P       0.296835      1.509433     -0.291991
  O       0.981661      2.117561     -1.459944
  O      -1.252733      1.903118     -0.099799
  C      -2.198906      1.309844     -1.044981
  C      -2.213684     -0.224192     -0.952732
  C      -0.784790     -0.750281     -1.220084
  N       0.218790     -0.184923     -0.277648
  C       1.446286     -0.906871     -0.119600
  C       2.006754     -1.651452     -1.170259
  C       3.194515     -2.362286     -0.973637
  C       3.846646     -2.327303      0.262450
  C       3.290756     -1.583665      1.310315
  C       2.094929     -0.887221      1.128020
  C      -2.945246     -0.827734      0.302257
  C      -4.393100     -0.280681      0.349890
  C      -2.251603     -0.509581      1.647698
  C      -3.028136     -2.364962      0.139310
  H       2.914087      2.083334      1.569649
  H       1.889518      3.497915      1.992579
  H       2.328003      3.181101      0.275888
  H      -3.164901      1.754881     -0.797819
  H      -1.921383      1.627130     -2.060606
  H      -2.807061     -0.554588     -1.822280
  H      -0.520428     -0.520651     -2.266717
  H      -0.746076     -1.837614     -1.111452
  H       1.528063     -1.662734     -2.145920
  H       3.618255     -2.933845     -1.798038
  H       4.774414     -2.876833      0.409990
  H       3.780400     -1.561019      2.282872
  H       1.645827     -0.331320      1.945780
  H      -4.967080     -0.804642      1.124897
  H      -4.422491      0.787866      0.594426
  H      -4.913527     -0.427354     -0.607555
  H      -1.240704     -0.925813      1.686338
  H      -2.834782     -0.947084      2.470089
  H      -2.175226      0.568786      1.819623
  H      -2.041401     -2.840582      0.192374
  H      -3.491663     -2.643647     -0.817894
  H      -3.637947     -2.795637      0.943969
