53
-1797.54940838; 31P isotropic shielding: 264.196950 ppm
  C       0.169759      1.759702      2.414883
  C       0.316560      2.265004      0.971270
  P       0.288646      0.890062     -0.254204
  N       1.525476     -0.041087     -0.150362
  Si      3.223131     -0.019457     -0.122578
  C       3.858769     -1.749543     -0.539914
  C       3.881135      0.456892      1.590702
  C       3.941821      1.206827     -1.380636
  N      -1.123034     -0.017307     -0.012422
  Si     -0.801664     -1.791874      0.124341
  C      -0.064095     -2.472589     -1.471010
  C       0.173943     -2.224849      1.675627
  C      -2.444001     -2.719932      0.329415
  Si     -2.770736      0.635122     -0.168075
  C      -3.885375      0.064869      1.246344
  C      -3.477310      0.138809     -1.845663
  C      -2.847347      2.523834     -0.062711
  C       0.148204      1.703086     -1.893252
  H       0.317107      2.578957      3.129967
  H       0.907348      0.979442      2.633451
  H      -0.827061      1.335798      2.585572
  H      -0.438896      3.021568      0.735561
  H       1.298897      2.738584      0.827754
  H       4.956351     -1.795589     -0.501649
  H       3.467483     -2.494878      0.166071
  H       3.545379     -2.053969     -1.548026
  H       3.573990      1.474445      1.870883
  H       4.979570      0.421479      1.627028
  H       3.499841     -0.227332      2.361355
  H       5.041059      1.183773     -1.386983
  H       3.597610      0.975830     -2.398330
  H       3.637771      2.238612     -1.151471
  H      -0.735541     -2.264232     -2.316507
  H       0.914848     -2.039137     -1.687350
  H       0.042438     -3.564701     -1.399456
  H       1.221401     -1.927229      1.600546
  H       0.119556     -3.308185      1.856986
  H      -0.264012     -1.721914      2.548896
  H      -2.894503     -2.582236      1.318284
  H      -3.201203     -2.498533     -0.430671
  H      -2.198061     -3.787914      0.233110
  H      -4.310900     -0.931493      1.100726
  H      -3.342348      0.065653      2.200813
  H      -4.721099      0.772310      1.342775
  H      -2.899125      0.600008     -2.657953
  H      -4.520547      0.469071     -1.948876
  H      -3.453072     -0.946293     -2.000342
  H      -2.607794      2.888909      0.943374
  H      -2.229186      3.067367     -0.783871
  H      -3.893040      2.800337     -0.262841
  H       1.027990      2.340210     -2.043362
  H      -0.755792      2.308035     -2.011704
  H       0.156458      0.913576     -2.653115
>
53
-1797.55594046; 31P isotropic shielding: 257.140073 ppm
  C      -0.066134      1.773084      2.478717
  C       0.204656      2.275233      1.051922
  P       0.313238      0.893500     -0.159456
  N       1.537498     -0.022385      0.107088
  Si      3.233270     -0.042366      0.011143
  C       3.860534     -1.652051      0.776030
  C       4.010729      1.415482      0.944669
  C       3.825658      0.037900     -1.788892
  N      -1.113527     -0.019898     -0.069440
  Si     -0.808978     -1.794833      0.102028
  C      -2.460082     -2.729085      0.101956
  C       0.120310     -2.474259     -1.391171
  C      -0.024523     -2.213519      1.759369
  Si     -2.740719      0.632661     -0.370948
  C      -3.297191      0.157481     -2.110889
  C      -2.834897      2.520261     -0.262789
  C      -3.976857      0.039975      0.929333
  C       0.340393      1.698353     -1.810362
  H       0.674205      1.019820      2.771883
  H      -1.058851      1.313221      2.554569
  H      -0.018283      2.600425      3.197969
  H      -0.538116      3.016157      0.741127
  H       1.188879      2.761974      0.997280
  H       4.954828     -1.730718      0.708773
  H       3.584586     -1.720748      1.837281
  H       3.429267     -2.523511      0.264596
  H       5.109127      1.366707      0.933895
  H       3.687344      1.428479      1.994839
  H       3.721347      2.376553      0.495082
  H       3.517207      0.978501     -2.266600
  H       4.920814     -0.027531     -1.861881
  H       3.401060     -0.786874     -2.377870
  H      -2.201271     -3.796470      0.039871
  H      -3.031245     -2.590314      1.025768
  H      -3.115307     -2.510401     -0.748350
  H       1.131854     -2.069382     -1.465859
  H      -0.420920     -2.231341     -2.316855
  H       0.182273     -3.570214     -1.326639
  H       0.991001     -1.821286      1.839173
  H      -0.626346     -1.792037      2.576770
  H      -0.000231     -3.304423      1.896728
  H      -3.281978     -0.926524     -2.273598
  H      -4.320346      0.509995     -2.303439
  H      -2.640538      0.613130     -2.864543
  H      -2.156446      3.067804     -0.924686
  H      -2.689139      2.883258      0.761577
  H      -3.859469      2.791774     -0.556908
  H      -3.509947     -0.019429      1.921256
  H      -4.799483      0.765944      0.994869
  H      -4.415174     -0.936049      0.703665
  H       0.460578      0.910164     -2.561824
  H       1.208898      2.366240     -1.863050
  H      -0.563353      2.273972     -2.033476
>
53
-1797.55583770; 31P isotropic shielding: 257.322618 ppm
  C       0.108501      2.155159      2.134271
  C       0.268576      2.413447      0.627855
  P       0.296900      0.849209     -0.342391
  N       1.535989     -0.025013     -0.012590
  Si      3.227350     -0.060690     -0.159627
  C       3.766534     -0.176564     -1.974363
  C       3.881277     -1.579330      0.755092
  C       4.032766      1.487599      0.585138
  N      -1.118289     -0.021785     -0.005223
  Si     -0.797514     -1.746796      0.432565
  C       0.027216     -2.669434     -0.989888
  C       0.096226     -1.899473      2.081375
  C      -2.441346     -2.655297      0.703718
  Si     -2.763611      0.584887     -0.295243
  C      -3.902536      0.228621      1.169451
  C      -3.438881     -0.169360     -1.888304
  C      -2.859444      2.464387     -0.501849
  C       0.211961      1.367258     -2.102152
  H      -0.873740      1.722454      2.359771
  H       0.206321      3.089590      2.701161
  H       0.872203      1.454888      2.491664
  H      -0.501180      3.097111      0.256877
  H       1.241759      2.881669      0.421954
  H       4.860117     -0.239824     -2.069946
  H       3.337449     -1.065742     -2.456955
  H       3.434487      0.702329     -2.544919
  H       4.970577     -1.676861      0.644890
  H       3.420682     -2.498882      0.368812
  H       3.658080     -1.523084      1.829351
  H       5.130229      1.436132      0.542248
  H       3.725528      2.395018      0.045198
  H       3.745118      1.613597      1.638228
  H       1.026467     -2.284655     -1.205036
  H       0.104767     -3.738993     -0.746720
  H      -0.582393     -2.584587     -1.900921
  H      -0.427721     -1.309457      2.846409
  H       1.128392     -1.549564      2.023706
  H       0.090935     -2.948003      2.413347
  H      -3.156059     -2.590555     -0.124227
  H      -2.177963     -3.717811      0.814260
  H      -2.950037     -2.354319      1.625536
  H      -4.361715     -0.763417      1.137775
  H      -3.364650      0.323162      2.121983
  H      -4.714832      0.969095      1.174939
  H      -3.436351     -1.265319     -1.866712
  H      -2.833864      0.144990     -2.749740
  H      -4.472201      0.159263     -2.068496
  H      -2.662724      2.997355      0.436212
  H      -2.221476      2.890245     -1.282770
  H      -3.899978      2.684524     -0.782879
  H       1.061381      2.026836     -2.318383
  H      -0.715496      1.885944     -2.364087
  H       0.307211      0.465046     -2.716665
>
53
-1797.55587045; 31P isotropic shielding: 257.561335 ppm
  C       0.112046      2.130765      2.160603
  C       0.274035      2.406375      0.657486
  P       0.298486      0.853631     -0.331074
  N       1.535370     -0.027575     -0.011416
  Si      3.227116     -0.062052     -0.154661
  C       3.769766     -0.170730     -1.968774
  C       3.879859     -1.584001      0.755432
  C       4.031090      1.483327      0.597814
  N      -1.118587     -0.018389     -0.004853
  Si     -0.801220     -1.749630      0.410150
  C       0.022555     -2.655523     -1.023646
  C       0.091312     -1.926357      2.057294
  C      -2.446387     -2.659579      0.668261
  Si     -2.762880      0.595622     -0.285291
  C      -3.900349      0.222708      1.176132
  C      -3.441859     -0.136084     -1.887279
  C      -2.854143      2.477856     -0.467492
  C       0.215006      1.392521     -2.084633
  H       0.871549      1.421716      2.509558
  H      -0.872748      1.701055      2.380607
  H       0.215124      3.057637      2.738849
  H      -0.493284      3.096734      0.293985
  H       1.248802      2.873954      0.457811
  H       4.863575     -0.232186     -2.062887
  H       3.342540     -1.058734     -2.455166
  H       3.437281      0.709718     -2.536688
  H       4.969255     -1.681198      0.645796
  H       3.419585     -2.502185      0.365536
  H       3.655860     -1.531465      1.829717
  H       3.726351      2.392890      0.060079
  H       3.740713      1.606000      1.650554
  H       5.128633      1.431002      0.557848
  H       0.096178     -3.728461     -0.794469
  H      -0.585571     -2.556813     -1.934281
  H       1.023410     -2.271464     -1.232492
  H      -0.429732     -1.342882      2.829279
  H       1.125203     -1.580922      2.003943
  H       0.080669     -2.978740      2.376685
  H      -2.954676     -2.372338      1.594715
  H      -3.161333     -2.582002     -0.158390
  H      -2.183990     -3.723911      0.762769
  H      -3.361928      0.309005      2.129164
  H      -4.714142      0.961472      1.189554
  H      -4.357621     -0.769829      1.134973
  H      -4.473642      0.199623     -2.063142
  H      -3.444526     -1.232229     -1.879353
  H      -2.835471      0.186156     -2.744838
  H      -3.894529      2.704798     -0.743520
  H      -2.653651      2.997945      0.476942
  H      -2.216291      2.911524     -1.244228
  H       0.306517      0.497117     -2.709586
  H       1.066943      2.051238     -2.293511
  H      -0.710570      1.917889     -2.339966
>
53
-1797.55586484; 31P isotropic shielding: 257.492572 ppm
  C       0.131066      1.564199      2.603108
  C       0.284929      2.184810      1.205609
  P       0.294938      0.907264     -0.120084
  N       1.533515     -0.023430     -0.031873
  Si      3.225072     -0.023386     -0.177704
  C       3.867716     -1.750582      0.240966
  C       4.035126      1.222857      1.001688
  C       3.777817      0.402252     -1.941741
  N      -1.121808     -0.016546      0.010380
  Si     -0.805907     -1.797890      0.023512
  C      -0.008319     -2.357694     -1.590572
  C       0.114859     -2.338501      1.572183
  C      -2.452509     -2.736726      0.092651
  Si     -2.763797      0.648671     -0.151478
  C      -3.933822     -0.038110      1.163495
  C      -3.407535      0.293362     -1.889076
  C      -2.849983      2.522032      0.107333
  C       0.197942      1.839346     -1.698823
  H       0.257282      2.325996      3.382719
  H       0.879711      0.780168      2.765307
  H      -0.859825      1.111010      2.727797
  H      -0.479388      2.946637      1.021694
  H       1.262244      2.679723      1.112628
  H       3.627580     -2.026476      1.276927
  H       3.417352     -2.507465     -0.415814
  H       4.959031     -1.811235      0.123832
  H       5.132559      1.173408      0.953510
  H       3.737498      1.030374      2.041823
  H       3.743242      2.254460      0.757241
  H       3.326246     -0.285407     -2.670298
  H       3.481534      1.423015     -2.222194
  H       4.869946      0.334518     -2.050404
  H       0.065901     -3.454542     -1.612496
  H      -0.631301     -2.054721     -2.444404
  H       0.990169     -1.935266     -1.724227
  H       1.147434     -1.985319      1.575765
  H       0.109409     -3.435762      1.646276
  H      -0.389785     -1.945192      2.465796
  H      -3.171157     -2.470098     -0.690193
  H      -2.198384     -3.796903     -0.055126
  H      -2.951132     -2.658700      1.064466
  H      -3.425303     -0.146475      2.130593
  H      -4.760591      0.672486      1.303534
  H      -4.370372     -1.005458      0.900746
  H      -4.446890      0.632751     -2.002097
  H      -3.376900     -0.775637     -2.130740
  H      -2.801608      0.817767     -2.640485
  H      -2.207593      3.124204     -0.542651
  H      -3.888627      2.813261     -0.108369
  H      -2.649597      2.803102      1.148466
  H       1.072349      2.497133     -1.772680
  H      -0.709832      2.441837     -1.799779
  H       0.240300      1.110179     -2.515538
>
53
-1797.55578597; 31P isotropic shielding: 257.543976 ppm
  C       0.108105      2.066352      2.231804
  C       0.278683      2.389320      0.739000
  P       0.301288      0.869099     -0.299149
  N       1.536852     -0.023257     -0.007348
  Si      3.229259     -0.057305     -0.139819
  C       3.781603     -0.126882     -1.952706
  C       3.873784     -1.600541      0.740067
  C       4.030854      1.469548      0.651954
  N      -1.117624     -0.010970     -0.004709
  Si     -0.805585     -1.756824      0.347993
  C       0.018944     -2.612460     -1.116034
  C       0.083600     -1.995024      1.989327
  C      -2.451974     -2.673100      0.568811
  Si     -2.761104      0.615327     -0.263329
  C      -3.896623      0.193748      1.186657
  C      -3.442530     -0.060558     -1.888222
  C      -2.847331      2.502775     -0.381782
  C       0.220678      1.464409     -2.034531
  H       0.856451      1.335107      2.558554
  H      -0.883238      1.643376      2.434794
  H       0.222641      2.971465      2.841485
  H      -0.482951      3.095037      0.393550
  H       1.256993      2.857327      0.558871
  H       3.450641      0.765303     -2.503033
  H       4.875943     -0.185240     -2.043002
  H       3.357364     -1.004506     -2.460145
  H       3.643694     -1.571675      1.814015
  H       4.963439     -1.699669      0.634666
  H       3.412300     -2.507853      0.326655
  H       3.732840      2.392134      0.132933
  H       3.732140      1.568908      1.704929
  H       5.128608      1.415589      0.619962
  H      -0.591977     -2.486982     -2.021556
  H       1.018052     -2.218277     -1.314675
  H       0.097549     -3.692032     -0.922176
  H       1.117287     -1.646943      1.950134
  H       0.073803     -3.058667      2.268969
  H      -0.438893     -1.441312      2.781947
  H      -2.962417     -2.424018      1.505146
  H      -3.165191     -2.562465     -0.255551
  H      -2.190185     -3.740637      0.620848
  H      -4.359407     -0.794050      1.106875
  H      -3.354859      0.238604      2.140586
  H      -4.706515      0.935491      1.232622
  H      -4.471232      0.288821     -2.055547
  H      -3.454007     -1.156367     -1.915313
  H      -2.831629      0.283830     -2.733961
  H      -2.212094      2.959126     -1.147719
  H      -3.888486      2.742929     -0.643400
  H      -2.638367      2.990090      0.578074
  H       1.077865      2.121987     -2.224621
  H      -0.701056      2.005487     -2.270734
  H       0.303018      0.588325     -2.687564
>
53
-1797.55583076; 31P isotropic shielding: 257.666462 ppm
  C       0.229857      1.028097      2.774068
  C       0.146031      1.912880      1.520462
  P       0.291782      0.931929     -0.033963
  N       1.529219     -0.003858     -0.033551
  Si      3.223612      0.021035     -0.143597
  C       3.891798     -1.642209      0.454311
  C       3.983147      1.396991      0.920741
  C       3.794909      0.289032     -1.931556
  N      -1.120393      0.005589     -0.201256
  Si     -0.793585     -1.772988     -0.278419
  C       0.154019     -2.239732     -1.837344
  C      -0.016583     -2.428402      1.307936
  C      -2.436794     -2.712269     -0.411730
  Si     -2.771758      0.663562     -0.103915
  C      -2.864054      2.539239     -0.351682
  C      -3.492569      0.288325      1.598845
  C      -3.884392     -0.009831     -1.475150
  C       0.324069      2.175654     -1.381406
  H       1.165742      0.459591      2.787381
  H      -0.596793      0.309578      2.808738
  H       0.184826      1.641642      3.682860
  H      -0.778065      2.502235      1.519355
  H       0.981619      2.627705      1.498417
  H       4.986744     -1.691113      0.371331
  H       3.627099     -1.819731      1.505787
  H       3.473468     -2.468830     -0.136241
  H       3.648015      2.389700      0.586532
  H       5.081559      1.388769      0.871809
  H       3.696492      1.287226      1.975918
  H       3.465532      1.265962     -2.313003
  H       4.890226      0.250284     -2.020013
  H       3.377517     -0.480998     -2.594992
  H       1.190085     -1.896789     -1.805902
  H       0.142734     -3.331748     -1.967230
  H      -0.328816     -1.798986     -2.720973
  H       0.098550     -3.519612      1.232078
  H      -0.672182     -2.229376      2.167325
  H       0.961273     -1.985076      1.504647
  H      -2.185879     -3.774664     -0.275652
  H      -3.174312     -2.459378      0.358324
  H      -2.912465     -2.617007     -1.393233
  H      -2.654996      2.824444     -1.390147
  H      -3.907215      2.822549     -0.147410
  H      -2.233642      3.144890      0.306321
  H      -4.551428      0.579113      1.648778
  H      -2.957852      0.845765      2.379318
  H      -3.426190     -0.776742      1.850938
  H      -4.701637      0.705682     -1.643177
  H      -3.334192     -0.109187     -2.420228
  H      -4.335546     -0.978068     -1.242588
  H       0.285301      1.640347     -2.336786
  H       1.280565      2.708587     -1.319159
  H      -0.491354      2.901693     -1.336618
>
53
-1797.55519244; 31P isotropic shielding: 257.641222 ppm
  C       0.170348      1.702387      2.444037
  C       0.319940      2.238375      1.011440
  P       0.291430      0.889868     -0.243738
  N       1.527790     -0.044116     -0.158443
  Si      3.225311     -0.023067     -0.137235
  C       3.857437     -1.751273     -0.567173
  C       3.892505      0.442804      1.575371
  C       3.939793      1.210286     -1.390551
  N      -1.121976     -0.020263     -0.023442
  Si     -0.805073     -1.797807      0.084468
  C      -0.066460     -2.454480     -1.520256
  C       0.166786     -2.255348      1.630775
  C      -2.449137     -2.725719      0.268877
  Si     -2.767631      0.638355     -0.171844
  C      -3.891672      0.041565      1.223969
  C      -3.467235      0.180061     -1.862825
  C      -2.841619      2.524557     -0.026530
  C       0.155057      1.737674     -1.865559
  H      -0.828684      1.279815      2.605171
  H       0.321528      2.505016      3.176909
  H       0.903883      0.913740      2.645581
  H      -0.433640      3.001708      0.791704
  H       1.303381      2.713067      0.879767
  H       4.955186     -1.799519     -0.536068
  H       3.469281     -2.499088      0.138054
  H       3.536949     -2.050626     -1.574621
  H       3.589172      1.459407      1.863383
  H       4.991124      0.405009      1.605443
  H       3.514262     -0.245165      2.344305
  H       3.591997      0.985483     -2.408481
  H       3.637426      2.241054     -1.154575
  H       5.039048      1.186333     -1.400545
  H      -0.750541     -2.259154     -2.358730
  H       0.900480     -1.997685     -1.743161
  H       0.067063     -3.544020     -1.454211
  H      -0.277417     -1.771854      2.511896
  H       1.212613     -1.949580      1.564102
  H       0.119203     -3.342242      1.791785
  H      -3.201182     -2.489655     -0.492050
  H      -2.204525     -3.792432      0.155583
  H      -2.904864     -2.603949      1.257424
  H      -3.354886      0.019456      2.181731
  H      -4.725170      0.750363      1.329834
  H      -4.320339     -0.949709      1.054466
  H      -2.879386      0.652002     -2.661947
  H      -4.506819      0.521712     -1.966660
  H      -3.451940     -0.901981     -2.038894
  H      -2.219651      3.083069     -0.732892
  H      -3.886138      2.806276     -0.225795
  H      -2.606442      2.868354      0.988142
  H       1.036446      2.375889     -2.000829
  H      -0.747598      2.346684     -1.972761
  H       0.163487      0.964260     -2.641800
>
53
-1797.55586793; 31P isotropic shielding: 257.079544 ppm
  C       0.224458      0.843785      2.840982
  C       0.148693      1.816060      1.653350
  P       0.285558      0.950807      0.030563
  N       1.530018      0.029611     -0.058625
  Si      3.226625      0.028762     -0.113574
  C       3.982855      0.820708      1.435592
  C       3.882806      0.973192     -1.622089
  C       3.819709     -1.762031     -0.222897
  N      -1.122883      0.028515     -0.186147
  Si     -0.790390     -1.738258     -0.390012
  C       0.121283     -2.087216     -2.000434
  C       0.021774     -2.493490      1.133418
  C      -2.427434     -2.683999     -0.551137
  Si     -2.778849      0.665833     -0.048164
  C      -3.503873      0.169251      1.621241
  C      -3.877275      0.079905     -1.470118
  C      -2.884216      2.553340     -0.160955
  C       0.294918      2.287461     -1.224677
  H       0.189951      1.391643      3.791202
  H       1.152819      0.264579      2.810731
  H      -0.611421      0.135206      2.827838
  H      -0.770046      2.412730      1.694899
  H       0.990587      2.523558      1.681259
  H       3.672353      1.870644      1.538030
  H       3.666750      0.291416      2.345131
  H       5.081834      0.803690      1.404970
  H       3.630167      2.041786     -1.568651
  H       3.450645      0.576686     -2.551311
  H       4.976930      0.897969     -1.702052
  H       3.425770     -2.252362     -1.123510
  H       4.916536     -1.823406     -0.259558
  H       3.479180     -2.343406      0.644802
  H       0.184316     -3.172451     -2.166890
  H      -0.432112     -1.656644     -2.847119
  H       1.130764     -1.671123     -1.999038
  H      -0.620317     -2.358024      2.015016
  H       0.999264     -2.055685      1.343414
  H       0.144402     -3.575896      0.981829
  H      -2.921344     -2.538673     -1.517374
  H      -2.163001     -3.749616     -0.480779
  H      -3.154797     -2.484991      0.243934
  H      -3.433722     -0.910146      1.800218
  H      -2.974867      0.674944      2.440037
  H      -4.564319      0.451333      1.686217
  H      -3.316487      0.040443     -2.413385
  H      -4.694134      0.803474     -1.601899
  H      -4.329628     -0.901633     -1.304263
  H      -3.930026      2.814311      0.058968
  H      -2.259830      3.113267      0.541986
  H      -2.672381      2.913934     -1.174992
  H      -0.520480      3.007066     -1.118947
  H       0.243657      1.820546     -2.214765
  H       1.251609      2.816096     -1.139965
>
53
-1797.55508683; 31P isotropic shielding: 258.346065 ppm
  C       0.234442      1.620389      2.456352
  C       0.174478      2.211690      1.038897
  P       0.292892      0.915915     -0.268665
  N       1.533463     -0.001482     -0.113463
  Si      3.230786     -0.018837     -0.100535
  C       3.964855      0.873365     -1.605639
  C       3.811948     -1.817034     -0.123551
  C       3.931073      0.811947      1.454063
  N      -1.121643     -0.019781     -0.193354
  Si     -0.800173     -1.771979      0.120485
  C       0.073443     -2.578088     -1.339297
  C       0.045119     -2.064520      1.779748
  C      -2.442854     -2.711171      0.270343
  Si     -2.775601      0.635250     -0.248628
  C      -3.502514      0.651315      1.492488
  C      -3.869898     -0.338458     -1.443508
  C      -2.883055      2.411019     -0.898570
  C       0.284592      1.837778     -1.852893
  H       1.145832      1.030160      2.593314
  H      -0.621763      0.964178      2.648909
  H       0.224897      2.419056      3.208914
  H      -0.734308      2.809885      0.902360
  H       1.027110      2.885389      0.866435
  H       3.730471      1.947573     -1.589599
  H       5.059911      0.778259     -1.635930
  H       3.566996      0.459308     -2.542468
  H       4.906603     -1.889310     -0.055010
  H       3.500099     -2.322908     -1.047391
  H       3.383764     -2.376034      0.719695
  H       5.030629      0.794489      1.457745
  H       3.617466      1.863380      1.522395
  H       3.588210      0.303156      2.365648
  H       1.081452     -2.184792     -1.485941
  H       0.135771     -3.665262     -1.185435
  H      -0.504152     -2.409685     -2.259498
  H      -0.575924     -1.679875      2.600759
  H       1.026291     -1.589907      1.833627
  H       0.165107     -3.146054      1.939754
  H      -2.952072     -2.847150     -0.689271
  H      -2.178642     -3.713295      0.639682
  H      -3.158269     -2.289003      0.985000
  H      -2.984006      1.389535      2.119052
  H      -4.566895      0.924726      1.468956
  H      -3.417360     -0.321831      1.989975
  H      -3.297449     -0.672730     -2.318937
  H      -4.670337      0.321850     -1.806236
  H      -4.345260     -1.215776     -0.995761
  H      -3.926777      2.724007     -0.746484
  H      -2.251806      3.147386     -0.391631
  H      -2.687650      2.468883     -1.976272
  H       0.237138      1.106252     -2.667522
  H       1.233448      2.381362     -1.930147
  H      -0.542179      2.544858     -1.948160
>
53
-1797.55485616; 31P isotropic shielding: 258.364438 ppm
  C       0.237922      1.379697      2.591507
  C       0.167946      2.100996      1.236288
  P       0.288988      0.937525     -0.190340
  N       1.536258      0.018460     -0.127904
  Si      3.233228      0.002070     -0.106856
  C       3.820013     -1.786166     -0.279275
  C       3.923951      0.700102      1.515985
  C       3.973187      1.020317     -1.526454
  N      -1.121603     -0.007994     -0.202863
  Si     -0.795413     -1.781640     -0.054005
  C       0.089099     -2.442114     -1.578499
  C       0.049690     -2.215365      1.572614
  C      -2.433415     -2.737273      0.003521
  Si     -2.776654      0.645884     -0.188620
  C      -3.499051      0.504330      1.548998
  C      -3.878297     -0.220768     -1.456882
  C      -2.889769      2.472796     -0.675019
  C       0.270300      2.010932     -1.676538
  H       1.150339      0.780216      2.668879
  H      -0.617566      0.709006      2.729193
  H       0.233321      2.105648      3.414617
  H      -0.745014      2.704113      1.162532
  H       1.015814      2.793514      1.125433
  H       4.914967     -1.859386     -0.217170
  H       3.394603     -2.415256      0.514489
  H       3.509983     -2.214823     -1.241957
  H       5.023349      0.680389      1.526565
  H       3.573283      0.119871      2.380646
  H       3.610762      1.743094      1.666559
  H       3.733798      2.088380     -1.421268
  H       5.068826      0.932566     -1.557093
  H       3.582840      0.685399     -2.497398
  H       0.145587     -3.539512     -1.535688
  H      -0.474963     -2.176394     -2.483892
  H       1.100174     -2.040093     -1.670351
  H       0.150571     -3.307527      1.652527
  H      -0.560067     -1.879461      2.422692
  H       1.038973     -1.762075      1.655246
  H      -2.164143     -3.770365      0.269413
  H      -3.148181     -2.392090      0.759037
  H      -2.943904     -2.778367     -0.963943
  H      -2.965279      1.165361      2.244862
  H      -4.556982      0.803081      1.553406
  H      -3.438891     -0.514573      1.949236
  H      -3.313820     -0.482237     -2.361591
  H      -4.680448      0.468382     -1.756597
  H      -4.351370     -1.131270     -1.078584
  H      -2.686325      2.628322     -1.741378
  H      -3.935614      2.767150     -0.502491
  H      -2.264574      3.161844     -0.098735
  H      -0.535484      2.748181     -1.676494
  H       0.178003      1.367509     -2.558795
  H       1.234256      2.530515     -1.724265
>
53
-1797.55460964; 31P isotropic shielding: 258.764715 ppm
  C       0.237665      1.367351      2.595390
  C       0.168110      2.094974      1.243728
  P       0.289707      0.938884     -0.188666
  N       1.536935      0.019443     -0.130905
  Si      3.234032      0.003958     -0.110911
  C       3.820861     -1.785127     -0.273488
  C       3.927396      0.711804      1.506795
  C       3.971377      1.013376     -1.538216
  N      -1.120624     -0.006956     -0.206073
  Si     -0.793480     -1.781193     -0.066798
  C       0.092346     -2.433668     -1.593947
  C       0.050361     -2.222593      1.558320
  C      -2.430976     -2.738550     -0.016023
  Si     -2.776080      0.645742     -0.187994
  C      -3.499404      0.491358      1.548250
  C      -3.876397     -0.213276     -1.462486
  C      -2.889923      2.475918     -0.661604
  C       0.270823      2.020770     -1.668772
  H       0.231928      2.089475      3.421893
  H       1.150465      0.768211      2.670835
  H      -0.617604      0.695585      2.729340
  H      -0.744975      2.698041      1.172459
  H       1.015762      2.788295      1.136107
  H       3.505503     -2.220479     -1.231399
  H       4.916198     -1.857152     -0.216941
  H       3.400337     -2.408592      0.527256
  H       3.613146      1.755204      1.652441
  H       5.026812      0.693738      1.514813
  H       3.579390      0.135894      2.375378
  H       3.733506      2.082334     -1.438667
  H       5.066814      0.924115     -1.571202
  H       3.577751      0.673258     -2.505983
  H       1.104278     -2.033248     -1.682170
  H       0.146488     -3.531440     -1.557235
  H      -0.470130     -2.161578     -2.498420
  H       0.153887     -3.314954      1.631831
  H      -0.561455     -1.893233      2.409487
  H       1.038404     -1.767355      1.644984
  H      -2.940227     -2.774852     -0.984342
  H      -2.160619     -3.772751      0.244461
  H      -3.147078     -2.398522      0.740511
  H      -3.440222     -0.530675      1.940530
  H      -2.966044      1.146691      2.249794
  H      -4.557247      0.790495      1.553789
  H      -4.680224      0.476445     -1.756404
  H      -4.347192     -1.127789     -1.091193
  H      -3.311764     -0.466278     -2.369510
  H      -2.684608      2.639302     -1.726424
  H      -3.936210      2.768411     -0.488699
  H      -2.266031      3.160821     -0.079068
  H       0.177397      1.382736     -2.554826
  H       1.235362      2.539531     -1.713724
  H      -0.534224      2.758905     -1.663999
>
53
-1797.55460649; 31P isotropic shielding: 258.749640 ppm
  C      -0.157391      1.248476      2.700961
  C       0.148253      2.030400      1.413962
  P       0.292189      0.926836     -0.054901
  N       1.538338      0.003840      0.000912
  Si      3.222702      0.032278      0.212046
  C       4.043026      1.426989     -0.779731
  C       3.933982     -1.618180     -0.372330
  C       3.692409      0.268639      2.034075
  N      -1.108024     -0.022677     -0.156753
  Si     -0.749751     -1.785769     -0.335930
  C      -2.374255     -2.750714     -0.510549
  C       0.182779     -2.133185     -1.936234
  C       0.051454     -2.509818      1.207134
  Si     -2.750881      0.628564     -0.347042
  C      -2.896435      2.454079      0.132168
  C      -3.981590     -0.234898      0.798117
  C      -3.275516      0.484635     -2.153770
  C       0.298572      2.051138     -1.505304
  H       0.558831      0.430979      2.840890
  H      -1.162087      0.810383      2.667806
  H      -0.102004      1.905490      3.578075
  H      -0.587065      2.824060      1.245180
  H       1.132145      2.516737      1.485297
  H       3.694273      2.414612     -0.444374
  H       5.137038      1.411765     -0.670685
  H       3.813323      1.338508     -1.850739
  H       3.727179     -1.781576     -1.438883
  H       3.492353     -2.457636      0.182088
  H       5.023345     -1.660099     -0.231533
  H       3.242819     -0.514486      2.660148
  H       4.781734      0.227561      2.178624
  H       3.345485      1.238681      2.417605
  H      -2.080632     -3.776174     -0.780724
  H      -2.940299     -2.816277      0.424822
  H      -3.047841     -2.396743     -1.298879
  H       1.160680     -1.647139     -1.954004
  H      -0.402058     -1.780319     -2.797893
  H       0.326142     -3.216469     -2.059545
  H       1.089466     -2.192385      1.323672
  H      -0.505789     -2.195456      2.100584
  H       0.014765     -3.608145      1.165134
  H      -2.760823      2.607348      1.209628
  H      -2.232662      3.141687     -0.401212
  H      -3.927736      2.752734     -0.107026
  H      -4.397813     -1.157929      0.384671
  H      -4.820450      0.448273      0.992167
  H      -3.522479     -0.475117      1.766152
  H      -2.637297      1.111275     -2.791644
  H      -3.204525     -0.543774     -2.526886
  H      -4.313775      0.819206     -2.289417
  H      -0.610952      2.652364     -1.598843
  H       0.417006      1.432475     -2.401971
  H       1.163644      2.720754     -1.428118
>
53
-1797.55587355; 31P isotropic shielding: 257.312988 ppm
  C       0.210412      1.610336      2.460557
  C       0.161421      2.206788      1.044910
  P       0.292100      0.915566     -0.266318
  N       1.534194      0.001854     -0.104551
  Si      3.230679     -0.021515     -0.075627
  C       3.982458      0.894504     -1.557453
  C       3.808310     -1.820236     -0.124045
  C       3.917134      0.780622      1.499789
  N      -1.121729     -0.022290     -0.205536
  Si     -0.801952     -1.775494      0.102459
  C       0.083311     -2.571508     -1.355723
  C       0.032628     -2.073186      1.765908
  C      -2.443601     -2.717885      0.238094
  Si     -2.775408      0.631693     -0.271865
  C      -2.879961      2.408567     -0.918678
  C      -3.515641      0.642399      1.463536
  C      -3.860609     -0.340699     -1.475834
  C       0.294880      1.842475     -1.848015
  H       1.119213      1.016925      2.601325
  H      -0.648968      0.955993      2.645180
  H       0.198284      2.406462      3.215745
  H      -0.746572      2.805021      0.903392
  H       1.015278      2.881299      0.881824
  H       3.747341      1.968230     -1.527093
  H       5.077828      0.800193     -1.575522
  H       3.596471      0.495221     -2.505578
  H       3.371867     -2.393183      0.705444
  H       4.902191     -1.895438     -0.047262
  H       3.503806     -2.309340     -1.059283
  H       3.606687      1.832047      1.581619
  H       3.561634      0.258290      2.398783
  H       5.016441      0.758494      1.515933
  H       1.084430     -2.161300     -1.503503
  H       0.165154     -3.656928     -1.199011
  H      -0.497982     -2.415664     -2.275761
  H       1.014012     -1.599792      1.826398
  H       0.150221     -3.155075      1.924900
  H      -0.592716     -1.688754      2.583707
  H      -2.949377     -2.848489     -0.724007
  H      -2.179097     -3.721909      0.602007
  H      -3.161846     -2.301298      0.953202
  H      -2.254433      3.144796     -0.404477
  H      -2.674523      2.469252     -1.994323
  H      -3.925474      2.719482     -0.775247
  H      -3.003301      1.379937      2.095905
  H      -3.432707     -0.331852      1.959147
  H      -4.580225      0.914098      1.431980
  H      -4.657759      0.320671     -1.843751
  H      -3.282189     -0.675135     -2.347216
  H      -4.340055     -1.217630     -1.031747
  H       0.247869      1.113826     -2.665253
  H       1.246623      2.381790     -1.918960
  H      -0.528251      2.553570     -1.945206
>
53
-1797.55485742; 31P isotropic shielding: 258.674390 ppm
  C      -0.061279      1.763877      2.493384
  C       0.204261      2.267541      1.066110
  P       0.316208      0.886087     -0.145303
  N       1.544983     -0.025014      0.119249
  Si      3.241008     -0.024025      0.024007
  C       3.996630      1.517807      0.832764
  C       3.828638     -0.079886     -1.778017
  C       3.897360     -1.554958      0.915796
  N      -1.107177     -0.031864     -0.054512
  Si     -0.798438     -1.806584      0.109447
  C      -2.446124     -2.746254      0.111817
  C       0.126447     -2.475932     -1.390758
  C      -0.005711     -2.229093      1.761800
  Si     -2.736999      0.615538     -0.350442
  C      -3.968276      0.013716      0.950242
  C      -3.295602      0.144233     -2.090666
  C      -2.838021      2.502410     -0.238650
  C       0.338828      1.691008     -1.796555
  H       0.682325      1.012620      2.783724
  H      -1.052312      1.300792      2.571935
  H      -0.013795      2.590824      3.213111
  H      -0.541798      3.005668      0.756674
  H       1.186606      2.757702      1.009354
  H       3.687029      2.434915      0.310671
  H       3.681576      1.608869      1.881719
  H       5.095614      1.487190      0.816317
  H       3.493207      0.808347     -2.331835
  H       3.424901     -0.962464     -2.293340
  H       4.924931     -0.122537     -1.850515
  H       3.624220     -1.540617      1.979941
  H       3.480494     -2.472742      0.478864
  H       4.992777     -1.620263      0.852154
  H      -2.182936     -3.812148      0.042139
  H      -3.013829     -2.615423      1.038941
  H      -3.105841     -2.525287     -0.734315
  H      -0.432814     -2.254267     -2.311070
  H       0.215795     -3.569553     -1.318397
  H       1.127249     -2.048148     -1.481713
  H       1.010805     -1.838210      1.836231
  H      -0.602090     -1.807789      2.583254
  H       0.017661     -3.320208      1.897724
  H      -3.498343     -0.052344      1.940294
  H      -4.791205      0.738636      1.023062
  H      -4.406490     -0.961108      0.719090
  H      -3.281039     -0.939040     -2.257678
  H      -2.640773      0.602646     -2.844207
  H      -4.319226      0.497750     -2.279233
  H      -2.691085      2.866098      0.785274
  H      -2.163534      3.052855     -0.902272
  H      -3.864424      2.769639     -0.530438
  H       1.207204      2.358979     -1.851989
  H      -0.565576      2.266262     -2.018065
  H       0.457079      0.902051     -2.547615
>
53
-1797.55574799; 31P isotropic shielding: 257.088013 ppm
  C       1.070111      2.405755      2.385363
  C       0.020438      1.382500      1.919583
  P       0.215597      0.873707      0.156774
  N       1.498346      0.049528     -0.114317
  Si      3.188431     -0.028279     -0.007585
  C       3.743674     -0.581376      1.719068
  C       4.006894      1.640587     -0.389793
  C       3.834554     -1.299464     -1.249236
  N      -1.166836     -0.035262     -0.226581
  Si     -0.799744     -1.754818     -0.644343
  C       0.125108     -1.874554     -2.277720
  C       0.029452     -2.644714      0.796149
  C      -2.406784     -2.719997     -0.931611
  Si     -2.837058      0.534653      0.000964
  C      -2.991275      2.413736      0.181703
  C      -3.549667     -0.218376      1.578575
  C      -3.913353      0.130119     -1.497868
  C       0.171757      2.418702     -0.831751
  H       2.087771      2.040245      2.210308
  H       0.966784      2.604466      3.459779
  H       0.960399      3.362699      1.859761
  H       0.113524      0.444639      2.484755
  H      -0.991914      1.764693      2.096753
  H       3.416546      0.121974      2.497191
  H       3.320133     -1.564926      1.966023
  H       4.838262     -0.663832      1.784662
  H       3.699761      2.416547      0.325388
  H       3.733989      1.987776     -1.396296
  H       5.103377      1.570283     -0.348593
  H       3.599836     -1.006028     -2.281700
  H       4.925586     -1.411532     -1.173865
  H       3.383874     -2.285841     -1.073736
  H       1.094201     -1.373844     -2.237268
  H       0.281517     -2.928524     -2.549671
  H      -0.473296     -1.413892     -3.076792
  H       0.161204     -3.708962      0.552869
  H      -0.608114     -2.590061      1.690258
  H       1.003956     -2.217002      1.040432
  H      -2.911346     -2.453246     -1.865984
  H      -2.104268     -3.774304     -1.020013
  H      -3.135629     -2.667358     -0.115202
  H      -2.792959      2.939188     -0.760239
  H      -4.042794      2.606688      0.441159
  H      -2.379643      2.868773      0.967459
  H      -4.597690      0.083662      1.715830
  H      -2.986591      0.124188      2.457441
  H      -3.516410     -1.313986      1.573548
  H      -3.345080      0.234629     -2.431618
  H      -4.340547     -0.876282     -1.472343
  H      -4.748845      0.843277     -1.538406
  H       0.061836      2.135629     -1.884699
  H       1.136384      2.922628     -0.707128
  H      -0.631461      3.104592     -0.553737
>
53
-1797.55377500; 31P isotropic shielding: 259.427142 ppm
  C       1.076029      2.695680      2.035712
  C       0.032438      1.610038      1.723224
  P       0.221543      0.868320      0.044270
  N       1.493996     -0.003124     -0.104418
  Si      3.187275     -0.044500     -0.018490
  C       3.786867     -0.283408      1.764576
  C       3.975161      1.543052     -0.698501
  C       3.828126     -1.503565     -1.035731
  N      -1.168963     -0.070521     -0.218565
  Si     -0.812866     -1.833624     -0.393870
  C       0.126702     -2.195569     -1.982914
  C      -0.011382     -2.526675      1.166020
  C      -2.429944     -2.809985     -0.570297
  Si     -2.832892      0.540306     -0.050215
  C      -3.534148     -0.004294      1.614852
  C      -3.932860     -0.032018     -1.474400
  C      -2.956415      2.428755     -0.117119
  C       0.202568      2.265733     -1.143977
  H       2.095159      2.328991      1.872135
  H       1.000861      3.015615      3.082841
  H       0.932191      3.583395      1.406999
  H       0.138297      0.756053      2.406680
  H      -0.981481      2.004461      1.857742
  H       3.373277     -1.205030      2.197424
  H       4.883192     -0.357233      1.811456
  H       3.483780      0.549722      2.413591
  H       3.671518      2.427032     -0.120066
  H       3.679257      1.710090     -1.743723
  H       5.073104      1.492186     -0.668307
  H       3.386708     -2.448536     -0.690584
  H       3.579975     -1.390298     -2.099962
  H       4.920765     -1.594960     -0.955544
  H       1.120441     -1.745252     -1.987375
  H       0.227338     -3.282118     -2.120505
  H      -0.436550     -1.806766     -2.843425
  H       0.967820     -2.083849      1.361372
  H       0.105279     -3.616334      1.074408
  H      -0.657364     -2.339734      2.036107
  H      -2.914765     -2.666058     -1.541736
  H      -2.144306     -3.870728     -0.507512
  H      -3.171115     -2.634097      0.217112
  H      -3.495218     -1.092031      1.745641
  H      -2.966794      0.447141      2.440035
  H      -4.582734      0.308396      1.719978
  H      -4.324666     -1.045189     -1.351173
  H      -3.391813      0.010261     -2.429219
  H      -4.792131      0.649252     -1.551557
  H      -4.003709      2.677617      0.109251
  H      -2.334567      2.973075      0.600606
  H      -2.745194      2.815480     -1.121452
  H      -0.580448      3.004221     -0.957113
  H       0.076094      1.846183     -2.148400
  H       1.180866      2.755943     -1.093983
>
53
-1797.55375660; 31P isotropic shielding: 258.488738 ppm
  C       1.272893      3.085442      1.468182
  C       0.112033      2.076805      1.443681
  P       0.207899      0.898578      0.033424
  N       1.485618      0.025283      0.063419
  Si      3.169913     -0.053980     -0.113109
  C       4.041231      0.072827      1.565271
  C       3.838246      1.324405     -1.233771
  C       3.651219     -1.718320     -0.872507
  N      -1.184850     -0.072272      0.115562
  Si     -0.820649     -1.842806      0.061555
  C      -0.052880     -2.304897     -1.595040
  C       0.161945     -2.409822      1.563920
  C      -2.429054     -2.843009      0.147269
  Si     -2.847121      0.535422     -0.086374
  C      -3.423816      0.170268     -1.845934
  C      -3.033121      2.401266      0.185981
  C      -4.026706     -0.209454      1.187404
  C       0.084993      1.901523     -1.500963
  H       1.231594      3.770550      0.611659
  H       2.242190      2.576416      1.448570
  H       1.232577      3.695481      2.379705
  H       0.136913      1.433793      2.334740
  H      -0.849735      2.597713      1.446208
  H       5.130139     -0.038384      1.458670
  H       3.853357      1.038370      2.054870
  H       3.690553     -0.714871      2.246628
  H       3.624493      2.319462     -0.818934
  H       3.386295      1.274420     -2.234262
  H       4.927995      1.247414     -1.358414
  H       3.257634     -1.826913     -1.892187
  H       4.743743     -1.830051     -0.923092
  H       3.257136     -2.552193     -0.275582
  H       0.859350     -1.739022     -1.794730
  H       0.192816     -3.376291     -1.615769
  H      -0.769073     -2.115682     -2.407436
  H       1.183248     -2.025184      1.558772
  H       0.188767     -3.508814      1.596705
  H      -0.330483     -2.065529      2.484550
  H      -2.136909     -3.888901     -0.030677
  H      -2.906988     -2.805358      1.132029
  H      -3.175379     -2.587914     -0.612876
  H      -2.831661      0.742524     -2.573008
  H      -3.321875     -0.890742     -2.103157
  H      -4.478559      0.448557     -1.980396
  H      -2.358364      3.045873     -0.384821
  H      -2.950174      2.668847      1.246803
  H      -4.057970      2.652766     -0.125434
  H      -3.542742     -0.295983      2.169325
  H      -4.887600      0.464397      1.302207
  H      -4.412714     -1.194368      0.911582
  H       0.075720      1.201303     -2.343776
  H       0.980373      2.527677     -1.582156
  H      -0.803561      2.537178     -1.551787
>
53
-1797.55361642; 31P isotropic shielding: 259.256293 ppm
  C      -0.233732      2.530409      2.227260
  C       0.883978      1.820775      1.447303
  P       0.352467      0.889331     -0.060413
  N       1.398161     -0.106119     -0.631455
  Si      3.029832     -0.199611     -1.101740
  C       3.496978      1.179011     -2.320954
  C       3.315343     -1.868066     -1.939912
  C       4.197228     -0.067563      0.388247
  N      -1.102504      0.106149      0.352035
  Si     -0.893081     -1.363894      1.373531
  C       0.679114     -1.340491      2.416173
  C      -2.294780     -1.470844      2.640527
  C      -0.826403     -2.884249      0.265612
  Si     -2.532060      0.230547     -0.706838
  C      -3.955410     -0.845167     -0.092550
  C      -2.109889     -0.370873     -2.445600
  C      -3.238895      1.985716     -0.732937
  C      -0.022328      2.286905     -1.194811
  H       0.178274      3.077911      3.085458
  H      -0.969773      1.810840      2.602812
  H      -0.771034      3.254217      1.601567
  H       1.628595      2.545987      1.086751
  H       1.426693      1.121810      2.089613
  H       3.428040      2.170134     -1.849166
  H       4.526382      1.064341     -2.689902
  H       2.827514      1.176878     -3.192312
  H       4.357173     -1.989029     -2.268664
  H       2.667325     -1.974487     -2.820767
  H       3.080033     -2.693844     -1.254227
  H       4.081818      0.897832      0.901100
  H       3.993985     -0.858738      1.123252
  H       5.250279     -0.158229      0.084777
  H       0.727591     -2.315592      2.923464
  H       1.587860     -1.220712      1.821421
  H       0.654026     -0.573186      3.199343
  H      -2.537862     -0.478774      3.044276
  H      -1.953139     -2.090866      3.481541
  H      -3.217274     -1.915899      2.258043
  H      -1.738982     -3.028090     -0.325056
  H       0.015231     -2.777299     -0.430549
  H      -0.670156     -3.794376      0.861696
  H      -3.714178     -1.908909     -0.003897
  H      -4.362993     -0.499691      0.864103
  H      -4.754792     -0.753959     -0.842744
  H      -1.965946     -1.459287     -2.438493
  H      -1.190434      0.067262     -2.848628
  H      -2.929601     -0.144893     -3.142615
  H      -2.741234      2.660861     -1.435457
  H      -4.296831      1.931490     -1.026038
  H      -3.197854      2.440191      0.265947
  H       0.951511      2.735722     -1.422285
  H      -0.666152      3.047198     -0.743726
  H      -0.459415      1.943522     -2.134612
>
53
-1797.54931077; 31P isotropic shielding: 263.606757 ppm
  C      -0.588737      2.235316      2.539633
  C       0.639857      1.597575      1.872359
  P       0.362199      0.869612      0.195456
  N       1.501118     -0.055989     -0.309175
  Si      3.129342     -0.038556     -0.796649
  C       3.333652      0.821089     -2.474810
  C       3.725792     -1.824380     -0.956231
  C       4.238140      0.861020      0.454259
  N      -1.125853      0.045104      0.279308
  Si     -1.041442     -1.551536      1.111573
  C      -0.776131     -2.903820     -0.170549
  C       0.355863     -1.676716      2.373465
  C      -2.616126     -1.831221      2.123620
  Si     -2.384786      0.315144     -0.953481
  C      -3.861040     -0.835668     -0.714906
  C      -1.701338     -0.040346     -2.676343
  C      -3.116050      2.056501     -0.843111
  C       0.147365      2.404015     -0.797970
  H      -1.382573      1.495426      2.692396
  H      -1.007181      3.047895      1.932274
  H      -0.323033      2.658768      3.517442
  H       1.440449      2.338949      1.734223
  H       1.062260      0.809633      2.502103
  H       3.023484      1.874427     -2.422152
  H       4.376927      0.799811     -2.821596
  H       2.715322      0.331027     -3.239690
  H       3.643624     -2.351520      0.004446
  H       4.774217     -1.878711     -1.281868
  H       3.116330     -2.372592     -1.687992
  H       5.297876      0.820822      0.163449
  H       3.961234      1.921933      0.540445
  H       4.148693      0.413253      1.453877
  H      -0.713461     -3.890547      0.309528
  H      -1.573927     -2.950401     -0.921394
  H       0.170700     -2.710716     -0.690722
  H       0.194154     -1.034823      3.248216
  H       1.338253     -1.465625      1.942787
  H       0.354791     -2.716252      2.734057
  H      -2.392906     -2.557787      2.917834
  H      -2.941994     -0.903148      2.612397
  H      -3.458897     -2.223156      1.547639
  H      -4.542657     -0.638773     -1.555584
  H      -3.612948     -1.901343     -0.741547
  H      -4.412906     -0.629868      0.209063
  H      -2.432960      0.242975     -3.446654
  H      -1.501318     -1.114599     -2.783109
  H      -0.762774      0.480967     -2.893397
  H      -3.256454      2.355817      0.204144
  H      -2.521716      2.827974     -1.342001
  H      -4.106791      2.049765     -1.319125
  H      -0.587876      3.092744     -0.373012
  H      -0.106628      2.185404     -1.837163
  H       1.130661      2.889225     -0.787164
