29
-1181.51423300; 31P isotropic shielding: 274.153760 ppm
  O       1.514545     -2.906935     -0.477969
  C       0.265132     -2.546351     -0.072660
  C      -0.787464     -3.449274     -0.309402
  C      -2.088044     -3.167051      0.105139
  C      -2.378432     -1.967655      0.767824
  C      -1.348755     -1.059386      1.017027
  C      -0.050267     -1.350046      0.604663
  O       0.964438     -0.422093      0.981511
  P       1.850286      0.353521     -0.106379
  O       2.772550     -0.489936     -0.906741
  O       0.835255      1.172024     -1.035235
  C      -0.380054      1.747162     -0.601256
  C      -1.508338      1.461510     -1.367554
  C      -2.736611      2.008601     -0.989889
  C      -2.826967      2.826147      0.142930
  C      -1.679614      3.105248      0.892717
  C      -0.440357      2.570550      0.522228
  O       2.575004      1.455054      0.812926
  H       2.100672     -2.115949     -0.602205
  H      -0.546923     -4.375106     -0.827996
  H      -2.880108     -3.886856     -0.093455
  H      -3.391960     -1.740883      1.090174
  H      -1.532628     -0.121288      1.534322
  H      -1.415271      0.805279     -2.228985
  H      -3.625162      1.786221     -1.577474
  H      -3.786395      3.246439      0.437627
  H      -1.742329      3.744932      1.771098
  H       0.456478      2.783614      1.096993
  H       3.533618      1.284807      0.870822
>
29
-1181.51429521; 31P isotropic shielding: 277.340456 ppm
  O      -0.504506     -1.577278     -1.817246
  C      -0.755917     -1.802984     -0.492095
  C      -1.975386     -2.368284     -0.106087
  C      -2.250402     -2.569963      1.248685
  C      -1.313619     -2.219562      2.228519
  C      -0.085914     -1.663239      1.851497
  C       0.174962     -1.457200      0.501185
  O       1.385999     -0.906027      0.022455
  P       1.975062      0.532045      0.484650
  O       3.001761      1.008098     -0.460111
  O       0.673402      1.439335      0.756841
  C      -0.314709      1.592577     -0.245823
  C      -1.633834      1.349253      0.131147
  C      -2.642458      1.490796     -0.824353
  C      -2.327163      1.866903     -2.135121
  C      -0.996900      2.111707     -2.488941
  C       0.025717      1.979991     -1.542582
  O       2.466956      0.344525      2.007314
  H       0.377501     -1.161388     -1.891155
  H      -2.696533     -2.628464     -0.877768
  H      -3.203922     -3.006171      1.540367
  H      -1.530163     -2.382181      3.281874
  H       0.657643     -1.381917      2.592290
  H      -1.849682      1.031121      1.147608
  H      -3.675460      1.293792     -0.544554
  H      -3.115932      1.968508     -2.877749
  H      -0.746679      2.407966     -3.505927
  H       1.065247      2.167505     -1.799486
  H       3.426431      0.508334      2.069466
>
29
-1181.51225311; 31P isotropic shielding: 280.676600 ppm
  O       0.561394     -1.716294     -1.605995
  C      -0.231800     -1.787831     -0.503144
  C      -1.535182     -2.288509     -0.671708
  C      -2.406116     -2.417423      0.407697
  C      -1.999561     -2.049631      1.696673
  C      -0.713108     -1.543367      1.884081
  C       0.150481     -1.407365      0.799933
  O       1.451110     -0.905990      1.080700
  P       2.021082      0.426966      0.372512
  O       2.446048      0.225882     -1.032362
  O       0.916844      1.574499      0.628704
  C      -0.284878      1.620017     -0.134828
  C      -1.486679      1.540799      0.564926
  C      -2.685154      1.581400     -0.150343
  C      -2.670316      1.703336     -1.544744
  C      -1.451318      1.796618     -2.222981
  C      -0.241920      1.761841     -1.520606
  O       3.215873      0.861521      1.331457
  H       1.356862     -1.140779     -1.464234
  H      -1.836855     -2.570074     -1.678333
  H      -3.408251     -2.808384      0.241861
  H      -2.672487     -2.156071      2.544398
  H      -0.358517     -1.243537      2.868100
  H      -1.474219      1.423221      1.644639
  H      -3.630079      1.505097      0.383760
  H      -3.606075      1.725582     -2.099714
  H      -1.433690      1.894180     -3.306731
  H       0.713450      1.816675     -2.033010
  H       2.954563      0.980822      2.263790
>
29
-1181.51318573; 31P isotropic shielding: 281.353111 ppm
  O       0.301697     -1.866286     -1.504643
  C      -0.351055     -1.811130     -0.312218
  C      -1.682651     -2.262234     -0.279617
  C      -2.417976     -2.263107      0.903447
  C      -1.842385     -1.812253      2.098166
  C      -0.525076     -1.353143      2.085641
  C       0.202650     -1.345231      0.898168
  O       1.544444     -0.882031      0.976493
  P       2.062843      0.365752      0.093986
  O       2.310691      0.032912     -1.328153
  O       1.029083      1.570727      0.378419
  C      -0.252239      1.606626     -0.241942
  C      -0.370883      1.627357     -1.630374
  C      -1.653893      1.660912     -2.187317
  C      -2.785305      1.684958     -1.366285
  C      -2.636874      1.682716      0.025569
  C      -1.363472      1.644758      0.597073
  O       3.374985      0.832552      0.866342
  H       1.131001     -1.322260     -1.508625
  H      -2.116434     -2.609772     -1.214813
  H      -3.446527     -2.618875      0.893195
  H      -2.408806     -1.817896      3.026539
  H      -0.041145     -0.991288      2.990530
  H       0.516931      1.593265     -2.253991
  H      -1.763027      1.664765     -3.270109
  H      -3.779528      1.704978     -1.808098
  H      -3.512724      1.698328      0.671019
  H      -1.225863      1.619088      1.674213
  H       3.229436      1.039514      1.808483
>
29
-1181.51316933; 31P isotropic shielding: 281.394384 ppm
  O       1.164811     -2.555965     -0.981546
  C       0.069001     -2.228510     -0.239913
  C      -1.132143     -2.913521     -0.492775
  C      -2.288293     -2.635888      0.235188
  C      -2.276958     -1.661232      1.240695
  C      -1.091204     -0.979323      1.515823
  C       0.060354     -1.263900      0.787555
  O       1.254373     -0.583113      1.167836
  P       1.997920      0.458022      0.190436
  O       2.366546     -0.100095     -1.131686
  O       1.095925      1.796621      0.179551
  C      -0.250569      1.798251     -0.261280
  C      -1.158509      2.503259      0.525954
  C      -2.505182      2.521830      0.152050
  C      -2.928252      1.835819     -0.991459
  C      -1.995526      1.147599     -1.774254
  C      -0.642422      1.133271     -1.423241
  O       3.258578      0.920010      1.047237
  H       1.778375     -1.779724     -1.055144
  H      -1.126678     -3.661639     -1.282916
  H      -3.204757     -3.178984      0.011781
  H      -3.177896     -1.433887      1.805508
  H      -1.042194     -0.219123      2.291537
  H      -0.808789      3.013883      1.420247
  H      -3.223497      3.066563      0.761896
  H      -3.979133      1.840627     -1.273227
  H      -2.317073      0.616358     -2.667734
  H       0.090453      0.605727     -2.026761
  H       3.030938      1.339366      1.898043
>
29
-1181.51316399; 31P isotropic shielding: 281.381456 ppm
  O       0.984037     -2.581090     -1.092088
  C      -0.036500     -2.223890     -0.262730
  C      -1.276943     -2.865871     -0.422041
  C      -2.360976     -2.555525      0.397743
  C      -2.235574     -1.590337      1.404481
  C      -1.009007     -0.950812      1.587352
  C       0.070252     -1.267543      0.767324
  O       1.312908     -0.629562      1.055782
  P       2.024983      0.383978      0.027619
  O       2.264117     -0.180766     -1.321537
  O       1.184594      1.761044      0.091271
  C      -0.194517      1.815358     -0.229719
  C      -0.708484      1.178704     -1.359443
  C      -2.085625      1.242965     -1.591163
  C      -2.922330      1.952236     -0.723423
  C      -2.378061      2.608982      0.385384
  C      -1.005499      2.540285      0.640653
  O       3.367450      0.785634      0.784775
  H       1.616200     -1.824574     -1.207677
  H      -1.360174     -3.606855     -1.214549
  H      -3.310365     -3.065808      0.245796
  H      -3.080129     -1.337046      2.040877
  H      -0.873273     -0.199366      2.361275
  H      -0.049541      0.633136     -2.028667
  H      -2.501508      0.733558     -2.457996
  H      -3.992889      1.996307     -0.912435
  H      -3.021407      3.169650      1.060977
  H      -0.562517      3.027875      1.506024
  H       3.225177      1.216131      1.648436
>
29
-1181.51320905; 31P isotropic shielding: 281.149840 ppm
  O       2.135976     -2.568571      0.340705
  C       0.793631     -2.753258      0.653323
  C       0.232483     -4.020004      0.829653
  C      -1.122093     -4.149195      1.152926
  C      -1.919262     -3.010457      1.300910
  C      -1.359858     -1.741995      1.117809
  C      -0.011786     -1.612421      0.796130
  O       0.534470     -0.333832      0.669519
  P       1.166193      0.171980     -0.752033
  O       0.585839     -0.508893     -1.926144
  O       1.004693      1.763491     -0.622372
  C      -0.242101      2.416846     -0.622714
  C      -0.328189      3.556954      0.177991
  C      -1.522841      4.281241      0.204713
  C      -2.619540      3.863011     -0.558150
  C      -2.512173      2.717967     -1.354143
  C      -1.320377      1.985209     -1.399641
  O       2.753670      0.108431     -0.554109
  H       2.533549     -3.435386      0.144224
  H       0.859402     -4.905158      0.715390
  H      -1.548228     -5.141012      1.287649
  H      -2.973414     -3.105959      1.550786
  H      -1.955499     -0.837062      1.213662
  H       0.535580      3.859390      0.765311
  H      -1.595171      5.172397      0.825685
  H      -3.549323      4.428004     -0.534843
  H      -3.358159      2.390023     -1.955826
  H      -1.223162      1.101989     -2.024563
  H       2.993192     -0.816930     -0.332447
>
29
-1181.50893166; 31P isotropic shielding: 278.886983 ppm
  O      -1.280685     -0.580900      1.958761
  C      -1.071952     -1.446853      0.919786
  C      -2.109024     -2.286117      0.501425
  C      -1.910909     -3.154591     -0.575541
  C      -0.680008     -3.198674     -1.240853
  C       0.368969     -2.370849     -0.824020
  C       0.157844     -1.504379      0.244031
  O       1.157525     -0.635881      0.745021
  P       2.062127      0.267783     -0.252322
  O       3.045570     -0.413200     -1.111422
  O       0.998824      1.128054     -1.098881
  C      -0.225717      1.593678     -0.567971
  C      -0.251715      2.507650      0.486135
  C      -1.492502      2.944690      0.964261
  C      -2.678143      2.475139      0.390539
  C      -2.625932      1.567497     -0.673088
  C      -1.395265      1.120381     -1.159767
  O       2.683636      1.276386      0.844079
  H      -0.476350     -0.035578      2.064907
  H      -3.061956     -2.236061      1.023724
  H      -2.725312     -3.801768     -0.895620
  H      -0.528125     -3.878171     -2.076316
  H       1.336580     -2.384827     -1.319544
  H       0.678068      2.866386      0.919020
  H      -1.527127      3.654996      1.788305
  H      -3.639196      2.814552      0.771237
  H      -3.545208      1.194892     -1.120459
  H      -1.329793      0.399829     -1.970687
  H       3.656874      1.275940      0.780761
>
29
-1181.51187777; 31P isotropic shielding: 283.225907 ppm
  O       1.667577     -1.623791      1.367114
  C       0.682926     -2.523975      0.968163
  C       0.748124     -3.885470      1.272370
  C      -0.270881     -4.746909      0.853986
  C      -1.358093     -4.247693      0.131063
  C      -1.421358     -2.885339     -0.176731
  C      -0.408168     -2.025639      0.239049
  O      -0.513769     -0.659672     -0.034199
  P       0.502854      0.054765     -1.108385
  O       0.958809     -0.840279     -2.183376
  O      -0.353667      1.302992     -1.628635
  C      -0.682291      2.429751     -0.844329
  C      -1.632925      2.331015      0.171063
  C      -1.972168      3.483608      0.887872
  C      -1.372010      4.710540      0.584136
  C      -0.425212      4.786685     -0.443940
  C      -0.073104      3.641647     -1.164810
  O       1.603817      0.760463     -0.175796
  H       2.415604     -2.123151      1.740577
  H       1.597648     -4.269010      1.838784
  H      -0.209019     -5.806093      1.094206
  H      -2.150088     -4.914744     -0.201355
  H      -2.245936     -2.470131     -0.751357
  H      -2.088812      1.370446      0.393537
  H      -2.711549      3.419467      1.684309
  H      -1.642478      5.603793      1.143868
  H       0.044483      5.738395     -0.685967
  H       0.662483      3.674585     -1.964788
  H       1.921105      0.111445      0.491174
>
29
-1181.50725364; 31P isotropic shielding: 283.774386 ppm
  O       1.972878     -2.710660     -0.645890
  C       0.671546     -2.890866     -0.283987
  C       0.205258     -4.207506     -0.121095
  C      -1.120874     -4.464499      0.225033
  C      -2.020878     -3.410336      0.427369
  C      -1.579984     -2.095347      0.263046
  C      -0.258148     -1.847090     -0.097143
  O       0.098847     -0.496376     -0.367969
  P       1.163551      0.289334      0.534902
  O       2.537308     -0.270999      0.544215
  O       1.098174      1.758789     -0.081261
  C      -0.089000      2.534564     -0.110935
  C      -0.299719      3.468432      0.900862
  C      -1.440049      4.276156      0.842399
  C      -2.345625      4.142767     -0.216109
  C      -2.109634      3.199693     -1.222822
  C      -0.973086      2.385640     -1.177528
  O       0.468067      0.377055      1.988032
  H       2.301552     -1.819554     -0.361490
  H       0.917600     -5.016053     -0.272131
  H      -1.451653     -5.494629      0.344596
  H      -3.053836     -3.607113      0.704973
  H      -2.249600     -1.248499      0.396076
  H       0.417763      3.555901      1.712693
  H      -1.617904      5.010425      1.625821
  H      -3.230976      4.774067     -0.258166
  H      -2.809486      3.095447     -2.049819
  H      -0.771375      1.645111     -1.946504
  H       1.093684      0.116844      2.689032
>
29
-1181.51374926; 31P isotropic shielding: 279.770662 ppm
  O       0.945062     -1.246632     -1.654099
  C       0.092805     -1.575837     -0.645921
  C      -1.118116     -2.199669     -0.995270
  C      -2.037338     -2.589435     -0.023928
  C      -1.773555     -2.368722      1.333741
  C      -0.580998     -1.744656      1.701049
  C       0.330482     -1.348633      0.725465
  O       1.531135     -0.739761      1.183447
  P       1.956084      0.747032      0.721330
  O       2.498066      0.816668     -0.655683
  O       0.686995      1.690758      1.039317
  C      -0.449951      1.707665      0.181289
  C      -0.324506      2.067608     -1.159266
  C      -1.472806      2.063792     -1.958533
  C      -2.714653      1.717993     -1.417403
  C      -2.815505      1.380005     -0.062915
  C      -1.678407      1.374942      0.747404
  O       3.010796      1.182597      1.832454
  H       1.641750     -0.602416     -1.365190
  H      -1.309803     -2.364211     -2.053429
  H      -2.965384     -3.069552     -0.328630
  H      -2.484206     -2.678450      2.096542
  H      -0.338469     -1.552659      2.744235
  H       0.649340      2.318684     -1.567710
  H      -1.388852      2.330218     -3.010371
  H      -3.601598      1.711649     -2.047807
  H      -3.778461      1.107394      0.364164
  H      -1.729161      1.093713      1.795249
  H       2.677456      1.113714      2.746671
>
29
-1181.51316006; 31P isotropic shielding: 281.223009 ppm
  O       0.424132     -3.050515     -1.363108
  C      -0.011410     -3.035100     -0.070700
  C      -0.868412     -4.065484      0.353685
  C      -1.329997     -4.123681      1.668340
  C      -0.954358     -3.145131      2.597283
  C      -0.096520     -2.117772      2.198536
  C       0.371824     -2.074858      0.888074
  O       1.344278     -1.078844      0.582490
  P       1.062574      0.089677     -0.466386
  O       0.721278     -0.358481     -1.844105
  O      -0.034038      0.969457      0.302035
  C      -0.594324      2.117762     -0.315838
  C      -0.212562      3.367351      0.167486
  C      -0.791369      4.509832     -0.394769
  C      -1.730491      4.389832     -1.425510
  C      -2.095641      3.122796     -1.894596
  C      -1.528843      1.970865     -1.339249
  O       2.396584      0.976893     -0.367338
  H       0.634858     -2.131079     -1.670275
  H      -1.159405     -4.812278     -0.382236
  H      -1.993061     -4.933643      1.966852
  H      -1.318031     -3.182264      3.621539
  H       0.233802     -1.349287      2.893717
  H       0.522675      3.432802      0.965672
  H      -0.504477      5.493177     -0.026933
  H      -2.177041      5.281269     -1.861528
  H      -2.824762      3.025946     -2.696765
  H      -1.790225      0.978518     -1.695661
  H       2.949560      0.869840     -1.163516
>
29
-1181.51408842; 31P isotropic shielding: 274.111380 ppm
  O       0.077527     -1.944105     -1.548807
  C      -0.124556     -2.583946     -0.358492
  C      -0.256842     -3.982341     -0.362231
  C      -0.491784     -4.685475      0.819828
  C      -0.592512     -4.008277      2.041250
  C      -0.474362     -2.616371      2.064821
  C      -0.254760     -1.921115      0.878767
  O      -0.277845     -0.498999      0.943916
  P       1.020144      0.382696      0.626088
  O       1.675653      0.101613     -0.679397
  O       0.465537      1.864275      0.855776
  C      -0.277811      2.596852     -0.095528
  C      -1.094480      1.986166     -1.048116
  C      -1.809458      2.798593     -1.935213
  C      -1.714539      4.191746     -1.862786
  C      -0.894978      4.781315     -0.893510
  C      -0.168932      3.984373     -0.004532
  O       1.959972      0.188486      1.911670
  H       0.643838     -1.140359     -1.408797
  H      -0.163277     -4.495379     -1.317181
  H      -0.588484     -5.769171      0.787532
  H      -0.767254     -4.553820      2.965761
  H      -0.567434     -2.051930      2.989942
  H      -1.178789      0.904838     -1.104563
  H      -2.445709      2.331287     -2.684346
  H      -2.276088      4.814373     -2.556200
  H      -0.814798      5.864824     -0.828553
  H       0.477420      4.419704      0.753840
  H       2.899405      0.130948      1.655860
>
29
-1181.51390883; 31P isotropic shielding: 274.486625 ppm
  O       1.396113     -2.567297     -1.237447
  C       0.426221     -2.778887     -0.304379
  C      -0.456934     -3.855643     -0.499979
  C      -1.456516     -4.147330      0.427370
  C      -1.609398     -3.364126      1.578531
  C      -0.738121     -2.294649      1.795953
  C       0.266742     -2.018952      0.872738
  O       1.195729     -0.992736      1.214044
  P       1.329053      0.343497      0.343691
  O       1.725219      0.172995     -1.072241
  O      -0.103347      1.035228      0.603763
  C      -0.645721      2.074575     -0.181242
  C      -2.037736      2.123142     -0.249121
  C      -2.644753      3.150966     -0.976123
  C      -1.863712      4.111514     -1.628860
  C      -0.469087      4.041873     -1.549703
  C       0.153704      3.022779     -0.821079
  O       2.412036      1.186634      1.170512
  H       1.679737     -1.617214     -1.248094
  H      -0.332259     -4.449170     -1.403299
  H      -2.124405     -4.987564      0.246680
  H      -2.391904     -3.584112      2.301034
  H      -0.812354     -1.672774      2.685382
  H      -2.623189      1.360950      0.259454
  H      -3.730607      3.195453     -1.035181
  H      -2.339109      4.907881     -2.197701
  H       0.145378      4.782504     -2.058006
  H       1.237467      2.965908     -0.766596
  H       2.184356      1.304057      2.112101
>
29
-1181.51263374; 31P isotropic shielding: 280.626198 ppm
  O      -0.057809     -2.045881     -1.443712
  C      -0.147218     -2.608758     -0.201792
  C      -0.270814     -4.004515     -0.103984
  C      -0.390765     -4.630016      1.137547
  C      -0.381937     -3.875745      2.317254
  C      -0.271726     -2.485126      2.240726
  C      -0.167962     -1.867941      0.997252
  O      -0.193472     -0.444351      0.972310
  P       1.071645      0.410945      0.490228
  O       1.605400      0.050434     -0.850553
  O       0.541818      1.906997      0.681939
  C      -0.282544      2.584131     -0.244106
  C      -0.126275      3.969151     -0.291020
  C      -0.928562      4.712800     -1.160591
  C      -1.870029      4.072351     -1.974297
  C      -2.009663      2.682499     -1.910624
  C      -1.219248      1.923913     -1.040091
  O       2.123181      0.283432      1.694985
  H       0.513139     -1.234267     -1.406338
  H      -0.262628     -4.577861     -1.028676
  H      -0.483052     -5.713579      1.183911
  H      -0.466302     -4.361010      3.286938
  H      -0.281784     -1.862237      3.132338
  H       0.615129      4.443937      0.347192
  H      -0.812334      5.794147     -1.202944
  H      -2.491121      4.653247     -2.652984
  H      -2.740097      2.176429     -2.538937
  H      -1.337422      0.845557     -0.987921
  H       3.035453      0.203916      1.359249
>
29
-1181.51404093; 31P isotropic shielding: 274.337389 ppm
  O       0.554126     -1.553443     -1.768971
  C      -0.164352     -1.707320     -0.624085
  C      -1.483180     -2.180843     -0.743292
  C      -2.281548     -2.388087      0.379155
  C      -1.784349     -2.128437      1.662613
  C      -0.481183     -1.650231      1.802071
  C       0.309809     -1.435784      0.676146
  O       1.633535     -0.969532      0.906162
  P       2.171179      0.412785      0.270104
  O       2.497081      0.324257     -1.172389
  O       1.101629      1.543020      0.693352
  C      -0.150185      1.659210      0.024194
  C      -0.204835      1.904834     -1.346635
  C      -1.461078      2.006503     -1.953854
  C      -2.629473      1.875732     -1.197265
  C      -2.545765      1.648840      0.181429
  C      -1.299683      1.540601      0.801874
  O       3.433482      0.759926      1.176880
  H       1.365028     -0.997947     -1.635554
  H      -1.855762     -2.377446     -1.746304
  H      -3.298132     -2.755215      0.251239
  H      -2.400536     -2.296349      2.542893
  H      -0.057519     -1.433700      2.780599
  H       0.711261      1.990320     -1.922645
  H      -1.519839      2.185839     -3.025627
  H      -3.602212      1.950774     -1.679180
  H      -3.450901      1.543826      0.776118
  H      -1.211341      1.341985      1.866116
  H       3.242143      0.783682      2.133153
>
29
-1181.51318300; 31P isotropic shielding: 281.394051 ppm
  O       1.853804     -2.814576     -0.681238
  C       0.654992     -2.920691     -0.041702
  C       0.248993     -4.192217      0.400659
  C      -0.976294     -4.374728      1.041056
  C      -1.830771     -3.287897      1.266244
  C      -1.450106     -2.017727      0.827532
  C      -0.231632     -1.845683      0.175918
  O       0.045885     -0.554216     -0.354541
  P       1.257734      0.334403      0.202389
  O       2.611128     -0.248326      0.028683
  O       1.063112      1.699697     -0.597286
  C      -0.104316      2.499196     -0.502217
  C      -1.200098      2.207559     -1.312014
  C      -2.320315      3.042773     -1.247402
  C      -2.331590      4.147196     -0.387927
  C      -1.216398      4.421555      0.411801
  C      -0.089959      3.594356      0.358554
  O       0.856647      0.648990      1.733004
  H       2.222523     -1.898442     -0.592322
  H       0.926858     -5.025603      0.227712
  H      -1.262377     -5.371179      1.372873
  H      -2.783506     -3.425561      1.772358
  H      -2.090894     -1.150188      0.968720
  H      -1.170986      1.344214     -1.970834
  H      -3.184048      2.828471     -1.873978
  H      -3.205377      4.794262     -0.343884
  H      -1.219303      5.281198      1.079274
  H       0.788394      3.788502      0.968794
  H       1.603302      0.466758      2.332774
>
29
-1181.51384387; 31P isotropic shielding: 279.594019 ppm
  O       1.151142     -2.220179      1.778478
  C       0.062398     -2.096079      0.958976
  C      -1.157011     -2.631274      1.401456
  C      -2.301493     -2.540662      0.608661
  C      -2.251668     -1.919579     -0.645600
  C      -1.045943     -1.380222     -1.094968
  C       0.090238     -1.462534     -0.294944
  O       1.298606     -0.921776     -0.795302
  P       2.000813      0.428995     -0.262659
  O       2.692785      1.186470     -1.319899
  O       0.895240      1.164729      0.644564
  C      -0.351940      1.590578      0.132748
  C      -1.459435      1.368901      0.948972
  C      -2.719510      1.759691      0.493155
  C      -2.861483      2.362096     -0.762941
  C      -1.733450      2.584012     -1.559215
  C      -0.461479      2.204706     -1.114598
  O       2.970957     -0.102954      0.926594
  H       1.928291     -1.752359      1.411808
  H      -1.178852     -3.117190      2.374791
  H      -3.236810     -2.962068      0.972258
  H      -3.142293     -1.847197     -1.264975
  H      -0.971646     -0.875323     -2.054806
  H      -1.326572      0.872133      1.906363
  H      -3.593066      1.581040      1.117006
  H      -3.846279      2.660266     -1.116964
  H      -1.836054      3.059527     -2.532972
  H       0.424398      2.372374     -1.721824
  H       3.892718      0.172979      0.768238
>
29
-1181.51024377; 31P isotropic shielding: 283.504769 ppm
  O       2.140805     -2.191788     -0.060131
  C       1.057340     -2.923228      0.408146
  C       0.995506     -4.315835      0.312806
  C      -0.111717     -5.007908      0.813106
  C      -1.162834     -4.308309      1.412829
  C      -1.106339     -2.914116      1.502645
  C      -0.005304     -2.224006      1.003028
  O       0.044643     -0.836390      1.157946
  P       0.148749      0.145931     -0.132751
  O      -0.349854     -0.432082     -1.396183
  O      -0.623406      1.404361      0.497914
  C      -0.717955      2.635617     -0.186856
  C      -1.195497      2.704331     -1.497066
  C      -1.307063      3.960839     -2.102388
  C      -0.957838      5.122350     -1.404875
  C      -0.489055      5.028363     -0.089281
  C      -0.363168      3.779814      0.526899
  O       1.665516      0.685352     -0.135946
  H       2.717643     -2.785460     -0.572904
  H       1.820203     -4.857188     -0.152409
  H      -0.147260     -6.092178      0.732031
  H      -2.026724     -4.841194      1.803257
  H      -1.912314     -2.339391      1.952976
  H      -1.460473      1.792898     -2.025759
  H      -1.674583      4.027440     -3.124910
  H      -1.051866      6.095555     -1.882803
  H      -0.214817      5.927355      0.459886
  H       0.005030      3.680090      1.545100
  H       2.262532     -0.059422     -0.354008
>
29
-1181.50695268; 31P isotropic shielding: 278.379855 ppm
  O       1.062912     -2.826303     -1.392945
  C       0.299167     -2.977494     -0.273010
  C      -0.550790     -4.094604     -0.195959
  C      -1.338571     -4.324848      0.931529
  C      -1.306335     -3.437210      2.014215
  C      -0.462891     -2.325353      1.961229
  C       0.331497     -2.109992      0.838188
  O       1.262010     -1.033169      0.903705
  P       1.178725      0.225070     -0.073739
  O       1.278513     -0.086701     -1.525639
  O      -0.164875      0.943607      0.422126
  C      -0.649323      2.099871     -0.242873
  C      -1.268985      1.977548     -1.485130
  C      -1.779013      3.129977     -2.091939
  C      -1.668063      4.373075     -1.458399
  C      -1.042495      4.468492     -0.210201
  C      -0.524119      3.325483      0.407490
  O       2.344414      1.176268      0.485091
  H       1.278935     -1.869851     -1.542463
  H      -0.572476     -4.770086     -1.048717
  H      -1.986765     -5.198749      0.961758
  H      -1.924143     -3.608756      2.892624
  H      -0.394397     -1.622173      2.788158
  H      -1.333860      1.004554     -1.963821
  H      -2.263520      3.052490     -3.063373
  H      -2.068571      5.265068     -1.936015
  H      -0.953958      5.433316      0.285627
  H      -0.030174      3.372368      1.374810
  H       3.107752      1.191702     -0.121730
