44
-1724.08972916; 31P isotropic shielding: 184.014807 ppm
  C      -0.653651      2.238276      1.883833
  N      -1.403698      1.049174      1.474785
  P      -1.334246      0.453545     -0.101030
  S      -0.600269      1.707311     -1.421350
  C      -0.473464     -1.156560      0.036624
  C      -1.131510     -2.391341     -0.084335
  C      -0.439875     -3.597523      0.044173
  C       0.930724     -3.580844      0.321483
  C       1.596603     -2.365777      0.490046
  C       0.902601     -1.153313      0.358197
  O       1.516262      0.041878      0.605911
  Si      2.914818      0.667956     -0.129239
  C       2.810069      2.515366      0.144341
  C       4.434072     -0.026624      0.746357
  C       2.912313      0.179782     -1.938641
  N      -2.953817     -0.019270     -0.412214
  C      -4.006950      0.926494      0.001519
  C      -3.188544     -0.493122     -1.793490
  C      -1.702003      0.113585      2.566360
  H      -1.250404      2.813452      2.607449
  H       0.306244      1.966145      2.351182
  H      -0.454770      2.863738      1.010835
  H      -2.202881     -2.402971     -0.259018
  H      -0.970356     -4.542004     -0.059966
  H       1.480323     -4.514768      0.428592
  H       2.651214     -2.344898      0.752658
  H       3.696991      3.018090     -0.265908
  H       1.918151      2.921726     -0.346034
  H       2.756057      2.754092      1.215079
  H       5.340258      0.501242      0.415885
  H       4.354950      0.098028      1.834988
  H       4.583786     -1.094037      0.537627
  H       3.791379      0.589224     -2.455636
  H       2.008538      0.559182     -2.430592
  H       2.934248     -0.911860     -2.056260
  H      -4.975280      0.411871     -0.058485
  H      -3.842642      1.251852      1.030856
  H      -4.045246      1.818546     -0.647846
  H      -4.121388     -1.073360     -1.816048
  H      -3.269025      0.348088     -2.500916
  H      -2.369366     -1.133734     -2.130321
  H      -2.325325     -0.708444      2.203583
  H      -2.254333      0.641552      3.357122
  H      -0.783458     -0.310044      3.006742
>
44
-1724.09879369; 31P isotropic shielding: 182.808661 ppm
  C      -0.661329      2.219593      1.893512
  N      -1.413617      1.035703      1.473597
  P      -1.348664      0.457155     -0.108724
  S      -0.619986      1.725786     -1.417674
  C      -0.486063     -1.153557      0.008364
  C      -1.143301     -2.387595     -0.124160
  C      -0.449977     -3.594410     -0.011105
  C       0.921446     -3.579331      0.262087
  C       1.586675     -2.365486      0.441891
  C       0.891063     -1.152317      0.325653
  O       1.504430      0.040683      0.584223
  Si      2.900485      0.675273     -0.148515
  C       2.795492      2.519848      0.144314
  C       4.422833     -0.027348      0.715323
  C       2.892908      0.205812     -1.962865
  N      -2.968955     -0.013381     -0.419898
  C      -3.207631     -0.472496     -1.805542
  C      -4.021386      0.927524      0.006743
  C      -1.709671      0.088360      2.555635
  H       0.299148      1.941704      2.356273
  H      -0.463355      2.853892      1.026678
  H      -1.255987      2.788029      2.624179
  H      -2.215180     -2.398449     -0.295669
  H      -0.979824     -4.538277     -0.123826
  H       1.472374     -4.513792      0.357171
  H       2.642164     -2.346467      0.701175
  H       3.681233      3.027112     -0.263019
  H       1.902383      2.930723     -0.340171
  H       2.743913      2.747972      1.217454
  H       4.573571     -1.092103      0.494050
  H       5.327551      0.505544      0.388867
  H       4.346085      0.084750      1.805506
  H       1.987742      0.589964     -2.448585
  H       2.915190     -0.884467     -2.092401
  H       3.770509      0.621260     -2.477656
  H      -4.139429     -1.054313     -1.831349
  H      -3.292341      0.376347     -2.503298
  H      -2.388397     -1.107624     -2.152438
  H      -4.061038      1.826783     -0.632506
  H      -4.989747      0.413422     -0.057101
  H      -3.855044      1.241271      1.039362
  H      -0.790376     -0.341311      2.988528
  H      -2.335119     -0.728861      2.185667
  H      -2.258979      0.608076      3.353951
>
44
-1724.09878220; 31P isotropic shielding: 182.789418 ppm
  C      -2.493436      0.704029      2.992744
  N      -2.516630      0.476605      1.546257
  P      -1.141318      0.624673      0.565330
  S       0.103988      1.950486      1.312193
  C      -0.386200     -1.028496      0.423201
  C      -0.792554     -2.055365      1.289013
  C      -0.137753     -3.289115      1.306020
  C       0.939432     -3.507780      0.441239
  C       1.357572     -2.501249     -0.432764
  C       0.706081     -1.259892     -0.443614
  O       1.070819     -0.277238     -1.312643
  Si      2.561035      0.520338     -1.469751
  C       2.100253      2.254361     -1.999572
  C       3.467507      0.453568      0.168538
  C       3.547950     -0.349961     -2.818405
  N      -1.739071      0.959295     -0.965552
  C      -1.888458      0.002833     -2.058416
  C      -2.117431      2.333718     -1.297140
  C      -3.728462     -0.182811      1.059007
  H      -1.576176      1.231578      3.264584
  H      -3.357176      1.320479      3.286129
  H      -2.543937     -0.244593      3.555994
  H      -1.623214     -1.878113      1.966531
  H      -0.466200     -4.071852      1.986755
  H       1.455789     -4.466497      0.442354
  H       2.184478     -2.669913     -1.119296
  H       2.994811      2.869992     -2.167616
  H       1.524528      2.237513     -2.935211
  H       1.487459      2.729144     -1.223730
  H       2.850365      0.894127      0.960990
  H       3.710254     -0.578431      0.454055
  H       4.411391      1.013778      0.109948
  H       2.968841     -0.418740     -3.749412
  H       3.831309     -1.369132     -2.522432
  H       4.474521      0.198241     -3.041310
  H      -2.923968      0.017913     -2.438131
  H      -1.209791      0.245907     -2.890229
  H      -1.665255     -1.011309     -1.720609
  H      -1.546443      2.688064     -2.169811
  H      -3.192190      2.399028     -1.534042
  H      -1.897036      2.995822     -0.454822
  H      -3.838679     -1.206186      1.459594
  H      -3.719225     -0.240461     -0.032123
  H      -4.614180      0.395243      1.364453
>
44
-1724.09950948; 31P isotropic shielding: 185.706673 ppm
  C      -1.289781      2.343145      2.056460
  N      -1.069533      0.959478      1.633035
  P      -1.289104      0.557040      0.020062
  S      -0.610442      1.858180     -1.288095
  C      -0.508013     -1.079187     -0.167590
  C      -1.250792     -2.148395     -0.691666
  C      -0.646971     -3.372757     -0.987438
  C       0.721873     -3.538869     -0.753724
  C       1.479828     -2.489551     -0.228116
  C       0.875395     -1.258083      0.061059
  O       1.584185     -0.233844      0.610472
  Si      2.937034      0.591871      0.005098
  C       2.944986      0.473032     -1.864869
  C       2.730168      2.337532      0.645415
  C       4.480769     -0.207785      0.731919
  N      -2.963269      0.349915     -0.154429
  C      -3.657970      0.514014     -1.433076
  C      -3.756587     -0.309498      0.883196
  C      -0.644798      0.054516      2.697029
  H      -0.380317      2.748910      2.527103
  H      -1.530790      2.965382      1.189824
  H      -2.115554      2.404470      2.784305
  H      -2.311746     -2.013166     -0.882935
  H      -1.239844     -4.189015     -1.395081
  H       1.203240     -4.489798     -0.976815
  H       2.541650     -2.616820     -0.028530
  H       3.057452     -0.565961     -2.201798
  H       2.007531      0.868421     -2.274301
  H       3.780379      1.051241     -2.284219
  H       3.574228      2.975204      0.348321
  H       1.804162      2.771863      0.249464
  H       2.674574      2.344653      1.742745
  H       4.423891     -0.252848      1.828065
  H       5.380532      0.365906      0.467397
  H       4.621861     -1.231575      0.359582
  H      -3.934710     -0.458838     -1.876779
  H      -4.581442      1.093936     -1.281908
  H      -3.014172      1.053567     -2.131660
  H      -3.210060     -0.324715      1.829290
  H      -4.696828      0.241542      1.038691
  H      -4.014559     -1.349303      0.615081
  H      -1.376167      0.065966      3.522895
  H       0.335346      0.353612      3.098698
  H      -0.564935     -0.969788      2.327330
>
44
-1724.09952317; 31P isotropic shielding: 185.863248 ppm
  C      -1.293609      2.891154     -0.953085
  N      -0.621316      1.579866     -0.901956
  P      -1.625277      0.265690     -0.503868
  S      -3.108895     -0.083069     -1.744831
  C      -0.488941     -1.179878     -0.360214
  C      -0.958511     -2.409427     -0.854591
  C      -0.224323     -3.587402     -0.715937
  C       1.015318     -3.551791     -0.071474
  C       1.508872     -2.345216      0.425245
  C       0.770733     -1.158241      0.286684
  O       1.246383      0.022468      0.777153
  Si      2.803893      0.651263      0.910399
  C       3.641959     -0.025176      2.452558
  C       3.790060      0.237391     -0.634347
  C       2.519792      2.496547      1.074378
  N      -2.171921      0.696686      1.039658
  C      -3.397690      0.083503      1.565195
  C      -1.247177      1.138695      2.090921
  C       0.264556      1.372700     -2.057824
  H      -1.899098      3.011303     -1.866979
  H      -1.948471      3.008299     -0.085734
  H      -0.527496      3.678248     -0.929126
  H      -1.919279     -2.415967     -1.364756
  H      -0.616684     -4.522363     -1.110552
  H       1.602335     -4.461375      0.047312
  H       2.468488     -2.318118      0.935639
  H       4.587024      0.503065      2.643143
  H       3.000647      0.110164      3.334003
  H       3.873056     -1.094837      2.368303
  H       3.309369      0.647397     -1.531587
  H       4.799300      0.667469     -0.568551
  H       3.898785     -0.845053     -0.777074
  H       3.473456      3.039774      1.122059
  H       1.955556      2.731877      1.986433
  H       1.949243      2.878441      0.219004
  H      -3.181264     -0.822412      2.158529
  H      -3.908250      0.807057      2.217054
  H      -4.062808     -0.180473      0.739635
  H      -1.782562      1.826151      2.762147
  H      -0.869229      0.294912      2.692976
  H      -0.396468      1.656433      1.649407
  H       1.044428      2.146192     -2.049901
  H      -0.281415      1.435541     -3.014670
  H       0.745534      0.392911     -2.000779
>
44
-1724.09691259; 31P isotropic shielding: 176.500218 ppm
  C      -1.354902      2.961221     -0.452036
  N      -0.660624      1.670990     -0.617075
  P      -1.631299      0.291372     -0.397929
  S      -3.139850      0.102903     -1.643334
  C      -0.467914     -1.135868     -0.498742
  C      -0.925860     -2.285529     -1.165881
  C      -0.168666     -3.456056     -1.219160
  C       1.081773     -3.494390     -0.596099
  C       1.564147     -2.366911      0.068947
  C       0.804091     -1.186789      0.121699
  O       1.272072     -0.084255      0.775553
  Si      2.820771      0.564461      0.926807
  C       2.503637      2.355661      1.378345
  C       3.752508     -0.306521      2.310054
  C       3.737084      0.399320     -0.705000
  N      -2.144361      0.474556      1.204697
  C      -1.205271      0.789240      2.288671
  C      -3.346317     -0.232788      1.662130
  C       0.194294      1.659227     -1.813634
  H      -0.601706      3.749411     -0.315913
  H      -1.978566      3.211188     -1.326535
  H      -1.996553      2.929456      0.432367
  H      -1.896127     -2.233771     -1.655006
  H      -0.552287     -4.328210     -1.744591
  H       1.685669     -4.400197     -0.625305
  H       2.531563     -2.396397      0.564235
  H       1.964294      2.430938      2.331824
  H       3.445880      2.910710      1.483066
  H       1.896401      2.849894      0.610332
  H       3.152209     -0.330148      3.229596
  H       4.009950     -1.341945      2.051985
  H       4.690513      0.219991      2.536726
  H       3.232279      0.952772     -1.506448
  H       3.817526     -0.648540     -1.020886
  H       4.756988      0.798157     -0.612268
  H      -0.372565      1.376315      1.903900
  H      -1.736711      1.371397      3.055955
  H      -0.801258     -0.120072      2.765332
  H      -3.856195      0.380210      2.419390
  H      -4.024768     -0.391763      0.820621
  H      -3.098901     -1.208246      2.116514
  H       0.698156      0.694657     -1.915923
  H       0.957212      2.443146     -1.712943
  H      -0.381816      1.848204     -2.735638
>
44
-1724.09681244; 31P isotropic shielding: 176.646625 ppm
  C       0.166485      1.818788     -1.640253
  N      -0.698221      1.696955     -0.456999
  P      -1.634300      0.279152     -0.377727
  S      -3.131718      0.173309     -1.646136
  C      -0.434110     -1.102327     -0.605676
  C      -0.857341     -2.192837     -1.385481
  C      -0.069894     -3.333552     -1.543841
  C       1.176470     -3.401026     -0.914806
  C       1.624499     -2.331803     -0.138719
  C       0.833708     -1.181859      0.020303
  O       1.266676     -0.137643      0.784293
  Si      2.792987      0.540964      1.009487
  C       2.420005      2.281200      1.596589
  C       3.731454     -0.411655      2.332720
  C       3.738145      0.535108     -0.614694
  N      -2.160076      0.293868      1.231766
  C      -1.233689      0.528096      2.347139
  C      -3.332401     -0.505938      1.607601
  C      -1.424062      2.948773     -0.174789
  H      -0.404580      2.091458     -2.544217
  H       0.917093      2.598846     -1.453450
  H       0.685649      0.876577     -1.833689
  H      -1.824988     -2.118232     -1.876896
  H      -0.427249     -4.160268     -2.154349
  H       1.803454     -4.284614     -1.025213
  H       2.588695     -2.384327      0.361198
  H       3.345808      2.850051      1.759005
  H       1.811245      2.818624      0.859576
  H       1.866251      2.268428      2.544649
  H       4.007707     -1.421547      2.002760
  H       4.659118      0.113091      2.602014
  H       3.127382     -0.511041      3.244688
  H       4.733055      0.981594     -0.477803
  H       3.214695      1.114102     -1.385697
  H       3.881135     -0.482460     -0.999428
  H      -1.792028      0.993099      3.172795
  H      -0.784650     -0.408348      2.719021
  H      -0.431513      1.195129      2.034029
  H      -4.006033     -0.598010      0.752392
  H      -3.046352     -1.515064      1.952934
  H      -3.863458      0.000304      2.426527
  H      -0.690339      3.737663      0.040812
  H      -2.068626      2.817295      0.698190
  H      -2.049289      3.266279     -1.025922
>
44
-1724.09671963; 31P isotropic shielding: 176.421132 ppm
  C      -1.362993      2.889930      0.449350
  N      -1.175792      1.480932      0.793952
  P      -1.186712      0.312889     -0.419029
  S      -0.317731      0.867153     -2.092146
  C      -0.407162     -1.148179      0.343133
  C      -1.028864     -2.404571      0.267594
  C      -0.384546     -3.559041      0.716130
  C       0.905957     -3.465978      1.247980
  C       1.545639     -2.227415      1.327761
  C       0.901786     -1.067703      0.872631
  O       1.501624      0.149927      0.973567
  Si      2.931215      0.719368      0.263436
  C       4.318931      0.537612      1.524770
  C       3.297262     -0.281111     -1.278600
  C       2.583296      2.524717     -0.085453
  N      -2.796616     -0.171367     -0.682705
  C      -3.684742     -0.246630      0.481435
  C      -3.492523      0.027369     -1.956300
  C      -1.098529      1.213059      2.226762
  H      -2.330000      3.269732      0.820822
  H      -0.559769      3.497565      0.895116
  H      -1.322683      3.016165     -0.636427
  H      -2.022423     -2.466207     -0.168880
  H      -0.884845     -4.522985      0.648660
  H       1.417989     -4.359171      1.602808
  H       2.545191     -2.142680      1.748864
  H       5.246676      0.996805      1.154491
  H       4.058898      1.028136      2.472720
  H       4.536506     -0.517376      1.740273
  H       3.475984     -1.338083     -1.040796
  H       2.453644     -0.223511     -1.977311
  H       4.194466      0.103726     -1.783335
  H       1.768374      2.611606     -0.814036
  H       3.470815      3.033775     -0.485823
  H       2.282030      3.045620      0.833694
  H      -4.158661      0.723894      0.711922
  H      -4.481898     -0.978092      0.285919
  H      -3.139063     -0.581711      1.369157
  H      -4.169049     -0.821181     -2.140063
  H      -4.093512      0.953630     -1.957585
  H      -2.762718      0.086896     -2.766643
  H      -0.238347      1.738710      2.669134
  H      -0.974556      0.144837      2.417804
  H      -2.014348      1.552239      2.739946
>
44
-1724.09894005; 31P isotropic shielding: 187.363149 ppm
  C      -1.035994      2.286706      2.207438
  N      -0.894381      0.921161      1.702440
  P      -1.242830      0.591654      0.088558
  S      -0.632635      1.967194     -1.175034
  C      -0.492771     -1.041498     -0.217797
  C      -1.245618     -2.061847     -0.820270
  C      -0.656832     -3.270526     -1.196340
  C       0.709124     -3.471367     -0.971119
  C       1.478246     -2.468514     -0.377595
  C       0.889853     -1.250637     -0.006418
  O       1.622595     -0.276462      0.598990
  Si      2.951013      0.599791      0.013301
  C       2.921042      0.583037     -1.860211
  C       2.740357      2.308451      0.747279
  C       4.517623     -0.217810      0.666903
  N      -2.913870      0.316620     -0.051124
  C      -3.591332     -0.394182      1.036789
  C      -3.800620      1.126846     -0.888211
  C      -0.582453     -0.073013      2.724657
  H      -1.885450      2.370809      2.906572
  H      -0.120400      2.589882      2.739077
  H      -1.188995      2.977985      1.373492
  H      -2.301540     -1.886289     -1.009108
  H      -1.258990     -4.047479     -1.663018
  H       1.179372     -4.411099     -1.256798
  H       2.539140     -2.618695     -0.189037
  H       1.971486      0.990237     -2.228369
  H       3.740893      1.193361     -2.264339
  H       3.036926     -0.434476     -2.256256
  H       3.588546      2.959615      0.494375
  H       1.820049      2.766624      0.365519
  H       2.672963      2.254670      1.842470
  H       4.487253     -0.312976      1.760895
  H       5.405502      0.376625      0.407938
  H       4.659058     -1.222346      0.245365
  H      -2.918809     -1.114834      1.511998
  H      -3.969232      0.292707      1.814535
  H      -4.446923     -0.954340      0.632235
  H      -3.215426      1.628434     -1.662050
  H      -4.551508      0.478150     -1.365202
  H      -4.332848      1.893469     -0.298545
  H      -1.357500     -0.086273      3.509888
  H       0.385589      0.154028      3.196909
  H      -0.518475     -1.072892      2.289918
>
44
-1724.09924568; 31P isotropic shielding: 187.541828 ppm
  C      -1.494961      2.743663      1.179212
  N      -1.221705      1.306103      1.200003
  P      -1.238610      0.451877     -0.243039
  S      -0.420125      1.354338     -1.785879
  C      -0.423299     -1.132155      0.142536
  C      -1.088708     -2.340498     -0.114807
  C      -0.442703     -3.569348      0.039133
  C       0.890052     -3.597339      0.462126
  C       1.570843     -2.406572      0.727624
  C       0.925272     -1.172602      0.564551
  O       1.553598      0.000303      0.851477
  Si      2.968754      0.658258      0.184478
  C       3.189173      0.005756     -1.558146
  C       2.688149      2.506082      0.263268
  C       4.420104      0.150728      1.273498
  N      -2.876789      0.127242     -0.538729
  C      -3.409462     -0.123516     -1.879547
  C      -3.785681     -0.236118      0.549026
  C      -0.917953      0.759363      2.519181
  H      -2.399957      2.980133      1.762821
  H      -0.647765      3.301138      1.609180
  H      -1.636752      3.082485      0.148865
  H      -2.120975     -2.315208     -0.452892
  H      -0.975386     -4.495388     -0.167507
  H       1.403402     -4.549096      0.590342
  H       2.602509     -2.422023      1.072321
  H       3.316370     -1.084940     -1.565659
  H       2.314949      0.253456     -2.172133
  H       4.080577      0.448060     -2.025122
  H       2.505775      2.828457      1.297733
  H       3.558898      3.060787     -0.112653
  H       1.812425      2.773265     -0.340759
  H       4.603726     -0.931262      1.226799
  H       4.239817      0.417006      2.323911
  H       5.343188      0.655622      0.954456
  H      -2.688059      0.213380     -2.627677
  H      -3.622692     -1.195065     -2.041818
  H      -4.348680      0.434447     -2.015934
  H      -4.745958      0.286506      0.420493
  H      -3.992171     -1.320691      0.577436
  H      -3.364108      0.058591      1.513019
  H       0.012196      1.190659      2.920113
  H      -0.799139     -0.325137      2.472686
  H      -1.736839      0.985753      3.222714
>
44
-1724.09944501; 31P isotropic shielding: 185.952032 ppm
  C      -0.358065      2.812724     -0.549817
  N      -1.091826      1.810919      0.229563
  P      -1.694425      0.413403     -0.498889
  S      -2.315126      0.779477     -2.324882
  C      -0.519257     -0.998678     -0.497385
  C      -1.059143     -2.205784     -0.984408
  C      -0.292852     -3.360906     -1.105744
  C       1.058610     -3.319878     -0.746131
  C       1.620825     -2.135313     -0.276278
  C       0.847681     -0.964521     -0.147885
  O       1.399225      0.203512      0.311112
  Si      3.003935      0.569129      0.718174
  C       2.983865      2.377155      1.216635
  C       3.548596     -0.471049      2.190307
  C       4.118853      0.324391     -0.775657
  N      -2.894200     -0.157431      0.545154
  C      -2.683102     -1.069952      1.667818
  C      -4.198514      0.509840      0.544662
  C      -0.883696      1.877053      1.677209
  H      -0.713520      2.793109     -1.582905
  H      -0.551725      3.808171     -0.124750
  H       0.726474      2.632174     -0.541208
  H      -2.105137     -2.217493     -1.282817
  H      -0.739576     -4.277721     -1.484528
  H       1.680764     -4.208980     -0.835815
  H       2.671951     -2.116796     -0.006594
  H       3.983012      2.665580      1.573551
  H       2.726291      3.035772      0.378672
  H       2.271457      2.569499      2.028349
  H       3.647433     -1.537358      1.955484
  H       4.523024     -0.120737      2.559231
  H       2.828550     -0.377028      3.014660
  H       4.207028     -0.725354     -1.079219
  H       5.130520      0.694894     -0.557530
  H       3.735383      0.888844     -1.636320
  H      -3.394506     -1.909512      1.614746
  H      -1.670723     -1.478909      1.652226
  H      -2.836043     -0.560142      2.635476
  H      -4.313600      1.178265      1.415523
  H      -4.311998      1.094619     -0.373043
  H      -5.000874     -0.242559      0.579323
  H      -1.007258      2.918404      2.006835
  H       0.117154      1.532749      1.978310
  H      -1.629366      1.270418      2.196485
