29
-957.71011339; 31P isotropic shielding: 189.570956 ppm
  O   -0.54552149919684      1.81480104405256     -0.79576744114744
  P   -0.31157467276004      0.46074050366656     -0.20320905043810
  C   -1.17166288066362     -0.07015208073506      1.39937590832128
  C   -0.67538262425663     -1.49843933007236      1.43371822271887
  C   -0.67898761117169     -2.05864584886903      0.20267565992603
  C   -1.17859311579081     -1.09374140677002     -0.85053471410259
  C   -2.67339643245368     -0.78496766151058     -0.49889845848539
  C   -2.66891805477280     -0.12771682117733      0.94578616707937
  C   -3.33156245932705      1.07003555215120      0.26838729253003
  C   -3.33576043991488      0.51337312095000     -0.95416040597554
  C   1.48051660055420      0.14425479248886     -0.06405824214442
  C   2.21109510524486      0.92385922140841      0.84774816372005
  C   3.60696549052498      0.87157292992124      0.86392787222445
  C   4.28789315657729      0.05144705627299     -0.04280850867616
  C   3.56662319825529     -0.72027490389750     -0.96022876732165
  C   2.16934418879406     -0.67482468607796     -0.97008036871126
  H   -0.98186459329903      0.53267525592614      2.29037072607164
  H   -0.30708173824926     -1.97882603310636      2.33631990975385
  H   -0.31444901836466     -3.05563176572233     -0.03049751693651
  H   -1.00171196719835     -1.37269621395044     -1.89173554548814
  H   -3.27503315979058     -1.69785626948907     -0.59986508012168
  H   -3.27017912477844     -0.64947853756339      1.70199788744910
  H   -3.64766557117200      2.03760290514198      0.65096402568936
  H   -3.65666002521148      0.86065110166997     -1.93340566073874
  H   1.68921422908687      1.59211439202448      1.53142477337665
  H   4.16365808163180      1.48113522495630      1.57401416495090
  H   5.37621113226970      0.02113851699069     -0.04036315435369
  H   4.09274273221903     -1.35210862271076     -1.67411707380737
  H   1.61884107321377     -1.27164143596919     -1.69508078536292
