28
-1065.21744307; 31P isotropic shielding: 320.117190 ppm
  C       4.762531      0.631033      0.431423
  C       4.634500     -0.700610      0.837978
  C       3.411595     -1.381724      0.699404
  C       2.337933     -0.694490      0.144361
  C       2.469419      0.646348     -0.259730
  C       3.671651      1.325332     -0.123540
  O       1.307706      1.163965     -0.775673
  P      -0.000010     -0.000100     -0.824936
  N       1.028589     -1.130231     -0.110764
  N      -1.028569      1.130287     -0.111114
  C      -2.337966      0.694719      0.144025
  C      -2.469468     -0.646277     -0.259546
  O      -1.307720     -1.164152     -0.775152
  C      -3.671744     -1.325151     -0.123217
  C      -4.762655     -0.630588      0.431355
  C      -4.634607      0.701212      0.837394
  C      -3.411658      1.382217      0.698683
  H       5.717452      1.140862      0.541924
  H       5.489197     -1.221910      1.264000
  H       3.309752     -2.419346      1.012918
  H       3.756688      2.361267     -0.443921
  H      -0.000039     -0.000364     -2.229330
  H       0.684018     -2.039976      0.168164
  H      -0.684059      2.040235      0.167220
  H      -3.756793     -2.361208     -0.443200
  H      -5.717610     -1.140330      0.541956
  H      -5.489326      1.222718      1.263120
  H      -3.309805      2.419960      1.011797
>
28
-1065.23295418; 31P isotropic shielding: 326.772618 ppm
  C       4.610208     -0.514301      1.083824
  C       4.861067      0.522367      0.178691
  C       3.827670      1.084771     -0.589193
  C       2.534624      0.580526     -0.436419
  C       2.306845     -0.469312      0.467179
  C       3.308611     -1.027978      1.238067
  O       0.972202     -0.886927      0.486267
  P       0.007019     -0.180747     -0.668966
  N       1.334991      0.967595     -1.028240
  N      -1.100663      1.091593     -0.562451
  C      -2.397073      0.749561     -0.135041
  C      -2.455011     -0.637688      0.081950
  O      -1.268251     -1.266723     -0.164463
  C      -3.629426     -1.247134      0.506268
  C      -4.758656     -0.433789      0.705818
  C      -4.700091      0.948449      0.495587
  C      -3.507464      1.559784      0.070420
  H       5.424484     -0.934164      1.670015
  H       5.873790      0.904610      0.064764
  H       4.028758      1.896368     -1.286757
  H       3.088476     -1.842510      1.923911
  H       0.073473     -0.858810     -1.903922
  H       1.373669      1.433850     -1.930091
  H      -0.756278      2.043149     -0.510467
  H      -3.660487     -2.321237      0.673061
  H      -5.692024     -0.890491      1.029197
  H      -5.585401      1.559807      0.657265
  H      -3.457362      2.634380     -0.097975
