15
-3089.98871099; 31P isotropic shielding: 71.253690 ppm
  C      -0.388277     -2.205651      0.257408
  P      -0.555196     -0.684941     -0.792129
  N      -1.785571      0.159487      0.008017
  C      -2.237206      1.386800     -0.670998
  C      -1.941393      0.227171      1.467542
  Br      1.472937      0.352864     -0.055995
  H      -1.334175     -2.762909      0.216975
  H      -0.113123     -2.002380      1.296512
  H       0.400509     -2.817378     -0.195315
  H      -1.678076      2.271320     -0.324011
  H      -2.092815      1.284844     -1.752089
  H      -3.305699      1.545739     -0.470602
  H      -2.962646      0.554476      1.703173
  H      -1.231021      0.941845      1.914702
  H      -1.784849     -0.754186      1.920909
>
15
-3089.98871546; 31P isotropic shielding: 70.706637 ppm
  C      -0.377314     -2.168810      0.493978
  P      -0.697724     -0.793515     -0.708815
  N      -1.872351      0.105731      0.116761
  C      -1.864012      0.310454      1.576487
  C      -2.422564      1.247592     -0.636973
  Br      1.357505      0.370247     -0.296487
  H       0.474273     -2.741818      0.111306
  H      -1.262945     -2.819051      0.516841
  H      -0.139498     -1.825674      1.505061
  H      -2.690833      0.976509      1.847302
  H      -2.013727     -0.638261      2.102095
  H      -0.918508      0.762710      1.914894
  H      -3.506571      1.319741     -0.470785
  H      -2.241170      1.103694     -1.707948
  H      -1.953061      2.196149     -0.332118
>
15
-3089.98800195; 31P isotropic shielding: 65.002731 ppm
  C      -0.205528     -2.104214      0.524279
  P      -0.201779     -0.423953     -0.263121
  N      -1.739934      0.156757      0.142103
  C      -2.091939      1.454052     -0.461562
  C      -2.410034     -0.069873      1.429739
  Br      1.273576      0.595811      1.321401
  H      -0.347296     -2.089209      1.609003
  H       0.769959     -2.555883      0.310154
  H      -0.987578     -2.711200      0.047924
  H      -1.824474      2.294471      0.200033
  H      -1.560773      1.575537     -1.411931
  H      -3.173147      1.489059     -0.654058
  H      -3.488217      0.099989      1.308199
  H      -2.031155      0.615767      2.205439
  H      -2.262579     -1.097712      1.768397
