49
-2303.98647196; 31P isotropic shielding: 222.870394 ppm
  C      -2.082292     -2.976459      2.484263
  C      -2.625398     -2.707180      1.085270
  O      -2.977564     -1.293599      0.920235
  C      -2.078299     -0.494835      0.273502
  O      -0.826130     -0.359148      1.112255
  P       0.420286     -0.521469      0.138289
  N      -0.182830     -0.957043     -1.271212
  C      -1.554562     -1.031607     -1.153878
  O      -2.363696     -1.421122     -1.979085
  O       1.371641      0.746660      0.152326
  C       1.179648      1.921198     -0.676310
  C       2.482662      2.714254     -0.646857
  C       2.992701      3.200428      0.734357
  F       1.958798      3.810764      1.405808
  F       3.432819      2.139577      1.493287
  F       2.274738      3.854296     -1.407866
  F       3.507992      2.003868     -1.233034
  O       1.346819     -1.589808      0.877150
  C       2.794438     -1.558620      0.966683
  C       3.436942     -2.081021     -0.320015
  C       2.877534     -3.434274     -0.825228
  F       3.674449     -3.908371     -1.832201
  F       2.908899     -4.340541      0.219185
  F       3.258372     -1.167765     -1.343629
  F       4.789642     -2.191977     -0.084403
  C      -2.634300      0.949061      0.099802
  O      -1.827571      1.874569      0.116909
  C      -4.084497      1.163828     -0.114293
  C      -4.599742      2.439785      0.194018
  C      -5.949592      2.717949     -0.001904
  C      -6.794773      1.734883     -0.535590
  C      -6.284001      0.475232     -0.867702
  C      -4.937660      0.178954     -0.647772
  H      -1.924892     -4.056139      2.614521
  H      -1.129883     -2.462832      2.649983
  H      -2.797496     -2.640042      3.244833
  H      -1.912487     -3.003873      0.305609
  H      -3.562355     -3.248282      0.911569
  H       0.971895      1.624750     -1.710675
  H       0.356037      2.518209     -0.278739
  H       3.816960      3.916432      0.613803
  H       3.155486     -0.543784      1.157580
  H       3.054518     -2.222118      1.794884
  H       1.847668     -3.338296     -1.190060
  H      -3.925331      3.193600      0.593330
  H      -6.345782      3.698675      0.255224
  H      -7.849369      1.953795     -0.695381
  H      -6.937225     -0.281127     -1.298802
  H      -4.537818     -0.790234     -0.925341
>
49
-2303.98824735; 31P isotropic shielding: 226.227778 ppm
  C      -2.215443     -3.229918      2.057018
  C      -2.564000     -2.636264      0.696906
  O      -2.884025     -1.209498      0.811330
  C      -1.911674     -0.314489      0.475336
  O      -0.780308     -0.392667      1.490299
  P       0.584898     -0.437750      0.683202
  N       0.179890     -0.520677     -0.856930
  C      -1.196556     -0.550410     -0.947943
  O      -1.883670     -0.715434     -1.940815
  O       1.594823      0.712280      1.102469
  C       1.483434      2.115303      0.718776
  C       2.522853      2.451854     -0.353345
  C       2.229277      1.903893     -1.772118
  F       1.027289      2.434062     -2.192179
  F       3.214760      2.328933     -2.628368
  F       3.764554      1.987460      0.037239
  F       2.589225      3.829768     -0.415372
  O       1.343075     -1.712184      1.276860
  C       2.774605     -1.867065      1.437740
  C       3.451181     -2.201392      0.106464
  C       2.774967     -3.335521     -0.703330
  F       3.582821     -3.691728     -1.748516
  F       2.620857     -4.431953      0.124923
  F       3.462788     -1.080000     -0.710023
  F       4.757337     -2.531969      0.381221
  C      -2.447354      1.146504      0.549961
  O      -1.655392      2.027158      0.873003
  C      -3.858911      1.433951      0.207733
  C      -4.630938      0.609697     -0.633287
  C      -5.940097      0.976464     -0.949276
  C      -6.496878      2.143055     -0.413370
  C      -5.732587      2.966106      0.425614
  C      -4.416892      2.622465      0.722655
  H      -1.288400     -2.805402      2.455593
  H      -3.022651     -3.042205      2.775424
  H      -2.087982     -4.316913      1.959697
  H      -1.754900     -2.776586     -0.030803
  H      -3.472032     -3.091036      0.285477
  H       0.471581      2.353349      0.384572
  H       1.722695      2.692434      1.616785
  H       2.161022      0.811463     -1.803541
  H       3.225333     -0.956458      1.844740
  H       2.907039     -2.703446      2.128340
  H       1.794303     -3.031020     -1.088679
  H      -4.193060     -0.282467     -1.067556
  H      -6.528138      0.348489     -1.615874
  H      -7.523944      2.414912     -0.651645
  H      -6.164308      3.874865      0.841008
  H      -3.803366      3.255683      1.359086
>
49
-2303.98804057; 31P isotropic shielding: 224.906866 ppm
  C      -3.636243     -3.466208      1.713267
  C      -2.526967     -2.749931      0.962627
  O      -2.924863     -1.347025      0.837706
  C      -2.026927     -0.517500      0.221470
  O      -0.810186     -0.368263      1.099845
  P       0.471960     -0.497414      0.166261
  N      -0.077505     -0.934748     -1.264714
  C      -1.451070     -1.025234     -1.195264
  O      -2.227613     -1.411217     -2.053662
  O       1.391982      0.792870      0.218330
  C       1.198074      1.967168     -0.610074
  C       2.490979      2.775663     -0.561819
  C       2.978978      3.263630      0.826556
  F       1.930660      3.860470      1.487614
  F       3.422188      2.205712      1.587862
  F       2.278424      3.915572     -1.321878
  F       3.531750      2.079484     -1.137872
  O       1.398867     -1.547971      0.928018
  C       2.841101     -1.480728      1.070499
  C       3.539774     -1.995428     -0.189546
  C       3.035082     -3.368444     -0.698049
  F       3.874817     -3.829440     -1.675828
  F       3.060105     -4.263965      0.355871
  F       3.367795     -1.096539     -1.226706
  F       4.886888     -2.065604      0.090093
  C      -2.611204      0.915047      0.049984
  O      -1.827306      1.858615      0.100982
  C      -4.060075      1.098692     -0.199141
  C      -4.615925      2.354434      0.120929
  C      -5.966718      2.602736     -0.106461
  C      -6.771463      1.610572     -0.683855
  C      -6.219597      0.371587     -1.027824
  C      -4.872741      0.104435     -0.776296
  H      -3.781778     -3.023833      2.706262
  H      -4.582490     -3.407913      1.162376
  H      -3.373159     -4.524302      1.840029
  H      -1.578184     -2.795963      1.513853
  H      -2.380873     -3.165744     -0.043374
  H       1.007693      1.671515     -1.648009
  H       0.362076      2.553154     -0.222124
  H       3.796543      3.989113      0.717575
  H       3.170895     -0.456497      1.267180
  H       3.086625     -2.132966      1.912020
  H       2.014242     -3.305497     -1.094114
  H      -3.972228      3.116289      0.554293
  H      -6.394783      3.567480      0.159861
  H      -7.826521      1.806431     -0.868572
  H      -6.841165     -0.391201     -1.493073
  H      -4.440616     -0.848195     -1.062512
>
49
-2303.98956222; 31P isotropic shielding: 226.039679 ppm
  C      -1.920597     -2.770169      2.658271
  C      -2.574088     -2.534948      1.300059
  O      -2.880280     -1.116353      1.094144
  C      -1.984435     -0.377949      0.373613
  O      -0.692748     -0.249792      1.147571
  P       0.503159     -0.507553      0.130852
  N      -0.178255     -0.981606     -1.229251
  C      -1.545531     -0.993134     -1.051039
  O      -2.405060     -1.380927     -1.824454
  O       1.500584      0.721868      0.048647
  C       1.310132      1.874633     -0.810923
  C       2.625606      2.647149     -0.824284
  C       3.157665      3.172479      0.534260
  F       2.138330      3.815228      1.197253
  F       3.595603      2.132049      1.322458
  F       2.428443      3.762583     -1.622966
  F       3.632485      1.898972     -1.395580
  O       1.422146     -1.580606      0.872270
  C       2.869723     -1.563762      0.966968
  C       3.504332     -2.158629     -0.291489
  C       2.933726     -3.533554     -0.719567
  F       3.721658     -4.067105     -1.703580
  F       2.964204     -4.382463      0.371992
  F       3.327814     -1.302076     -1.363186
  F       4.857018     -2.266519     -0.054735
  C      -2.500961      1.076042      0.162216
  O      -1.665421      1.974177      0.108148
  C      -3.951146      1.330932     -0.002058
  C      -4.411136      2.636056      0.269406
  C      -5.757939      2.952009      0.114647
  C      -6.656116      1.976597     -0.340823
  C      -6.201161      0.686772     -0.636177
  C      -4.857295      0.353971     -0.456821
  H      -2.546089     -2.361067      3.461066
  H      -1.807648     -3.850107      2.826855
  H      -0.932494     -2.303442      2.713561
  H      -1.948455     -2.900803      0.475870
  H      -3.545976     -3.036971      1.236277
  H       1.082296      1.549912     -1.832527
  H       0.501318      2.495132     -0.418852
  H       3.988312      3.874714      0.380983
  H       3.245422     -0.546499      1.109216
  H       3.118971     -2.190126      1.826942
  H       1.902206     -3.451254     -1.083100
  H      -3.696362      3.382483      0.607698
  H      -6.110581      3.956136      0.343267
  H      -7.708611      2.224824     -0.468457
  H      -6.895959     -0.064547     -1.006855
  H      -4.500510     -0.639055     -0.707186
>
49
-2303.98796409; 31P isotropic shielding: 226.589806 ppm
  C      -2.164762     -2.912827      2.517685
  C      -2.653944     -2.686480      1.091292
  O      -3.033150     -1.286777      0.874854
  C      -2.117883     -0.472351      0.272470
  O      -0.936891     -0.265870      1.197853
  P       0.384194     -0.430962      0.330556
  N      -0.097395     -0.919216     -1.109308
  C      -1.471769     -1.026597     -1.095684
  O      -2.205080     -1.457622     -1.969955
  O       1.310222      0.856627      0.378103
  C       1.176924      1.967103     -0.549331
  C       2.224162      3.009980     -0.170539
  C       3.717999      2.604570     -0.249729
  F       4.029870      1.698107      0.739710
  F       3.960519      2.016178     -1.467386
  F       1.998172      3.490047      1.101632
  F       2.065425      4.068417     -1.052354
  O       1.262489     -1.461555      1.174317
  C       2.709936     -1.470088      1.275365
  C       3.362532     -1.984142     -0.010471
  C       2.754126     -3.290964     -0.578691
  F       3.576805     -3.786893     -1.554195
  F       2.677182     -4.222567      0.441308
  F       3.256787     -1.031677     -1.010104
  F       4.701014     -2.165086      0.257611
  C      -2.710231      0.945155      0.017686
  O      -1.937986      1.899149      0.049109
  C      -4.152420      1.100700     -0.282887
  C      -4.733690      2.359072     -0.024040
  C      -6.079903      2.580665     -0.300968
  C      -6.853444      1.558441     -0.868439
  C      -6.275254      0.316276     -1.152791
  C      -4.933729      0.076217     -0.850648
  H      -1.229749     -2.378106      2.712085
  H      -2.917706     -2.574392      3.239950
  H      -1.992891     -3.986207      2.678246
  H      -1.903456     -2.984571      0.348314
  H      -3.570657     -3.252900      0.892427
  H       1.349419      1.616305     -1.571470
  H       0.183559      2.415869     -0.454256
  H       4.365446      3.484815     -0.137553
  H       3.092538     -0.468033      1.488604
  H       2.941887     -2.155626      2.093686
  H       1.753319     -3.124505     -0.995619
  H      -4.113714      3.144002      0.402714
  H      -6.528379      3.547753     -0.080749
  H      -7.904758      1.733170     -1.091692
  H      -6.872155     -0.470422     -1.610437
  H      -4.480927     -0.879784     -1.090582
>
49
-2303.98844412; 31P isotropic shielding: 225.059291 ppm
  C      -1.545849     -2.481154      2.492865
  C      -2.374690     -2.275015      1.230124
  O      -2.608191     -0.848131      0.987046
  C      -1.848937     -0.240612      0.022337
  O      -0.406701     -0.181995      0.467345
  P       0.491757     -0.826100     -0.688016
  N      -0.522376     -1.269519     -1.828513
  C      -1.805127     -1.011191     -1.400084
  O      -2.852908     -1.293888     -1.955076
  O       1.678381      0.157900     -1.072774
  C       1.474466      1.523910     -1.523243
  C       2.168288      2.495238     -0.564213
  C       1.611845      2.550512      0.882867
  F       1.936545      1.375876      1.541930
  F       2.211206      3.583462      1.556374
  F       2.001220      3.755916     -1.113078
  F       3.518656      2.231016     -0.514438
  O       1.318786     -2.051538     -0.096888
  C       2.483264     -1.901227      0.769902
  C       3.687127     -2.561454      0.097947
  C       3.473124     -4.040044     -0.307810
  F       4.654242     -4.565584     -0.758844
  F       3.076708     -4.750691      0.809598
  F       4.030296     -1.871501     -1.046666
  F       4.742256     -2.475378      0.980370
  C      -2.302707      1.236615     -0.163168
  O      -1.433873      2.085785     -0.363118
  C      -3.741825      1.580754     -0.123459
  C      -4.771106      0.635936     -0.304570
  C      -6.103189      1.052199     -0.300737
  C      -6.423623      2.398061     -0.093208
  C      -5.404116      3.342999      0.091609
  C      -4.072749      2.940164      0.064372
  H      -0.542844     -2.054972      2.386292
  H      -2.032187     -2.008509      3.354681
  H      -1.449469     -3.556135      2.697963
  H      -1.899820     -2.731206      0.352604
  H      -3.375221     -2.709110      1.337140
  H       1.952635      1.617665     -2.503300
  H       0.411298      1.771772     -1.580918
  H       0.523207      2.675271      0.897344
  H       2.720523     -0.850112      0.953862
  H       2.259177     -2.413645      1.709543
  H       2.707744     -4.144659     -1.086363
  H      -4.525679     -0.402344     -0.493385
  H      -6.894087      0.322043     -0.461388
  H      -7.465637      2.713658     -0.079151
  H      -5.652086      4.390589      0.252026
  H      -3.268755      3.660873      0.191565
>
49
-2303.98750481; 31P isotropic shielding: 221.504779 ppm
  C      -1.539411     -2.548988      2.426817
  C      -2.344840     -2.323704      1.152356
  O      -2.597032     -0.894461      0.943676
  C      -1.839423     -0.253866     -0.000770
  O      -0.399722     -0.194067      0.452792
  P       0.509747     -0.802338     -0.713790
  N      -0.494729     -1.224240     -1.870671
  C      -1.781589     -0.986236     -1.442869
  O      -2.824031     -1.262289     -2.011137
  O       1.690815      0.200943     -1.066096
  C       1.475153      1.577479     -1.478224
  C       2.154290      2.528062     -0.488432
  C       1.591132      2.536237      0.957062
  F       1.923685      1.345881      1.583275
  F       2.178544      3.554468      1.662684
  F       1.976399      3.801933     -1.002166
  F       3.507244      2.276780     -0.439743
  O       1.342320     -2.036822     -0.150002
  C       2.500130     -1.900350      0.728054
  C       3.707288     -2.552901      0.054719
  C       3.496038     -4.027173     -0.367613
  F       4.679597     -4.547700     -0.817635
  F       3.093752     -4.749578      0.740292
  F       4.054317     -1.850419     -1.081237
  F       4.758806     -2.475443      0.942070
  C      -2.306347      1.223446     -0.149234
  O      -1.444405      2.086164     -0.318977
  C      -3.749070      1.552624     -0.112504
  C      -4.094445      2.904270      0.103337
  C      -5.429761      3.293872      0.129377
  C      -6.438796      2.343740     -0.084070
  C      -6.103963      1.005934     -0.318953
  C      -4.767952      0.602442     -0.322284
  H      -1.424309     -3.627052      2.604147
  H      -0.543796     -2.098645      2.354487
  H      -2.054371     -2.111434      3.290565
  H      -1.842334     -2.746996      0.273888
  H      -3.339337     -2.778328      1.225283
  H       1.956727      1.703336     -2.452974
  H       0.409774      1.816353     -1.533506
  H       0.501373      2.650935      0.970250
  H       2.738002     -0.852228      0.927721
  H       2.268455     -2.424865      1.659147
  H       2.734831     -4.123563     -1.151335
  H      -3.298406      3.629543      0.252571
  H      -5.688911      4.335272      0.311041
  H      -7.483872      2.649095     -0.070871
  H      -6.886651      0.272108     -0.501576
  H      -4.511415     -0.429029     -0.532342
>
49
-2303.98748159; 31P isotropic shielding: 221.345005 ppm
  C      -2.163613     -3.317481      1.762785
  C      -2.511267     -2.621789      0.451876
  O      -2.848940     -1.212743      0.681559
  C      -1.894746     -0.282627      0.382815
  O      -0.735948     -0.421702      1.352453
  P       0.605135     -0.458246      0.499876
  N       0.150297     -0.428216     -1.025391
  C      -1.226984     -0.410197     -1.075396
  O      -1.947430     -0.461762     -2.057274
  O       1.646697      0.652346      0.957516
  C       1.540619      2.077374      0.672434
  C       2.440166      2.462501     -0.506364
  C       1.937121      2.056009     -1.913664
  F       0.684056      2.604772     -2.092253
  F       2.781933      2.587096     -2.858391
  F       3.699094      1.915837     -0.332190
  F       2.568370      3.837102     -0.463566
  O       1.354261     -1.773115      1.005830
  C       2.754775     -1.903592      1.325889
  C       3.587204     -2.248454      0.087630
  C       3.351444     -3.634725     -0.557155
  F       3.524211     -4.602661      0.412349
  F       2.070493     -3.727480     -1.032856
  F       3.403399     -1.295556     -0.893089
  F       4.917430     -2.208601      0.470189
  C      -2.437762      1.163769      0.578311
  O      -1.640740      2.031917      0.921967
  C      -3.867063      1.456784      0.322149
  C      -4.665646      0.689284     -0.547030
  C      -5.991328      1.060575     -0.777284
  C      -6.536985      2.173853     -0.128452
  C      -5.745663      2.940301      0.738512
  C      -4.414414      2.593710      0.950999
  H      -2.971991     -3.188172      2.492811
  H      -2.031681     -4.393273      1.582514
  H      -1.237804     -2.921751      2.193368
  H      -1.693580     -2.694316     -0.275781
  H      -3.409854     -3.053600     -0.003209
  H       0.502177      2.368245      0.495562
  H       1.923646      2.584571      1.562948
  H       1.868096      0.970955     -2.046566
  H       3.152127     -0.977014      1.751096
  H       2.831127     -2.715780      2.054165
  H       4.061294     -3.817492     -1.375146
  H      -4.235919     -0.160111     -1.066618
  H      -6.600941      0.478091     -1.465545
  H      -7.576382      2.448797     -0.300793
  H      -6.168306      3.808066      1.241324
  H      -3.779486      3.185399      1.606183
>
49
-2303.98731069; 31P isotropic shielding: 225.701358 ppm
  C      -2.164650     -3.513458      0.825894
  C      -2.554504     -2.386350      1.777789
  O      -2.988216     -1.141166      1.140441
  C      -2.070054     -0.421321      0.409562
  O      -0.833236     -0.210811      1.224630
  P       0.419874     -0.473086      0.274310
  N      -0.182139     -1.024417     -1.091749
  C      -1.559093     -1.071906     -0.971006
  O      -2.369908     -1.496445     -1.775386
  O       1.377005      0.787470      0.189982
  C       1.205566      1.875675     -0.754718
  C       2.505230      2.674242     -0.764267
  C       2.968707      3.300893      0.576407
  F       1.905999      3.945447      1.165454
  F       3.413508      2.325690      1.440123
  F       2.321699      3.727440     -1.646498
  F       3.550786      1.911446     -1.239016
  O       1.330154     -1.476395      1.116897
  C       2.777454     -1.452862      1.212022
  C       3.422925     -2.081176     -0.024972
  C       2.843408     -3.458030     -0.435239
  F       3.647380     -4.023924     -1.387530
  F       2.836228     -4.282150      0.675653
  F       3.272464     -1.244732     -1.116398
  F       4.770904     -2.198226      0.234167
  C      -2.627136      1.002043      0.093610
  O      -1.813997      1.917955      0.007981
  C      -4.079132      1.206691     -0.114735
  C      -4.947728      0.181424     -0.534189
  C      -6.296878      0.464687     -0.753848
  C      -6.794192      1.754083     -0.534385
  C      -5.933099      2.777909     -0.115088
  C      -4.580988      2.510039      0.079649
  H      -1.223037     -3.318022      0.302616
  H      -2.026297     -4.428921      1.417812
  H      -2.944543     -3.694647      0.078723
  H      -3.433864     -2.665005      2.367665
  H      -1.736724     -2.148448      2.469626
  H       1.029266      1.478029     -1.760455
  H       0.368622      2.503363     -0.441077
  H       3.779694      4.022344      0.407655
  H       3.147863     -0.429684      1.326060
  H       3.025687     -2.052337      2.091102
  H       1.822541     -3.369422     -0.826336
  H      -4.557683     -0.812734     -0.722528
  H      -6.963006     -0.325165     -1.095957
  H      -7.850787      1.964073     -0.693024
  H      -6.318757      3.781616      0.054565
  H      -3.894615      3.293681      0.391707
>
49
-2303.98520502; 31P isotropic shielding: 225.986671 ppm
  C      -3.664928     -3.438055      1.736358
  C      -2.538135     -2.720322      1.013917
  O      -2.967769     -1.335604      0.810453
  C      -2.058625     -0.501660      0.217299
  O      -0.905968     -0.276859      1.165170
  P       0.437782     -0.424697      0.327777
  N      -0.006273     -0.925064     -1.120004
  C      -1.378892     -1.046284     -1.137551
  O      -2.088692     -1.483816     -2.028501
  O       1.339265      0.878458      0.393622
  C       1.211595      1.990297     -0.532231
  C       2.172014      3.081445     -0.068499
  C       3.685355      2.748468     -0.028184
  F       3.961323      1.855041      0.983671
  F       4.052461      2.174918     -1.221747
  F       1.821076      3.540666      1.182426
  F       2.033222      4.136693     -0.957355
  O       1.316722     -1.437129      1.190952
  C       2.760497     -1.409714      1.334107
  C       3.461880     -1.908048      0.067758
  C       2.901516     -3.229929     -0.514614
  F       3.758569     -3.704099     -1.471223
  F       2.826583     -4.163014      0.503999
  F       3.360560     -0.958183     -0.935331
  F       4.796317     -2.055588      0.372838
  C      -2.674002      0.902349     -0.051321
  O      -1.921419      1.871632     -0.007967
  C      -4.113293      1.029013     -0.377956
  C      -4.863247     -0.011290     -0.958796
  C      -6.203381      0.201558     -1.286281
  C      -6.811388      1.432235     -1.014392
  C      -6.069067      2.470264     -0.434019
  C      -4.724122      2.275852     -0.131702
  H      -3.870309     -2.965092      2.704324
  H      -4.583915     -3.424182      1.138404
  H      -3.382640     -4.483823      1.914151
  H      -1.618007     -2.716459      1.613262
  H      -2.329420     -3.171335      0.034471
  H       1.477284      1.660301     -1.541177
  H       0.191789      2.385919     -0.504953
  H       4.278830      3.658437      0.134052
  H       3.112008     -0.398313      1.556994
  H       2.985781     -2.088828      2.159632
  H       1.906122     -3.090190     -0.953738
  H      -4.386647     -0.957761     -1.189645
  H      -6.775799     -0.597103     -1.754377
  H      -7.861560      1.585900     -1.257628
  H      -6.540721      3.428452     -0.223576
  H      -4.127731      3.073342      0.305233
>
49
-2303.98986848; 31P isotropic shielding: 225.184069 ppm
  C      -2.243581     -3.264056      2.242609
  C      -2.701061     -2.832822      0.852979
  O      -3.004298     -1.398693      0.817768
  C      -2.042000     -0.567336      0.321611
  O      -0.847870     -0.562989      1.253064
  P       0.457799     -0.655305      0.352194
  N      -0.055471     -0.920248     -1.134132
  C      -1.433450     -0.968149     -1.116259
  O      -2.191829     -1.247682     -2.029446
  O       1.437619      0.572654      0.565869
  C       1.362053      1.801329     -0.205227
  C       2.610778      2.600328      0.145184
  C       2.712771      3.962008     -0.582778
  F       2.702292      3.753475     -1.943359
  F       1.623200      4.736595     -0.257741
  F       3.753343      1.885374     -0.164774
  F       2.655933      2.859874      1.502702
  O       1.299856     -1.827806      1.034601
  C       2.745291     -1.903229      1.116326
  C       3.370644     -2.273096     -0.231556
  C       2.704446     -3.469177     -0.956244
  F       3.483731     -3.847244     -2.016564
  F       2.625734     -4.530073     -0.072167
  F       3.305187     -1.195192     -1.097299
  F       4.701193     -2.545090     -0.000284
  C      -2.544269      0.905740      0.265482
  O      -1.714849      1.795493      0.433296
  C      -3.969075      1.191993     -0.020977
  C      -4.468973      2.447350      0.382582
  C      -5.793354      2.790730      0.125861
  C      -6.625710      1.897129     -0.562794
  C      -6.128061      0.660675     -0.988719
  C      -4.809402      0.296924     -0.710338
  H      -1.288095     -2.801980      2.509908
  H      -2.990013     -2.984609      2.996137
  H      -2.123529     -4.356015      2.265615
  H      -1.954751     -3.071292      0.084590
  H      -3.641941     -3.320572      0.574584
  H       1.352824      1.568919     -1.275002
  H       0.461359      2.354487      0.073336
  H       3.632784      4.492948     -0.303860
  H       3.168594     -0.951349      1.452004
  H       2.957575     -2.694784      1.838872
  H       1.698589     -3.218797     -1.314927
  H      -3.803754      3.132760      0.902413
  H      -6.179321      3.753507      0.455979
  H      -7.659863      2.167950     -0.769710
  H      -6.769796     -0.024715     -1.539160
  H      -4.418180     -0.652343     -1.059748
>
49
-2303.98835706; 31P isotropic shielding: 224.552057 ppm
  C      -3.584785     -3.329229      2.093851
  C      -2.532165     -2.677717      1.213550
  O      -2.914341     -1.274276      1.049672
  C      -2.035942     -0.485872      0.355532
  O      -0.779398     -0.314068      1.170671
  P       0.458299     -0.506335      0.188811
  N      -0.160774     -0.996228     -1.195750
  C      -1.530854     -1.064391     -1.061325
  O      -2.349795     -1.477395     -1.865988
  O       1.397964      0.769948      0.146854
  C       1.180608      1.914795     -0.716667
  C       2.470171      2.729989     -0.722126
  C       2.977307      3.275355      0.637759
  F       1.935982      3.892004      1.291630
  F       3.438793      2.250648      1.432772
  F       2.239343      3.837182     -1.523980
  F       3.504939      2.015731     -1.286517
  O       1.402951     -1.540402      0.951020
  C       2.848495     -1.476212      1.055318
  C       3.513284     -2.035913     -0.203813
  C       2.989479     -3.421997     -0.655316
  F       3.804588     -3.919073     -1.636352
  F       3.033693     -4.282987      0.426160
  F       3.321026     -1.170850     -1.266033
  F       4.866230     -2.104963      0.045518
  C      -2.611943      0.944794      0.145351
  O      -1.817011      1.880218      0.120799
  C      -4.068219      1.135264     -0.050273
  C      -4.916565      0.125276     -0.542510
  C      -6.270099      0.397798     -0.748282
  C      -6.792363      1.659308     -0.442016
  C      -5.951898      2.667504      0.050586
  C      -4.595381      2.412393      0.231569
  H      -3.630870     -2.837134      3.072939
  H      -4.575170     -3.272104      1.626719
  H      -3.334720     -4.386809      2.248308
  H      -1.540270     -2.718137      1.683059
  H      -2.482095     -3.146883      0.221719
  H       0.971307      1.582441     -1.739768
  H       0.349617      2.510176     -0.332171
  H       3.788619      4.000413      0.487128
  H       3.187968     -0.447889      1.209871
  H       3.112452     -2.101656      1.911495
  H       1.960193     -3.365853     -1.030020
  H      -4.507821     -0.845447     -0.800637
  H      -6.919954     -0.378393     -1.148120
  H      -7.852220      1.860102     -0.590383
  H      -6.356952      3.649726      0.287367
  H      -3.924703      3.185644      0.598720
>
49
-2303.98945233; 31P isotropic shielding: 226.235860 ppm
  C      -3.770714     -3.589419      1.410499
  C      -2.599442     -2.851572      0.785083
  O      -2.945749     -1.429255      0.764491
  C      -1.986001     -0.579838      0.283997
  O      -0.823676     -0.555390      1.245760
  P       0.510044     -0.633561      0.383194
  N       0.041378     -0.910105     -1.115613
  C      -1.335339     -0.973826     -1.136321
  O      -2.064635     -1.263771     -2.070481
  O       1.463000      0.610388      0.623194
  C       1.382740      1.842341     -0.141902
  C       2.613250      2.657356      0.235349
  C       2.707390      4.025664     -0.481213
  F       2.720900      3.826928     -1.843234
  F       1.602260      4.782715     -0.167656
  F       3.771247      1.961579     -0.059883
  F       2.631354      2.907823      1.595268
  O       1.350640     -1.790914      1.090753
  C       2.793569     -1.839163      1.224306
  C       3.469794     -2.206174     -0.099444
  C       2.851667     -3.422572     -0.833109
  F       3.667531     -3.789847     -1.869461
  F       2.774174     -4.478742      0.056652
  F       3.408062     -1.136929     -0.975965
  F       4.797746     -2.448046      0.175174
  C      -2.515530      0.882383      0.210638
  O      -1.710177      1.789135      0.402953
  C      -3.936789      1.139136     -0.119001
  C      -4.473742      2.384915      0.266048
  C      -5.796571      2.700968     -0.030811
  C      -6.589966      1.789189     -0.741268
  C      -6.054960      0.562125     -1.148653
  C      -4.738133      0.225768     -0.830186
  H      -4.683526     -3.447066      0.819981
  H      -3.549775     -4.663727      1.454098
  H      -3.954742     -3.231638      2.430789
  H      -1.685149     -2.979940      1.379652
  H      -2.410953     -3.183506     -0.244798
  H       1.396046      1.616518     -1.213094
  H       0.468887      2.380272      0.123239
  H       3.615443      4.567205     -0.184088
  H       3.187337     -0.877403      1.567599
  H       2.994840     -2.621768      1.959657
  H       1.850004     -3.198921     -1.219958
  H      -3.838185      3.084876      0.803321
  H      -6.211447      3.656558      0.284791
  H      -7.622672      2.038606     -0.979862
  H      -6.666044     -0.137275     -1.716132
  H      -4.317584     -0.716179     -1.164554
>
49
-2303.98961479; 31P isotropic shielding: 224.646647 ppm
  C      -3.662001     -3.335530      2.009003
  C      -2.552766     -2.649868      1.230303
  O      -2.973523     -1.266009      1.005426
  C      -2.076407     -0.458478      0.359323
  O      -0.891749     -0.218255      1.262361
  P       0.423101     -0.403292      0.386635
  N      -0.072335     -0.943825     -1.029461
  C      -1.446138     -1.049333     -0.999740
  O      -2.188330     -1.504309     -1.854845
  O       1.333372      0.896698      0.380313
  C       1.174636      1.970869     -0.585219
  C       2.219362      3.035698     -0.265874
  C       3.715197      2.640558     -0.357621
  F       4.055460      1.779434      0.662402
  F       3.940312      2.004287     -1.554301
  F       2.012616      3.563034      0.990721
  F       2.034771      4.057858     -1.184977
  O       1.323015     -1.394009      1.253489
  C       2.769878     -1.366232      1.359842
  C       3.435047     -1.922259      0.098415
  C       2.869880     -3.277041     -0.396439
  F       3.693529     -3.786088     -1.364241
  F       2.850319     -4.160585      0.667971
  F       3.292733     -1.026627     -0.947447
  F       4.779991     -2.044198      0.367893
  C      -2.688566      0.943521      0.072156
  O      -1.927513      1.906989      0.065847
  C      -4.136749      1.074171     -0.211256
  C      -4.729295      2.332372      0.021438
  C      -6.081921      2.530515     -0.241653
  C      -6.851257      1.484049     -0.769252
  C      -6.262292      0.241311     -1.027819
  C      -4.913772      0.025506     -0.738899
  H      -3.384007     -4.378812      2.206879
  H      -3.830499     -2.833540      2.969465
  H      -4.600116     -3.328621      1.441393
  H      -1.612871     -2.641785      1.798297
  H      -2.382804     -3.128703      0.256622
  H       1.331841      1.583229     -1.596462
  H       0.179282      2.414904     -0.488891
  H       4.355772      3.530708     -0.294918
  H       3.130595     -0.347990      1.529739
  H       3.013846     -2.010212      2.207968
  H       1.855264     -3.171506     -0.799573
  H      -4.112577      3.135925      0.417110
  H      -6.538740      3.498072     -0.041587
  H      -7.907662      1.640423     -0.981826
  H      -6.856141     -0.564567     -1.455060
  H      -4.452691     -0.931062     -0.959549
>
49
-2303.98985780; 31P isotropic shielding: 224.866372 ppm
  C      -2.164416     -3.490332      0.844760
  C      -2.637534     -2.363067      1.758298
  O      -3.070350     -1.139019      1.080522
  C      -2.133424     -0.396767      0.397736
  O      -0.961538     -0.126038      1.289293
  P       0.361802     -0.376304      0.436598
  N      -0.128658     -0.964075     -0.959130
  C      -1.508395     -1.050335     -0.933236
  O      -2.248972     -1.510723     -1.784452
  O       1.295084      0.905955      0.396521
  C       1.170097      1.944753     -0.612465
  C       2.230483      3.001409     -0.319242
  C       3.719952      2.577931     -0.381704
  F       4.034380      1.745398      0.669899
  F       3.946603      1.898569     -1.554086
  F       2.020766      3.574818      0.916795
  F       2.072372      3.994608     -1.274121
  O       1.227612     -1.347122      1.360023
  C       2.671636     -1.333750      1.502313
  C       3.359870     -1.952133      0.283049
  C       2.786639     -3.318613     -0.169087
  F       3.624088     -3.876770     -1.097121
  F       2.731021     -4.157874      0.928905
  F       3.257810     -1.100553     -0.803505
  F       4.695303     -2.082037      0.592115
  C      -2.722529      0.998206      0.019769
  O      -1.941782      1.944289     -0.034218
  C      -4.165395      1.141943     -0.282043
  C      -4.964830      0.076798     -0.738061
  C      -6.306765      0.302850     -1.048806
  C      -6.866826      1.574598     -0.884124
  C      -6.074993      2.637885     -0.428216
  C      -4.728843      2.427097     -0.142942
  H      -2.040131     -4.395832      1.454758
  H      -2.893688     -3.697706      0.054647
  H      -1.198173     -3.277186      0.376600
  H      -3.540280     -2.659795      2.302184
  H      -1.866756     -2.093405      2.491217
  H       1.332967      1.514516     -1.605385
  H       0.181927      2.409831     -0.547730
  H       4.375295      3.458585     -0.341357
  H       3.042378     -0.313978      1.638236
  H       2.885233     -1.944071      2.382940
  H       1.782913     -3.216154     -0.599226
  H      -4.525513     -0.903848     -0.883979
  H      -6.918207     -0.517781     -1.419381
  H      -7.918274      1.740187     -1.113713
  H      -6.509324      3.627829     -0.300668
  H      -4.094934      3.242010      0.198619
>
49
-2303.98561397; 31P isotropic shielding: 225.086530 ppm
  C      -3.162625     -2.650578      2.523225
  C      -2.282918     -2.232878      1.357697
  O      -2.528215     -0.810470      1.117179
  C      -1.805539     -0.229683      0.104857
  O      -0.357804     -0.142668      0.510061
  P       0.518017     -0.828605     -0.640150
  N      -0.521379     -1.328081     -1.733558
  C      -1.794085     -1.051527     -1.288396
  O      -2.854230     -1.352481     -1.810627
  O       1.683655      0.150856     -1.094687
  C       1.452812      1.492470     -1.602463
  C       2.165276      2.513616     -0.711429
  C       1.645807      2.636879      0.745077
  F       1.993462      1.497307      1.451944
  F       2.255842      3.703903      1.352592
  F       1.973970      3.745087     -1.316477
  F       3.518014      2.260615     -0.684727
  O       1.373406     -2.019311     -0.019521
  C       2.532188     -1.811185      0.843981
  C       3.755697     -2.460238      0.196995
  C       3.580717     -3.954431     -0.168515
  F       4.777723     -4.462902     -0.596848
  F       3.193518     -4.643515      0.965282
  F       4.090740     -1.794544     -0.963998
  F       4.801973     -2.324175      1.084128
  C      -2.280057      1.234399     -0.121363
  O      -1.427300      2.082875     -0.383591
  C      -3.720279      1.567471     -0.044493
  C      -4.745784      0.608922     -0.162680
  C      -6.080894      1.013661     -0.126934
  C      -6.407110      2.362440      0.050877
  C      -5.391157      3.321208      0.172809
  C      -4.057590      2.929050      0.113029
  H      -3.000755     -3.713196      2.745430
  H      -2.922340     -2.067894      3.420722
  H      -4.222710     -2.504291      2.284642
  H      -1.218750     -2.371511      1.592313
  H      -2.523623     -2.793866      0.444568
  H       1.900250      1.543581     -2.600046
  H       0.386115      1.729057     -1.639068
  H       0.557148      2.757313      0.780878
  H       2.740762     -0.748868      0.995651
  H       2.319374     -2.299758      1.798824
  H       2.823992     -4.099295     -0.949120
  H      -4.496451     -0.432269     -0.328372
  H      -6.869819      0.272413     -0.239276
  H      -7.451053      2.669356      0.090418
  H      -5.643596      4.371035      0.309892
  H      -3.256796      3.660207      0.191368
>
49
-2303.98884912; 31P isotropic shielding: 221.054064 ppm
  C      -3.228659     -3.650720      1.117914
  C      -2.048797     -2.770189      0.745667
  O      -2.497529     -1.380296      0.824555
  C      -1.705852     -0.432934      0.242446
  O      -0.418671     -0.282553      1.036528
  P       0.761836     -0.095330     -0.023633
  N       0.121925     -0.447816     -1.440077
  C      -1.213276     -0.727698     -1.264379
  O      -2.022522     -1.115472     -2.091712
  O       1.497808      1.302891      0.063358
  C       1.113936      2.457809     -0.724882
  C       2.332591      3.370999     -0.821479
  C       2.876045      3.987283      0.492924
  F       1.833957      4.590624      1.164188
  F       3.407986      3.018713      1.304129
  F       1.967386      4.439834     -1.627123
  F       3.383402      2.725722     -1.439410
  O       2.001669     -0.954715      0.507410
  C       1.883213     -2.172680      1.275114
  C       2.063275     -3.392401      0.371614
  C       3.346967     -3.368186     -0.494514
  F       4.431475     -3.168790      0.337662
  F       3.498283     -4.575464     -1.121706
  F       2.070132     -4.507541      1.182444
  F       0.988850     -3.505487     -0.492415
  C      -2.398846      0.961468      0.284784
  O      -1.684013      1.950502      0.417020
  C      -3.868908      1.059733      0.125958
  C      -4.493104      2.227399      0.611245
  C      -5.867538      2.398472      0.471268
  C      -6.630224      1.419599     -0.181189
  C      -6.012563      0.270404     -0.687052
  C      -4.639547      0.077632     -0.525221
  H      -4.046624     -3.529617      0.398393
  H      -2.917428     -4.703255      1.117171
  H      -3.601029     -3.400194      2.118754
  H      -1.218525     -2.902509      1.451972
  H      -1.689164     -2.979673     -0.268443
  H       0.825997      2.151548     -1.737012
  H       0.285816      2.974145     -0.234800
  H       3.646125      4.740876      0.277249
  H       2.687643     -2.152099      2.015742
  H       0.913143     -2.236519      1.777604
  H       3.318330     -2.568061     -1.243865
  H      -3.882230      2.982451      1.100406
  H      -6.347032      3.293282      0.864037
  H      -7.704082      1.556526     -0.298182
  H      -6.602648     -0.479831     -1.210110
  H      -4.157478     -0.801481     -0.938653
>
49
-2303.98660813; 31P isotropic shielding: 224.291465 ppm
  C      -2.122494     -3.252056      1.496496
  C      -2.710073     -2.492239      0.312184
  O      -2.882421     -1.073461      0.637076
  C      -1.953585     -0.195368      0.149991
  O      -0.618911     -0.434247      0.833811
  P       0.478420     -0.633552     -0.306809
  N      -0.292049     -0.495066     -1.689420
  C      -1.636668     -0.330210     -1.424174
  O      -2.555835     -0.275496     -2.221728
  O       1.725713      0.314983     -0.038874
  C       1.654430      1.772264      0.024023
  C       2.234460      2.377997     -1.256094
  C       1.384245      2.190363     -2.536877
  F       0.144671      2.753148     -2.315112
  F       1.985997      2.857886     -3.575189
  F       3.486046      1.845700     -1.500647
  F       2.390025      3.728800     -1.015517
  O       1.161776     -2.062209     -0.127798
  C       2.093467     -2.365230      0.941027
  C       3.413843     -2.835484      0.330010
  C       4.508558     -3.141561      1.381403
  F       4.778829     -2.000497      2.103262
  F       4.041265     -4.098740      2.256544
  F       3.217101     -3.988652     -0.404392
  F       3.920370     -1.883950     -0.526345
  C      -2.353858      1.270326      0.498378
  O      -1.455218      2.070996      0.736360
  C      -3.784275      1.657904      0.516233
  C      -4.781122      0.969186     -0.200789
  C      -6.099071      1.427724     -0.168911
  C      -6.439162      2.551281      0.592529
  C      -5.450604      3.239615      1.309691
  C      -4.129164      2.805037      1.260682
  H      -2.746527     -3.118191      2.388331
  H      -2.080680     -4.324491      1.261900
  H      -1.110241     -2.905452      1.727910
  H      -2.090280     -2.597888     -0.586918
  H      -3.717971     -2.850025      0.073574
  H       0.628167      2.110314      0.195793
  H       2.297861      2.070188      0.857428
  H       1.247732      1.136720     -2.807141
  H       2.281289     -1.492062      1.572865
  H       1.664284     -3.174311      1.539774
  H       5.432277     -3.500623      0.909239
  H      -4.514717      0.114129     -0.812085
  H      -6.863589      0.905443     -0.741058
  H      -7.471936      2.894723      0.624644
  H      -5.713210      4.115490      1.900214
  H      -3.345761      3.334641      1.797507
>
49
-2303.98606956; 31P isotropic shielding: 221.604628 ppm
  C      -2.209354     -3.614325      0.519712
  C      -2.664876     -2.594537      1.559191
  O      -3.024236     -1.274405      1.037426
  C      -2.042732     -0.504736      0.455541
  O      -0.858652     -0.427228      1.368336
  P       0.449048     -0.606786      0.475506
  N      -0.071012     -0.973542     -0.983836
  C      -1.453472     -1.007460     -0.955360
  O      -2.216316     -1.324040     -1.851106
  O       1.440213      0.622673      0.607602
  C       1.367667      1.807550     -0.229999
  C       2.623051      2.616658      0.069779
  C       2.716636      3.947793     -0.713796
  F       2.680205      3.684959     -2.064617
  F       1.636413      4.739618     -0.400005
  F       3.759564      1.886942     -0.227691
  F       2.688463      2.930823      1.414930
  O       1.274637     -1.734266      1.246909
  C       2.718157     -1.814447      1.353553
  C       3.355626     -2.285671      0.043657
  C       2.684663     -3.523436     -0.603760
  F       3.488785     -4.004400     -1.601665
  F       2.549882     -4.506819      0.359866
  F       3.310558     -1.271508     -0.897628
  F       4.680217     -2.552934      0.310180
  C      -2.545831      0.961602      0.271724
  O      -1.710126      1.857549      0.351393
  C      -3.974074      1.230390     -0.012765
  C      -4.460776      2.518636      0.290516
  C      -5.789103      2.845526      0.032570
  C      -6.638909      1.899604     -0.557828
  C      -6.154650      0.628161     -0.884716
  C      -4.831465      0.283239     -0.604040
  H      -1.223242     -3.381679      0.105277
  H      -2.134552     -4.594237      1.011161
  H      -2.923020     -3.690286     -0.307369
  H      -3.595991     -2.917967      2.035931
  H      -1.906937     -2.457619      2.340937
  H       1.351461      1.516720     -1.285282
  H       0.471094      2.380009      0.020973
  H       3.643642      4.485443     -0.473449
  H       3.145279     -0.843867      1.624390
  H       2.914706     -2.552930      2.134349
  H       1.697541     -3.280894     -1.015902
  H      -3.782335      3.242937      0.735107
  H      -6.164726      3.835371      0.285622
  H      -7.676401      2.156636     -0.765668
  H      -6.810671     -0.099261     -1.359175
  H      -4.450150     -0.695261     -0.874382
>
49
-2303.98546587; 31P isotropic shielding: 224.807312 ppm
  C      -3.347198     -3.698913      0.784852
  C      -2.132657     -2.833600      0.497647
  O      -2.523140     -1.443264      0.730294
  C      -1.661258     -0.472062      0.309851
  O      -0.418647     -0.477316      1.185831
  P       0.828833     -0.206825      0.224188
  N       0.261766     -0.355479     -1.257817
  C      -1.090056     -0.604619     -1.190950
  O      -1.859755     -0.859462     -2.103065
  O       1.606269      1.138403      0.528540
  C       1.299868      2.399193     -0.118324
  C       2.582222      3.222285     -0.087627
  C       2.439435      4.634327     -0.703636
  F       2.037151      4.523662     -2.015517
  F       1.474723      5.337693     -0.017745
  F       3.594373      2.578560     -0.775819
  F       3.021561      3.392066      1.211786
  O       2.006385     -1.174275      0.710522
  C       1.807910     -2.475369      1.305000
  C       1.966475     -3.576507      0.257075
  C       3.278998     -3.509303     -0.561171
  F       4.343924     -3.495056      0.318343
  F       3.381201     -4.624871     -1.348384
  F       1.892790     -4.784519      0.918287
  F       0.919845     -3.525128     -0.645745
  C      -2.299982      0.938857      0.485362
  O      -1.556795      1.868623      0.784493
  C      -3.751046      1.124722      0.251085
  C      -4.359201      2.255473      0.834455
  C      -5.713600      2.506123      0.633500
  C      -6.470196      1.647269     -0.176143
  C      -5.866596      0.537849     -0.778367
  C      -4.515670      0.263482     -0.558781
  H      -3.699728     -3.546558      1.812267
  H      -4.165895     -3.463627      0.094931
  H      -3.082092     -4.756857      0.662093
  H      -1.305872     -3.077515      1.177085
  H      -1.788132     -2.945582     -0.536963
  H       0.986083      2.233473     -1.154267
  H       0.507899      2.905715      0.437514
  H       3.389073      5.184084     -0.659624
  H       2.585200     -2.588285      2.066168
  H       0.818464     -2.558428      1.765772
  H       3.323103     -2.613110     -1.191713
  H      -3.752200      2.918884      1.445998
  H      -6.181783      3.370668      1.100616
  H      -7.527923      1.847067     -0.340104
  H      -6.450250     -0.117368     -1.422280
  H      -4.042880     -0.581879     -1.046613
