16
-3125.34440388; 31P isotropic shielding: 143.080068 ppm
  Se     -2.087301     -0.012475     -0.037779
  P      -0.028161      0.006365      0.059875
  O       0.625502      1.476752      0.298201
  C       2.082691      1.512230      0.489231
  C       2.833361      0.642948     -0.534021
  C       2.194436     -0.747884     -0.698205
  O       0.831157     -0.560916     -1.224688
  C       1.950281     -1.501120      0.625516
  O       0.729877     -0.930291      1.189040
  H       2.290858      1.188379      1.517663
  H       2.357304      2.566651      0.389973
  H       3.880098      0.540879     -0.212862
  H       2.831451      1.129129     -1.517679
  H       2.736136     -1.359269     -1.427047
  H       1.780462     -2.570368      0.449515
  H       2.761547     -1.365211      1.350767
>
16
-3125.34858396; 31P isotropic shielding: 144.378511 ppm
  Se     -2.080577      0.025329     -0.059267
  P      -0.022016     -0.010752      0.088274
  O       0.677337      1.397424      0.517143
  C       1.922808      1.751027     -0.170579
  C       2.917601      0.579989     -0.221878
  C       2.214485     -0.742808     -0.643535
  O       0.892487     -0.432072     -1.220965
  C       1.859065     -1.658193      0.546364
  O       0.631759     -1.115043      1.116098
  H       2.331789      2.595971      0.391277
  H       1.666276      2.084761     -1.183043
  H       3.393288      0.446509      0.758259
  H       3.709811      0.835440     -0.937596
  H       2.769762     -1.281172     -1.416983
  H       1.653073     -2.682756      0.212275
  H       2.632852     -1.662354      1.321956
