53
-1494.99189889; 31P isotropic shielding: 261.213012 ppm
  C       3.410941      2.096994      1.311214
  C       4.151995      0.767679      1.237641
  O       3.663165     -0.036681      0.111134
  C       2.614974     -0.870272      0.366617
  O       2.094234     -0.985899      1.463314
  C       2.222656     -1.616774     -0.898074
  C       0.868295     -2.366845     -0.828688
  C      -0.279008     -1.517996     -0.301802
  C      -0.561134     -0.214339     -0.480240
  P      -2.028890      0.548804      0.280898
  O      -2.722888      1.500229     -0.619814
  O      -1.550251      1.227793      1.649460
  C      -0.738528      0.556504      2.670521
  C      -1.610449     -0.146291      3.703044
  O      -2.927814     -0.707887      0.776025
  C      -4.124684     -1.085419      0.013453
  C      -3.785788     -1.941957     -1.200090
  C       0.217344      0.729641     -1.340643
  O       0.552197      0.515175     -2.494960
  O       0.458517      1.888439     -0.674332
  C       0.951401      3.019037     -1.470831
  C      -0.203147      3.707264     -2.188828
  C       0.491102     -2.831842     -2.265057
  C       1.007503     -3.612619      0.082084
  H       2.340609      1.942090      1.484031
  H       3.814740      2.698568      2.137031
  H       3.537203      2.662907      0.380521
  H       4.034453      0.188168      2.159276
  H       5.216806      0.907743      1.023003
  H       2.245769     -0.911072     -1.733193
  H       3.020406     -2.346475     -1.104505
  H      -0.989900     -2.076893      0.306549
  H      -0.156936      1.365471      3.127267
  H      -0.038655     -0.134266      2.187675
  H      -0.971901     -0.560743      4.495618
  H      -2.317747      0.556920      4.159943
  H      -2.178449     -0.965195      3.248637
  H      -4.646455     -0.168404     -0.282306
  H      -4.741933     -1.634669      0.733347
  H      -3.173719     -1.383643     -1.917703
  H      -4.714406     -2.242705     -1.704607
  H      -3.246023     -2.851020     -0.906938
  H       1.712076      2.652803     -2.169063
  H       1.418187      3.674126     -0.728793
  H      -0.984654      3.994870     -1.476892
  H      -0.647219      3.045822     -2.940112
  H       0.168050      4.609208     -2.694793
  H      -0.459331     -3.380323     -2.255395
  H       0.392784     -1.972620     -2.935421
  H       1.266063     -3.506518     -2.654440
  H       0.068687     -4.181911      0.101766
  H       1.261593     -3.325043      1.107300
  H       1.793760     -4.276738     -0.300249
>
53
-1494.99426882; 31P isotropic shielding: 258.388466 ppm
  C       4.897353      0.966873      1.690645
  C       3.660496      1.412150      0.919626
  O       3.275020      0.424780     -0.093767
  C       2.501517     -0.613275      0.333054
  O       2.136237     -0.753376      1.488333
  C       2.177975     -1.540317     -0.827348
  C       0.856191     -2.342060     -0.679948
  C      -0.333026     -1.511974     -0.222186
  C      -0.640893     -0.222064     -0.443851
  P      -2.150821      0.527052      0.243410
  O      -2.807615      1.470525     -0.692778
  O      -1.744353      1.210229      1.632849
  C      -0.854840      0.619368      2.637573
  C      -1.587720     -0.356531      3.549202
  O      -3.063766     -0.734529      0.695946
  C      -4.212411     -1.128172     -0.129923
  C      -3.797174     -1.983009     -1.320727
  C       0.149649      0.720119     -1.296430
  O       0.473725      0.510493     -2.453531
  O       0.416964      1.863213     -0.613559
  C       0.996779      2.969359     -1.384456
  C      -0.091200      3.724609     -2.137913
  C       0.495604     -2.941851     -2.069467
  C       1.054321     -3.497385      0.334123
  H       4.688246      0.067264      2.279821
  H       5.730146      0.761005      1.006649
  H       5.208762      1.763984      2.379477
  H       3.852286      2.319492      0.337597
  H       2.805606      1.577535      1.583745
  H       2.190622     -0.958882     -1.751930
  H       3.009226     -2.258251     -0.903216
  H      -1.053173     -2.078242      0.369044
  H      -0.482020      1.482832      3.199924
  H      -0.006401      0.141597      2.136053
  H      -1.947517     -1.228608      2.992357
  H      -0.900066     -0.703213      4.332992
  H      -2.448474      0.125294      4.029157
  H      -4.728874     -0.218448     -0.455909
  H      -4.860879     -1.683637      0.557032
  H      -4.693125     -2.301231     -1.871452
  H      -3.258087     -2.881503     -0.995581
  H      -3.157852     -1.417302     -2.008152
  H       1.759918      2.563090     -2.057103
  H       1.473078      3.593884     -0.621591
  H      -0.875561      4.062297     -1.451178
  H      -0.550105      3.088649     -2.901971
  H       0.348401      4.601661     -2.632795
  H       1.305777     -3.598579     -2.415293
  H      -0.420541     -3.542272     -2.004495
  H       0.340643     -2.146350     -2.805683
  H       1.865158     -4.158805      0.001257
  H       0.140601     -4.101163      0.414830
  H       1.306896     -3.110028      1.326236
>
53
-1494.99377162; 31P isotropic shielding: 258.388621 ppm
  C       4.535950      2.236851      0.637166
  C       3.593146      1.180713      1.188795
  O       3.275420      0.263448      0.091303
  C       2.496963     -0.806522      0.413448
  O       2.100360     -1.030836      1.544763
  C       2.211428     -1.647215     -0.821053
  C       0.856497     -2.408477     -0.788416
  C      -0.312027     -1.567074     -0.298469
  C      -0.572412     -0.255385     -0.446653
  P      -2.052743      0.504959      0.292425
  O      -2.698009      1.506240     -0.589935
  O      -1.602462      1.117374      1.701715
  C      -0.845979      0.384381      2.722867
  C      -1.773326     -0.315476      3.707756
  O      -2.989481     -0.752628      0.708061
  C      -4.169593     -1.075198     -0.104141
  C      -3.809725     -1.889006     -1.340671
  C       0.249994      0.703628     -1.248786
  O       0.608628      0.522207     -2.400799
  O       0.497523      1.831338     -0.533274
  C       1.070129      2.964421     -1.269013
  C      -0.019009      3.717237     -2.023711
  C       0.525761     -2.879259     -2.233512
  C       0.975298     -3.648002      0.133911
  H       4.789828      2.954553      1.428309
  H       5.465903      1.783300      0.272783
  H       4.071552      2.786361     -0.190163
  H       2.651322      1.611701      1.550432
  H       4.042847      0.606676      2.007927
  H       2.287444     -1.008851     -1.703924
  H       3.021355     -2.388394     -0.901361
  H      -1.055974     -2.138593      0.256443
  H      -0.245914      1.155044      3.219940
  H      -0.157986     -0.316825      2.237625
  H      -2.463750      0.400970      4.169862
  H      -2.361281     -1.094933      3.211260
  H      -1.173552     -0.781141      4.502148
  H      -4.665057     -0.136886     -0.377578
  H      -4.818608     -1.640322      0.574364
  H      -3.165422     -1.314716     -2.016326
  H      -4.727851     -2.150484     -1.884698
  H      -3.296307     -2.819650     -1.068717
  H       1.851749      2.588682     -1.938211
  H       1.521163      3.580817     -0.484663
  H      -0.447179      3.093815     -2.815512
  H       0.411035      4.617682     -2.483680
  H      -0.824839      4.016196     -1.344128
  H      -0.416448     -3.441784     -2.250522
  H       0.433754     -2.020645     -2.906068
  H       1.321131     -3.541777     -2.601915
  H       1.212877     -3.351688      1.160660
  H       1.768440     -4.315058     -0.228724
  H       0.035436     -4.215968      0.140158
>
53
-1494.99450595; 31P isotropic shielding: 258.780852 ppm
  C       1.370509     -1.085528      3.102352
  C       2.798814     -0.940882      2.590813
  O       2.903794     -1.464881      1.223848
  C       2.720864     -0.573494      0.204238
  O       2.580145      0.625669      0.371991
  C       2.686385     -1.268106     -1.145007
  C       1.412670     -2.160341     -1.370235
  C       0.144833     -1.546281     -0.786831
  C      -0.323725     -0.281102     -0.802189
  P      -1.845227      0.151702      0.104481
  O      -2.805562      1.010568     -0.635678
  O      -1.354186      0.738295      1.530014
  C      -1.356528      2.173496      1.829010
  C       0.014433      2.577834      2.350015
  O      -2.389903     -1.303905      0.536392
  C      -3.823131     -1.490993      0.782007
  C      -4.240376     -0.969013      2.151570
  C       0.304577      0.859201     -1.541170
  O       0.900681      0.776118     -2.602326
  O       0.075461      2.027133     -0.890030
  C       0.545722      3.252283     -1.537732
  C      -0.475203      3.752582     -2.553054
  C       1.227244     -2.380555     -2.897516
  C       1.612598     -3.544219     -0.701421
  H       1.053498     -2.135861      3.085462
  H       1.313713     -0.729811      4.140592
  H       0.669482     -0.497339      2.501772
  H       3.503125     -1.550065      3.167831
  H       3.127918      0.103117      2.592082
  H       2.736824     -0.488229     -1.905845
  H       3.568289     -1.914392     -1.243104
  H      -0.471923     -2.262010     -0.244683
  H      -2.136238      2.328499      2.586867
  H      -1.636745      2.725577      0.926825
  H       0.791112      2.364182      1.608605
  H       0.019853      3.654040      2.573486
  H       0.256485      2.038527      3.274310
  H      -3.969733     -2.574175      0.704722
  H      -4.380218     -0.995288     -0.022219
  H      -4.134034      0.120305      2.207443
  H      -3.633386     -1.421867      2.944895
  H      -5.294858     -1.219957      2.332071
  H       1.519045      3.050386     -1.996516
  H       0.673240      3.954138     -0.706978
  H      -0.571722      3.049230     -3.387202
  H      -0.149653      4.722377     -2.953795
  H      -1.458837      3.878329     -2.085483
  H       0.359938     -3.026244     -3.086119
  H       1.080091     -1.429302     -3.414054
  H       2.115916     -2.881153     -3.306439
  H       2.501300     -4.038793     -1.113300
  H       0.744891     -4.187850     -0.897750
  H       1.743936     -3.455752      0.381284
>
53
-1494.99305552; 31P isotropic shielding: 259.661198 ppm
  C       2.184456      2.826780      0.936640
  C       2.468515      1.427658      1.452184
  O       2.579147      0.538011      0.284064
  C       2.727802     -0.786271      0.557670
  O       2.821159     -1.232459      1.690354
  C       2.691851     -1.625016     -0.710756
  C       1.402211     -2.523603     -0.761650
  C       0.189322     -1.741629     -0.271207
  C      -0.257446     -0.495073     -0.544639
  P      -1.484424      0.242638      0.578059
  O      -0.973770      1.350029      1.433190
  O      -2.073972     -1.003157      1.426150
  C      -1.891002     -1.063988      2.883783
  C      -0.636845     -1.839591      3.261985
  O      -2.686772      0.613660     -0.425385
  C      -3.519306      1.789703     -0.165365
  C      -4.540516      1.534095      0.936488
  C       0.264091      0.386691     -1.635094
  O       0.891698      0.014932     -2.613968
  O      -0.098878      1.682238     -1.430783
  C       0.281734      2.642171     -2.465949
  C      -0.750568      2.672203     -3.587562
  C       1.191427     -3.055722     -2.202597
  C       1.585887     -3.734321      0.188146
  H       1.205634      2.859045      0.449009
  H       2.167117      3.525782      1.783346
  H       2.959954      3.156779      0.233360
  H       1.652016      1.063310      2.083820
  H       3.408334      1.364400      2.014568
  H       2.739776     -0.978494     -1.587830
  H       3.565250     -2.289466     -0.709547
  H      -0.369824     -2.261481      0.503974
  H      -2.797013     -1.559254      3.251584
  H      -1.855236     -0.040650      3.273475
  H      -0.662960     -2.859280      2.857769
  H       0.271376     -1.341889      2.902860
  H      -0.571695     -1.911846      4.356637
  H      -4.008013      1.990382     -1.125362
  H      -2.861450      2.630482      0.086118
  H      -5.147356      0.649284      0.709030
  H      -5.209011      2.401435      1.027828
  H      -4.045243      1.383463      1.902903
  H       1.277068      2.379424     -2.839146
  H       0.329993      3.597230     -1.932857
  H      -1.748272      2.899339     -3.192448
  H      -0.785853      1.710152     -4.110247
  H      -0.481731      3.450512     -4.314650
  H       2.065305     -3.650369     -2.502209
  H       0.311119     -3.710783     -2.239035
  H       1.054689     -2.237025     -2.911239
  H       2.436330     -4.345815     -0.139213
  H       0.689005     -4.368444      0.175932
  H       1.777289     -3.409406      1.215912
>
53
-1494.99444183; 31P isotropic shielding: 253.288428 ppm
  C       3.278361      2.200132      1.166440
  C       4.062966      0.893920      1.151725
  O       3.603533      0.026634      0.060322
  C       2.569210     -0.815315      0.346381
  O       2.042867     -0.890173      1.444009
  C       2.198214     -1.623816     -0.885519
  C       0.858811     -2.397063     -0.787937
  C      -0.308691     -1.552899     -0.298489
  C      -0.629540     -0.267794     -0.537963
  P      -2.126974      0.481074      0.179593
  O      -2.868608      1.333849     -0.779827
  O      -1.675047      1.276164      1.494054
  C      -0.796989      0.732670      2.535075
  C      -1.590884      0.012966      3.617809
  O      -2.966299     -0.776917      0.768076
  C      -4.157506     -1.251037      0.052368
  C      -3.801050     -2.198381     -1.086286
  C       0.128943      0.657578     -1.435496
  O       0.510759      0.396412     -2.565217
  O       0.293581      1.865226     -0.837790
  C       0.807451      2.949524     -1.678228
  C       0.575322      4.247271     -0.923530
  C       0.495088     -2.928389     -2.204820
  C       1.021600     -3.601388      0.173271
  H       2.212195      2.015869      1.334972
  H       3.651983      2.846669      1.972198
  H       3.396039      2.734822      0.216312
  H       3.961141      0.351394      2.097486
  H       5.123332      1.058874      0.933241
  H       2.211224     -0.953854     -1.749827
  H       3.011097     -2.345668     -1.057832
  H      -1.003605     -2.101071      0.337319
  H      -0.282623      1.612141      2.939220
  H      -0.046964      0.077202      2.078979
  H      -2.348820      0.676498      4.052323
  H      -2.094143     -0.872800      3.215322
  H      -0.907620     -0.305506      4.417360
  H      -4.707634     -0.377970     -0.316033
  H      -4.754018     -1.754201      0.821789
  H      -4.723058     -2.566658     -1.557049
  H      -3.235021     -3.063969     -0.720029
  H      -3.208103     -1.686653     -1.853111
  H       0.272871      2.922145     -2.634562
  H       1.870478      2.759193     -1.875045
  H      -0.492976      4.388744     -0.722825
  H       0.933174      5.092559     -1.526152
  H       1.113336      4.253800      0.032084
  H      -0.445354     -3.492985     -2.174750
  H       0.383874     -2.099684     -2.910580
  H       1.283671     -3.604506     -2.563111
  H       1.262477     -3.267518      1.187724
  H       1.825720     -4.261607     -0.177488
  H       0.096709     -4.192209      0.211540
>
53
-1494.99417209; 31P isotropic shielding: 258.007406 ppm
  C       1.646337      2.167946     -3.522360
  C       0.810661      1.414337     -2.497273
  O       1.665569      0.522719     -1.699897
  C       1.693745     -0.795415     -2.050910
  O       1.129477     -1.251211     -3.031600
  C       2.447059     -1.615318     -1.017276
  C       1.461538     -2.482020     -0.150823
  C       0.226010     -1.688886      0.258834
  C       0.070387     -0.433607      0.733201
  P      -1.599308      0.288089      0.748868
  O      -1.848417      1.363800     -0.250015
  O      -1.757888      0.702859      2.296029
  C      -2.577329      1.859280      2.664539
  C      -4.066000      1.533987      2.639436
  O      -2.597186     -0.977880      0.587927
  C      -3.491373     -1.067608     -0.574455
  C      -2.832537     -1.796965     -1.737624
  C       1.187583      0.465983      1.161316
  O       2.286313      0.096453      1.544601
  O       0.805072      1.770591      1.127414
  C       1.797089      2.757744      1.553376
  C       2.679940      3.182242      0.385547
  C       0.976169     -3.690349     -0.991651
  C       2.207550     -3.017310      1.100094
  H       2.453535      2.730626     -3.036867
  H       2.087797      1.478237     -4.251971
  H       1.009621      2.880115     -4.064901
  H       0.033923      0.810933     -2.974890
  H       0.344524      2.072714     -1.758976
  H       3.120779     -2.302335     -1.543687
  H       3.035383     -0.960144     -0.374251
  H      -0.703797     -2.223901      0.075467
  H      -2.336301      2.685148      1.984287
  H      -2.241012      2.116108      3.675239
  H      -4.636808      2.391240      3.022710
  H      -4.407194      1.328541      1.617881
  H      -4.285616      0.661393      3.266509
  H      -3.790038     -0.054368     -0.865109
  H      -4.367775     -1.611034     -0.203126
  H      -1.955320     -1.251612     -2.104512
  H      -3.549045     -1.883609     -2.566247
  H      -2.523831     -2.809756     -1.450184
  H       2.387772      2.330302      2.370637
  H       1.194787      3.591412      1.929674
  H       3.393947      3.945493      0.723921
  H       2.076155      3.610567     -0.423145
  H       3.242106      2.329370     -0.008533
  H       1.829711     -4.315819     -1.281856
  H       0.285279     -4.310335     -0.404556
  H       0.470015     -3.363550     -1.905968
  H       2.564590     -2.198011      1.727661
  H       3.062730     -3.629259      0.781810
  H       1.539821     -3.655529      1.693386
>
53
-1494.99362263; 31P isotropic shielding: 253.909281 ppm
  C       1.134349      2.408865     -2.452322
  C       0.971027      0.949475     -2.835635
  O       1.791544      0.153760     -1.907994
  C       1.673001     -1.197490     -2.017698
  O       0.977626     -1.744755     -2.859112
  C       2.453569     -1.915299     -0.927437
  C       1.487962     -2.636968      0.082934
  C       0.281960     -1.755301      0.386940
  C       0.171673     -0.446387      0.707898
  P      -1.463238      0.338986      0.553559
  O      -1.585667      1.327904     -0.553739
  O      -1.716745      0.899282      2.040323
  C      -2.515309      2.110689      2.238141
  C      -4.008650      1.841166      2.095088
  O      -2.509041     -0.890131      0.431363
  C      -3.305995     -1.073208     -0.790616
  C      -2.646784     -2.054993     -1.748968
  C       1.315337      0.453048      1.058985
  O       2.434476      0.096701      1.391248
  O       0.939545      1.758694      1.014926
  C       1.964425      2.739971      1.361497
  C       1.296058      4.104810      1.364098
  C       0.955536     -3.941567     -0.562003
  C       2.262198     -3.006528      1.374258
  H       2.190754      2.707014     -2.461824
  H       0.593559      3.034713     -3.174544
  H       0.707499      2.588846     -1.461364
  H       1.313007      0.737042     -3.856253
  H      -0.069840      0.625742     -2.735901
  H       3.081278     -2.681181     -1.400463
  H       3.093309     -1.206721     -0.400252
  H      -0.668146     -2.264391      0.239113
  H      -2.175903      2.869802      1.522968
  H      -2.263080      2.435608      3.253719
  H      -4.325762      1.032574      2.764753
  H      -4.572923      2.748362      2.352230
  H      -4.260892      1.564666      1.064700
  H      -3.449405     -0.094740     -1.262108
  H      -4.272536     -1.447462     -0.433690
  H      -3.304098     -2.210442     -2.615946
  H      -2.484701     -3.028969     -1.270259
  H      -1.685513     -1.680128     -2.119246
  H       2.769025      2.670682      0.618602
  H       2.383744      2.477096      2.340363
  H       0.493856      4.146679      2.110967
  H       0.868036      4.336453      0.381785
  H       2.036502      4.877094      1.610300
  H       1.788251     -4.622667     -0.778446
  H       0.269741     -4.453300      0.126596
  H       0.430765     -3.737007     -1.500686
  H       2.658436     -2.117305      1.867741
  H       3.093523     -3.678654      1.120731
  H       1.601562     -3.538234      2.071584
>
53
-1494.99487192; 31P isotropic shielding: 253.455846 ppm
  C       2.256782      2.780849      1.013545
  C       2.506901      1.372734      1.522136
  O       2.623331      0.490797      0.348840
  C       2.739212     -0.838558      0.613715
  O       2.799958     -1.296218      1.744073
  C       2.711340     -1.666361     -0.662097
  C       1.403292     -2.535231     -0.746957
  C       0.197259     -1.729384     -0.278610
  C      -0.215119     -0.471282     -0.553079
  P      -1.452067      0.285178      0.545896
  O      -0.937967      1.376181      1.419895
  O      -2.087641     -0.952983      1.371711
  C      -1.937762     -1.027791      2.832524
  C      -0.708413     -1.831837      3.232108
  O      -2.623129      0.687560     -0.482340
  C      -3.438796      1.877416     -0.231945
  C      -4.486159      1.634610      0.848098
  C       0.350867      0.406012     -1.624749
  O       0.994391      0.026949     -2.590452
  O       0.009442      1.707328     -1.421192
  C       0.430458      2.664755     -2.442823
  C      -0.575294      2.717355     -3.587487
  C       1.212166     -3.053173     -2.195901
  C       1.538368     -3.755846      0.198310
  H       3.050990      3.102887      0.327653
  H       1.288098      2.834048      0.507901
  H       2.235453      3.473016      1.865729
  H       1.673023      1.017474      2.136081
  H       3.434968      1.288168      2.101077
  H       2.791553     -1.015037     -1.533222
  H       3.569393     -2.350347     -0.647648
  H      -0.391295     -2.242111      0.479313
  H      -2.861712     -1.506547      3.176802
  H      -1.889441     -0.008067      3.230304
  H      -0.746504     -2.847968      2.819994
  H       0.217441     -1.350615      2.896298
  H      -0.668715     -1.912902      4.327361
  H      -3.904493      2.092429     -1.200227
  H      -2.770577      2.704373      0.037482
  H      -5.140504      2.513464      0.931441
  H      -4.012776      1.469461      1.823053
  H      -5.104340      0.762301      0.603481
  H       1.429491      2.386520     -2.794341
  H       0.482853      3.616503     -1.904226
  H      -0.615234      1.758308     -4.115305
  H      -0.276864      3.494119     -4.304611
  H      -1.577700      2.959786     -3.213936
  H       0.315001     -3.682981     -2.257467
  H       1.115024     -2.226523     -2.901870
  H       2.076017     -3.670223     -2.478769
  H       2.382942     -4.383433     -0.113362
  H       0.628358     -4.369833      0.160532
  H       1.712729     -3.441533      1.232360
>
53
-1494.99445169; 31P isotropic shielding: 253.261106 ppm
  C       1.544895      2.118336     -2.788981
  C       1.432663      0.611019     -2.924113
  O       2.026095      0.008435     -1.717580
  C       1.927689     -1.344647     -1.621098
  O       1.435605     -2.047716     -2.489590
  C       2.441398     -1.846655     -0.279750
  C       1.272564     -2.427505      0.595509
  C       0.035254     -1.542369      0.484329
  C      -0.130002     -0.201381      0.543694
  P      -1.691802      0.512357     -0.081871
  O      -1.549311      1.274331     -1.345894
  O      -2.311463      1.395866      1.111010
  C      -2.695154      0.803601      2.395568
  C      -1.694565      1.178891      3.480437
  O      -2.684878     -0.764464     -0.174522
  C      -3.275768     -1.144774     -1.467915
  C      -2.428878     -2.193139     -2.175110
  C       0.921170      0.771468      0.979295
  O       1.893698      0.506178      1.670110
  O       0.624981      2.025896      0.556835
  C       1.543931      3.094103      0.948901
  C       1.187480      3.648820      2.322977
  C       0.881541     -3.830077      0.063301
  C       1.741859     -2.575356      2.065611
  H       2.586264      2.427463     -2.630602
  H       1.182778      2.589945     -3.712136
  H       0.923173      2.471967     -1.961447
  H       1.972315      0.220455     -3.795685
  H       0.386542      0.294299     -2.982488
  H       3.158942     -2.655762     -0.466921
  H       2.949627     -1.040017      0.250368
  H      -0.861724     -2.096638      0.216162
  H      -2.789890     -0.284113      2.289460
  H      -3.689865      1.210181      2.613935
  H      -0.709982      0.737628      3.289421
  H      -1.583833      2.267491      3.544654
  H      -2.049901      0.809381      4.452405
  H      -3.384799     -0.241904     -2.078249
  H      -4.269488     -1.530690     -1.213354
  H      -2.917059     -2.479366     -3.117125
  H      -2.320884     -3.097138     -1.562581
  H      -1.429957     -1.810557     -2.414562
  H       1.416672      3.847150      0.164883
  H       2.566373      2.702986      0.921266
  H       1.838078      4.503729      2.552253
  H       1.329645      2.891256      3.101197
  H       0.146493      3.992826      2.343021
  H       0.567962     -3.785247     -0.984491
  H       1.737089     -4.513517      0.134485
  H       0.062600     -4.248362      0.664105
  H       2.600361     -3.259735      2.106885
  H       0.938911     -3.008998      2.676464
  H       2.031255     -1.612335      2.490125
>
53
-1494.99196134; 31P isotropic shielding: 261.871411 ppm
  C       3.211104      2.061999      1.493967
  C       4.005126      0.765586      1.391658
  O       3.580814     -0.011699      0.220470
  C       2.550528     -0.883415      0.411637
  O       1.998132     -1.051336      1.485975
  C       2.221614     -1.598635     -0.889253
  C       0.881954     -2.378889     -0.892111
  C      -0.296824     -1.566195     -0.377651
  C      -0.590450     -0.261413     -0.525875
  P      -2.059585      0.468980      0.262959
  O      -2.719886      1.500897     -0.571264
  O      -1.579929      1.022683      1.688905
  C      -0.995031      0.149446      2.712635
  C      -0.514818      1.032975      3.851601
  O      -2.983725     -0.800263      0.667250
  C      -4.170870     -1.116213     -0.135748
  C      -3.819397     -1.905295     -1.390642
  C       0.194775      0.716143     -1.341305
  O       0.544666      0.543320     -2.498345
  O       0.421200      1.852000     -0.632686
  C       0.908091      3.015190     -1.384733
  C      -0.246338      3.709515     -2.097338
  C       0.565332     -2.807224     -2.353801
  C       1.015111     -3.649383     -0.015007
  H       2.141677      1.859082      1.612972
  H       3.557203      2.637879      2.363136
  H       3.353122      2.675962      0.596733
  H       3.882334      0.146251      2.286242
  H       5.069642      0.953219      1.215526
  H       2.259160     -0.867988     -1.702136
  H       3.042366     -2.304737     -1.087504
  H      -1.014655     -2.152311      0.196078
  H      -0.163638     -0.412769      2.271564
  H      -1.769952     -0.553872      3.044453
  H      -0.073105      0.408710      4.639768
  H       0.249249      1.737076      3.500907
  H      -1.345261      1.605334      4.282874
  H      -4.676842     -0.176906     -0.386441
  H      -4.807751     -1.698295      0.539936
  H      -3.292279     -2.834427     -1.140771
  H      -3.190077     -1.313497     -2.065340
  H      -4.742020     -2.167549     -1.926611
  H       1.684930      2.683445     -2.082464
  H       1.353059      3.652393     -0.614379
  H      -0.659961      3.071901     -2.885704
  H       0.115179      4.640185     -2.556017
  H      -1.048265      3.947982     -1.390057
  H      -0.370425     -3.379322     -2.392410
  H       0.466620     -1.930487     -3.001049
  H       1.369703     -3.450173     -2.737197
  H       1.825975     -4.287040     -0.390978
  H       0.087034     -4.235527     -0.044255
  H       1.229785     -3.389094      1.026324
>
53
-1494.99513464; 31P isotropic shielding: 262.849029 ppm
  C       2.286336      1.820460     -3.473357
  C       1.237142      1.191974     -2.567070
  O       1.880890      0.423525     -1.491062
  C       2.020026     -0.919571     -1.681742
  O       1.741275     -1.493649     -2.720836
  C       2.487187     -1.599500     -0.405915
  C       1.316992     -2.394124      0.279439
  C       0.018224     -1.595866      0.298136
  C      -0.244890     -0.302398      0.586040
  P      -1.885978      0.380063      0.167438
  O      -1.916231      1.274131     -1.014377
  O      -2.413991      1.106325      1.502560
  C      -2.546895      0.380791      2.767689
  C      -1.757955      1.105323      3.848949
  O      -2.808746     -0.946570      0.038432
  C      -3.619235     -1.158817     -1.169426
  C      -2.841742     -1.937909     -2.221127
  C       0.744249      0.667730      1.153932
  O       1.683728      0.375351      1.879563
  O       0.416768      1.940909      0.822792
  C       1.258374      3.007774      1.365734
  C       2.449854      3.284045      0.456403
  C       1.047828     -3.693651     -0.521314
  C       1.737131     -2.777811      1.723340
  H       2.865857      1.049843     -3.995675
  H       1.792581      2.448735     -4.227293
  H       2.976467      2.452538     -2.900341
  H       0.575473      0.520500     -3.121244
  H       0.630099      1.932368     -2.039124
  H       3.271861     -2.320672     -0.664577
  H       2.897770     -0.860239      0.283586
  H      -0.843269     -2.171646     -0.036343
  H      -2.199469     -0.653459      2.647271
  H      -3.619297      0.354275      2.997923
  H      -1.930572      0.623372      4.821052
  H      -0.682266      1.077557      3.640150
  H      -2.075160      2.152735      3.920401
  H      -3.939489     -0.184825     -1.555203
  H      -4.496375     -1.714244     -0.818283
  H      -3.486263     -2.126404     -3.090859
  H      -2.505898     -2.906512     -1.829933
  H      -1.967972     -1.370218     -2.561111
  H       1.580450      2.720641      2.372626
  H       0.583202      3.867657      1.423754
  H       3.040227      4.112228      0.871553
  H       2.116481      3.569462     -0.548006
  H       3.094165      2.402607      0.376262
  H       0.773751     -3.474967     -1.558699
  H       1.945435     -4.324527     -0.534295
  H       0.236730     -4.266658     -0.052306
  H       2.648533     -3.390388      1.689575
  H       0.949303     -3.374390      2.201985
  H       1.924106     -1.886906      2.326735
>
53
-1494.99224360; 31P isotropic shielding: 259.452872 ppm
  C       1.921884      2.920633      0.931574
  C       2.337304      1.543039      1.411069
  O       2.445082      0.668894      0.230996
  C       2.724770     -0.637548      0.492450
  O       2.935459     -1.065739      1.616388
  C       2.668186     -1.487494     -0.767060
  C       1.428872     -2.454859     -0.741741
  C       0.196298     -1.716476     -0.232815
  C      -0.341045     -0.515258     -0.545450
  P      -1.573510      0.193001      0.591600
  O      -1.117456      1.392132      1.348467
  O      -2.015652     -1.037650      1.545371
  C      -1.760205     -0.989587      2.992180
  C      -0.452560     -1.680629      3.352688
  O      -2.851188      0.395692     -0.365118
  C      -3.766762      1.515067     -0.135604
  C      -4.707641      1.252744      1.034341
  C       0.061202      0.330890     -1.712603
  O       0.703830     -0.049504     -2.678883
  O      -0.444965      1.589840     -1.608726
  C      -0.259536      2.463433     -2.770442
  C       1.091682      3.167755     -2.747602
  C       1.199951     -3.054469     -2.153430
  C       1.706441     -3.622005      0.240478
  H       2.642549      3.323525      0.208883
  H       0.925435      2.882398      0.481246
  H       1.879846      3.601509      1.792251
  H       1.588072      1.114244      2.084477
  H       3.308738      1.544810      1.920628
  H       2.630287     -0.847935     -1.649707
  H       3.575465     -2.103242     -0.809249
  H      -0.293112     -2.225029      0.595336
  H      -2.621121     -1.499456      3.439850
  H      -1.756030      0.058817      3.310052
  H      -0.449483     -2.724796      3.015632
  H       0.411492     -1.167855      2.914562
  H      -0.328626     -1.677373      4.444594
  H      -4.317144      1.609534     -1.078354
  H      -3.171573      2.422058      0.025658
  H      -4.155040      1.208225      1.980219
  H      -5.248588      0.308658      0.896557
  H      -5.441284      2.067651      1.106693
  H      -1.087270      3.176200     -2.692002
  H      -0.378439      1.859451     -3.676733
  H       1.910802      2.441839     -2.775769
  H       1.197520      3.787472     -1.850912
  H       1.174127      3.818332     -3.629174
  H       2.099346     -3.603913     -2.463671
  H       0.364722     -3.766544     -2.128027
  H       0.983177     -2.278583     -2.889345
  H       1.913676     -3.257163      1.251444
  H       2.575918     -4.200508     -0.096299
  H       0.842396     -4.299126      0.275631
>
53
-1494.99341472; 31P isotropic shielding: 253.494917 ppm
  C       1.655542      2.144201     -2.743770
  C       1.502491      0.645840     -2.929222
  O       2.066585     -0.012917     -1.738367
  C       1.920728     -1.364322     -1.684121
  O       1.410777     -2.022823     -2.576807
  C       2.406620     -1.924350     -0.355506
  C       1.210781     -2.486567      0.495181
  C       0.010976     -1.548803      0.409759
  C      -0.099347     -0.205146      0.515688
  P      -1.631146      0.593404     -0.079890
  O      -1.461859      1.389559     -1.319226
  O      -2.207129      1.462879      1.144717
  C      -2.620136      0.845981      2.408407
  C      -1.601359      1.129829      3.504186
  O      -2.678440     -0.636365     -0.208334
  C      -3.286714     -0.951847     -1.510766
  C      -2.479610     -2.003979     -2.258072
  C       0.989510      0.709169      0.984664
  O       1.945230      0.383355      1.673162
  O       0.749038      1.986464      0.597276
  C       1.707293      3.004115      1.028293
  C       1.363027      3.528942      2.417102
  C       0.767220     -3.854238     -0.083843
  C       1.666184     -2.700801      1.961697
  H       1.037503      2.488065     -1.909407
  H       2.703883      2.418911     -2.568728
  H       1.313689      2.655247     -3.653603
  H       2.039714      0.268867     -3.808307
  H       0.448653      0.360672     -3.008560
  H       3.094728     -2.754017     -0.562082
  H       2.940641     -1.153355      0.201697
  H      -0.907344     -2.056663      0.122404
  H      -2.771474     -0.230807      2.263925
  H      -3.592223      1.295721      2.643378
  H      -1.434356      2.208217      3.607456
  H      -1.975915      0.744880      4.462875
  H      -0.640865      0.645091      3.296580
  H      -3.367998     -0.025797     -2.090025
  H      -4.291876     -1.312416     -1.264063
  H      -2.981496     -2.241213     -3.206460
  H      -2.399247     -2.931490     -1.677334
  H      -1.469357     -1.647607     -2.490316
  H       1.615648      3.785584      0.267493
  H       2.713391      2.573093      0.994499
  H       2.046233      4.348365      2.678666
  H       1.467457      2.741074      3.170789
  H       0.336711      3.914322      2.441073
  H       0.461875     -3.764150     -1.131173
  H       1.594789     -4.572873     -0.030950
  H      -0.070779     -4.258721      0.499878
  H       2.495073     -3.421496      1.983903
  H       0.842873     -3.119935      2.555365
  H       1.992707     -1.764446      2.417618
>
53
-1494.99202170; 31P isotropic shielding: 261.967511 ppm
  C       1.611214      2.223683     -2.564430
  C       1.478510      0.732158     -2.811018
  O       2.052335      0.037329     -1.646136
  C       1.932565     -1.317800     -1.643829
  O       1.435972     -1.951287     -2.561791
  C       2.428354     -1.918056     -0.336642
  C       1.243285     -2.540477      0.487016
  C       0.018982     -1.633363      0.425889
  C      -0.129167     -0.297723      0.578658
  P      -1.675080      0.480224     -0.010053
  O      -1.514743      1.308939     -1.229450
  O      -2.281849      1.309579      1.226522
  C      -2.579163      0.672313      2.510710
  C      -1.650221      1.213992      3.589025
  O      -2.691485     -0.770349     -0.175652
  C      -3.288717     -1.065204     -1.487963
  C      -2.454021     -2.076037     -2.261638
  C       0.929454      0.630641      1.086796
  O       1.913794      0.312666      1.737127
  O       0.618420      1.917490      0.795047
  C       1.532001      2.945122      1.288452
  C       0.874248      4.289521      1.025312
  C       0.841022     -3.899431     -0.140014
  C       1.694673     -2.788322      1.949534
  H       2.656709      2.507006     -2.386110
  H       1.252849      2.768420     -3.447864
  H       0.995719      2.522002     -1.710851
  H       2.021087      0.398155     -3.704034
  H       0.428608      0.436240     -2.901352
  H       3.135675     -2.723246     -0.573024
  H       2.941623     -1.157423      0.252616
  H      -0.884194     -2.155699      0.117019
  H      -2.495430     -0.417990      2.418127
  H      -3.627036      0.913851      2.726390
  H      -0.610259      0.920665      3.406470
  H      -1.703592      2.308676      3.627791
  H      -1.949003      0.817527      4.569209
  H      -3.391452     -0.126064     -2.042205
  H      -4.285259     -1.457028     -1.254391
  H      -2.948538     -2.300502     -3.217029
  H      -2.351163     -3.016497     -1.705765
  H      -1.452882     -1.687931     -2.482652
  H       2.487314      2.834027      0.759814
  H       1.713281      2.768023      2.355625
  H       0.691164      4.436916     -0.045259
  H       1.529732      5.095531      1.380436
  H      -0.085193      4.362731      1.550948
  H       0.541851     -3.782306     -1.186523
  H       1.687232     -4.597107     -0.103585
  H       0.009403     -4.346094      0.421772
  H       1.987162     -1.856994      2.438024
  H       2.547022     -3.481458      1.955999
  H       0.881187     -3.253339      2.522130
>
53
-1494.99311796; 31P isotropic shielding: 260.016274 ppm
  C       2.830213      0.335360      2.742698
  C       3.764927      0.576268      1.563051
  O       3.529644     -0.430336      0.520556
  C       2.669204     -0.095521     -0.484422
  O       2.181447      1.015495     -0.616027
  C       2.366365     -1.281820     -1.379285
  C       1.420489     -2.343377     -0.707428
  C       0.310880     -1.708233      0.117830
  C      -0.487344     -0.639239     -0.101250
  P      -1.566836     -0.208921      1.318762
  O      -1.816390     -1.384744      2.188928
  O      -2.894544      0.479547      0.708992
  C      -4.061902     -0.349127      0.394379
  C      -3.914620     -1.049293     -0.951976
  O      -0.861632      0.975020      2.133819
  C      -0.356842      2.269983      1.667979
  C      -1.475849      3.280390      1.461768
  C      -0.554288      0.121168     -1.383877
  O      -0.362219     -0.355921     -2.492934
  O      -0.930109      1.409969     -1.180604
  C      -1.055280      2.260244     -2.365566
  C       0.280401      2.897135     -2.728502
  C       0.800537     -3.231882     -1.821702
  C       2.240876     -3.256644      0.239200
  H       3.037194      1.068863      3.534029
  H       1.779982      0.436545      2.449560
  H       2.977809     -0.667484      3.161657
  H       4.815364      0.438591      1.841517
  H       3.627050      1.570789      1.127223
  H       1.904226     -0.892989     -2.287748
  H       3.301804     -1.790176     -1.644647
  H       0.147258     -2.197614      1.080165
  H      -4.900019      0.356902      0.386957
  H      -4.208021     -1.068322      1.209009
  H      -3.105999     -1.789399     -0.930220
  H      -4.847603     -1.575487     -1.196473
  H      -3.706449     -0.327645     -1.751219
  H       0.235529      2.121369      0.761465
  H       0.312890      2.588201      2.475354
  H      -2.057787      3.411231      2.382418
  H      -2.152622      2.962461      0.663304
  H      -1.038230      4.251053      1.188396
  H      -1.798069      3.010052     -2.072482
  H      -1.449666      1.653457     -3.187679
  H       0.139725      3.571719     -3.584309
  H       1.017000      2.134254     -2.998142
  H       0.679394      3.477584     -1.888731
  H       0.204713     -2.633537     -2.514721
  H       1.603969     -3.736451     -2.376102
  H       0.161451     -4.005309     -1.376800
  H       3.041439     -3.759546     -0.317817
  H       1.591988     -4.027617      0.674325
  H       2.698953     -2.688416      1.054221
>
53
-1494.99030604; 31P isotropic shielding: 258.985918 ppm
  C       3.209066      2.097949      1.514291
  C       4.051913      0.829453      1.458547
  O       3.713153      0.035801      0.271406
  C       2.699670     -0.865583      0.412057
  O       2.098885     -1.048627      1.457614
  C       2.455130     -1.587978     -0.902429
  C       1.132415     -2.392136     -0.975868
  C      -0.093727     -1.616350     -0.518869
  C      -0.418404     -0.316319     -0.654309
  P      -1.975260      0.344668      0.017896
  O      -2.705580      1.247487     -0.904542
  O      -1.621495      1.078333      1.403463
  C      -0.831673      0.457050      2.470867
  C      -1.724316     -0.227605      3.498051
  O      -2.773105     -1.003176      0.438782
  C      -4.201353     -1.125547      0.127010
  C      -5.061937     -0.394597      1.149493
  C       0.382784      0.702154     -1.402105
  O       0.869067      0.539463     -2.509973
  O       0.452187      1.862562     -0.698689
  C       0.949331      3.042795     -1.415071
  C      -0.158680      3.656686     -2.262445
  C       0.896474     -2.816019     -2.454538
  C       1.247986     -3.666794     -0.101203
  H       2.142947      1.857534      1.582826
  H       3.491315      2.690224      2.395508
  H       3.372855      2.712256      0.620931
  H       3.906240      0.208938      2.348973
  H       5.116724      1.053652      1.334878
  H       2.523437     -0.857925     -1.713302
  H       3.297074     -2.280973     -1.052394
  H      -0.831987     -2.234974     -0.008875
  H      -0.277767      1.289318      2.920552
  H      -0.103903     -0.238571      2.038356
  H      -2.466891      0.473398      3.899154
  H      -2.250075     -1.081119      3.056865
  H      -1.107260     -0.592901      4.330755
  H      -4.390824     -2.205137      0.135742
  H      -4.372063     -0.736586     -0.883509
  H      -4.864812      0.683196      1.120823
  H      -4.869458     -0.764370      2.164051
  H      -6.124030     -0.556429      0.918058
  H       1.816055      2.750036     -2.017879
  H       1.269084      3.715973     -0.613530
  H      -0.447813      2.983753     -3.076667
  H       0.196375      4.599730     -2.700400
  H      -1.044622      3.859985     -1.650569
  H      -0.023214     -3.408293     -2.542351
  H       0.810098     -1.936272     -3.099459
  H       1.733249     -3.437578     -2.802240
  H       0.336882     -4.273782     -0.184527
  H       1.400446     -3.409651      0.951924
  H       2.093011     -4.282105     -0.437128
>
53
-1494.99410003; 31P isotropic shielding: 257.768428 ppm
  C       2.199032      2.805226      0.786358
  C       2.479570      1.439840      1.387213
  O       2.607405      0.484096      0.275366
  C       2.739435     -0.824159      0.627125
  O       2.804703     -1.204882      1.785261
  C       2.723815     -1.732197     -0.592589
  C       1.422498     -2.614408     -0.627737
  C       0.208442     -1.791683     -0.211916
  C      -0.218457     -0.559739     -0.570091
  P      -1.466051      0.254184      0.475023
  O      -0.970089      1.419443      1.259413
  O      -2.072117     -0.928419      1.398870
  C      -1.911196     -0.889095      2.859921
  C      -0.682531     -1.666888      3.310658
  O      -2.650205      0.552556     -0.572948
  C      -3.499337      1.732713     -0.399886
  C      -4.545558      1.527527      0.689114
  C       0.344528      0.251875     -1.694621
  O       1.025861     -0.171214     -2.614622
  O      -0.046930      1.550451     -1.602319
  C       0.410636      2.443165     -2.663832
  C      -0.241299      3.795000     -2.424647
  C       1.239584     -3.222826     -2.042308
  C       1.566047     -3.774366      0.390413
  H       1.223597      2.806321      0.291321
  H       2.174624      3.554594      1.588618
  H       2.980334      3.093142      0.070972
  H       1.655776      1.111449      2.029110
  H       3.411799      1.412893      1.965081
  H       2.803228     -1.135436     -1.501837
  H       3.586735     -2.407432     -0.531642
  H      -0.374325     -2.259775      0.578705
  H      -2.834399     -1.334073      3.248747
  H      -1.854242      0.158559      3.175217
  H      -0.728166     -2.710932      2.976183
  H       0.243373     -1.217096      2.933867
  H      -0.635431     -1.665712      4.408635
  H      -3.965411      1.874921     -1.381322
  H      -2.855831      2.592987     -0.179312
  H      -5.224994      2.390795      0.715513
  H      -4.073597      1.436283      1.674445
  H      -5.137484      0.624529      0.496596
  H       0.130025      2.008604     -3.631072
  H       1.505904      2.494467     -2.620611
  H       0.041025      4.201984     -1.446766
  H      -1.334463      3.714349     -2.464283
  H       0.080767      4.501864     -3.200451
  H       2.112207     -3.844268     -2.286013
  H       0.351776     -3.868352     -2.064103
  H       1.131807     -2.444596     -2.800074
  H       2.414620     -4.413641      0.115717
  H       0.660452     -4.396060      0.391208
  H       1.739003     -3.397668      1.403733
>
53
-1494.99477654; 31P isotropic shielding: 253.429025 ppm
  C       4.807140      1.160154      1.563866
  C       3.564557      1.568162      0.781201
  O       3.180402      0.536795     -0.187938
  C       2.420608     -0.490823      0.289717
  O       2.047206     -0.571934      1.447619
  C       2.133291     -1.491442     -0.817567
  C       0.852936     -2.347420     -0.619737
  C      -0.375028     -1.549572     -0.208646
  C      -0.747856     -0.295391     -0.517384
  P      -2.287230      0.426934      0.130634
  O      -2.989752      1.277563     -0.859202
  O      -1.905411      1.216754      1.470286
  C      -1.009361      0.718925      2.518468
  C      -1.730074     -0.194206      3.502238
  O      -3.138900     -0.842801      0.671611
  C      -4.260263     -1.352527     -0.128308
  C      -3.794209     -2.262301     -1.258070
  C       0.000739      0.619898     -1.435180
  O       0.320004      0.356084     -2.582314
  O       0.242673      1.807997     -0.826247
  C       0.842885      2.853411     -1.658262
  C       0.854298      4.128612     -0.832489
  C       0.523101     -3.044649     -1.970948
  C       1.106463     -3.430809      0.459096
  H       5.638558      0.933301      0.884925
  H       5.115909      1.984481      2.221001
  H       4.605104      0.282220      2.187200
  H       3.749835      2.451948      0.162013
  H       2.712840      1.756481      1.443248
  H       2.115540     -0.961391     -1.772598
  H       2.998696     -2.170796     -0.861431
  H      -1.062939     -2.108727      0.426112
  H      -0.651530      1.628755      3.013505
  H      -0.151065      0.218426      2.057221
  H      -1.041033     -0.462988      4.314887
  H      -2.602078      0.309413      3.937345
  H      -2.070570     -1.114882      3.016156
  H      -4.822701     -0.495647     -0.515858
  H      -4.881865     -1.894236      0.593530
  H      -4.669627     -2.660726     -1.789317
  H      -3.213644     -3.109304     -0.871954
  H      -3.179287     -1.712225     -1.979473
  H       0.241000      2.952034     -2.569092
  H       1.850366      2.526212     -1.944954
  H       1.452486      4.005130      0.078620
  H      -0.164488      4.411727     -0.543077
  H       1.289174      4.946379     -1.422067
  H      -0.362321     -3.684643     -1.868565
  H       0.329257     -2.301968     -2.751624
  H       1.364529     -3.679840     -2.280525
  H       1.944734     -4.074116      0.160560
  H       0.220289     -4.068024      0.578629
  H       1.343609     -2.975306      1.425736
>
53
-1494.99396000; 31P isotropic shielding: 259.050563 ppm
  C       2.305320      2.860563      0.775924
  C       2.639221      1.451610      1.226260
  O       2.489446      0.555973      0.065575
  C       2.722973     -0.762287      0.310949
  O       3.112191     -1.186647      1.387342
  C       2.369448     -1.628716     -0.887802
  C       1.076637     -2.479448     -0.609174
  C       0.002469     -1.613957      0.040578
  C      -0.465529     -0.378247     -0.248586
  P      -1.466238      0.492610      1.007332
  O      -0.769650      1.621375      1.670332
  O      -1.929366     -0.695304      2.007692
  C      -1.607332     -0.617665      3.440831
  C      -0.309793     -1.349976      3.751517
  O      -2.829817      0.946877      0.286501
  C      -3.744521     -0.016785     -0.330055
  C      -3.701772      0.105646     -1.847673
  C      -0.159219      0.384453     -1.500094
  O       0.204171     -0.106933     -2.559114
  O      -0.425724      1.705238     -1.346450
  C      -0.341159      2.536986     -2.550057
  C       1.084958      2.995333     -2.829982
  C       0.575985     -3.116344     -1.931666
  C       1.412332     -3.622917      0.382130
  H       2.442184      3.547197      1.622004
  H       2.966203      3.184056     -0.038268
  H       1.261088      2.922229      0.455957
  H       1.948476      1.109919      2.004287
  H       3.666307      1.355915      1.598446
  H       2.227546     -1.009122     -1.774405
  H       3.198008     -2.325115     -1.067660
  H      -0.399480     -2.046987      0.954667
  H      -2.464333     -1.081535      3.942463
  H      -1.548178      0.437445      3.728750
  H      -0.113238     -1.303487      4.831631
  H      -0.370318     -2.406962      3.463251
  H       0.540590     -0.892437      3.232746
  H      -4.737678      0.234512      0.061287
  H      -3.497085     -1.032825      0.002183
  H      -3.887820      1.141875     -2.154859
  H      -4.479449     -0.531419     -2.291276
  H      -2.734028     -0.211536     -2.252001
  H      -1.001759      3.380224     -2.324126
  H      -0.747197      1.964190     -3.391357
  H       1.742453      2.139039     -3.011465
  H       1.482397      3.576752     -1.991846
  H       1.088911      3.632080     -3.725353
  H      -0.313254     -3.731716     -1.740639
  H       0.328282     -2.354461     -2.672467
  H       1.357504     -3.774094     -2.336106
  H       1.802764     -3.234596      1.327865
  H       2.171291     -4.286622     -0.050573
  H       0.514184     -4.221958      0.584753
