17
-724.91929145; 31P isotropic shielding: 237.902411 ppm
  C      -1.525282      1.714045     -0.727321
  O      -1.150631      0.336848     -0.996030
  P      -0.367367     -0.602652      0.082712
  O      -0.279351     -2.013937     -0.374993
  C       1.307096      0.275720      0.198025
  O       1.429453      1.226025      0.958132
  C       2.398041     -0.241142     -0.707458
  C      -1.166120     -0.328720      1.695465
  H      -2.315728      1.757327      0.032453
  H      -1.904931      2.114223     -1.671645
  H      -0.661611      2.303718     -0.395236
  H       2.044684     -0.240954     -1.748884
  H       3.300832      0.369887     -0.606737
  H       2.607157     -1.291563     -0.461793
  H      -2.223876     -0.605104      1.612921
  H      -0.685146     -0.983713      2.430459
  H      -1.068322      0.710494      2.024930
>
17
-724.91638698; 31P isotropic shielding: 244.572019 ppm
  C      -1.726777      0.707395     -1.810357
  O      -1.482799      0.705509     -0.376798
  P      -0.462801     -0.389527      0.275355
  O      -0.439035     -1.727256     -0.386334
  C       1.235016      0.452785      0.206212
  O       1.679866      0.989251      1.208063
  C       1.974805      0.371322     -1.111848
  C      -0.960646     -0.315097      2.014523
  H      -2.728046      1.123974     -1.953710
  H      -1.680929     -0.311299     -2.210877
  H      -0.990377      1.345966     -2.316168
  H       1.401797      0.892529     -1.893048
  H       2.968442      0.821659     -1.018524
  H       2.047516     -0.678461     -1.425952
  H      -0.262017     -0.910789      2.611448
  H      -0.955284      0.718333      2.374867
  H      -1.967829     -0.738594      2.097847
>
17
-724.91990221; 31P isotropic shielding: 236.004461 ppm
  C      -1.578297      1.715920     -0.727274
  O      -1.211270      0.334110     -0.980940
  P      -0.363508     -0.575576      0.073855
  O      -0.294648     -1.997429     -0.353526
  C       1.309846      0.312966      0.072644
  O       1.463133      1.291712      0.789813
  C       2.357744     -0.232629     -0.865605
  C      -1.070992     -0.264732      1.722159
  H      -0.697412      2.322584     -0.482513
  H      -2.307991      1.778016      0.089756
  H      -2.033991      2.081954     -1.651644
  H       2.587510     -1.271098     -0.589280
  H       1.952097     -0.276711     -1.886804
  H       3.259571      0.387302     -0.835152
  H      -2.131835     -0.541151      1.705580
  H      -0.549852     -0.903448      2.443904
  H      -0.954305      0.781710      2.021326
>
17
-724.91634969; 31P isotropic shielding: 244.849012 ppm
  C      -1.573914      1.287363     -1.358550
  O      -1.508294      0.639589     -0.053996
  P      -0.430916     -0.539508      0.194760
  O      -0.363938     -1.638940     -0.813763
  C       1.250567      0.359364      0.296867
  O       1.294472      1.577486      0.305766
  C       2.472238     -0.533133      0.290535
  C      -0.876422     -1.009850      1.893520
  H      -0.731810      1.979351     -1.470793
  H      -2.517139      1.839981     -1.373918
  H      -1.565402      0.536826     -2.157250
  H       2.447307     -1.209972      1.157704
  H       2.444475     -1.174982     -0.600492
  H       3.386579      0.068772      0.311311
  H      -0.860928     -0.135463      2.553850
  H      -1.884905     -1.440738      1.881078
  H      -0.171371     -1.766346      2.255371
>
17
-724.91857042; 31P isotropic shielding: 242.020344 ppm
  C      -1.260364      0.869060     -1.678473
  O      -1.182734      0.690563     -0.237369
  P      -0.402966     -0.603883      0.381604
  O      -0.491202     -1.858270     -0.423023
  C       1.392285     -0.020842      0.569791
  O       1.796486      0.334340      1.664820
  C       2.248437     -0.071255     -0.676746
  C      -1.076779     -0.628066      2.061854
  H      -1.273400     -0.101209     -2.187077
  H      -0.408918      1.468283     -2.027399
  H      -2.190720      1.409800     -1.875401
  H       3.284508      0.189050     -0.436643
  H       2.187230     -1.072162     -1.124015
  H       1.853414      0.631316     -1.425736
  H      -2.138235     -0.892273      1.998668
  H      -0.545085     -1.385198      2.647898
  H      -0.958757      0.348947      2.540848
>
17
-724.91996168; 31P isotropic shielding: 235.733644 ppm
  C      -1.546409      0.955380     -1.662087
  O      -1.622280      0.580419     -0.255037
  P      -0.436001     -0.302331      0.397295
  O      -0.004229     -1.527880     -0.338592
  C       1.027719      0.911190      0.566179
  O       0.871892      2.095469      0.322495
  C       2.356208      0.290455      0.939653
  C      -1.112110     -0.543922      2.067566
  H      -1.241621      0.095719     -2.269875
  H      -0.840878      1.784648     -1.785796
  H      -2.553182      1.274950     -1.944345
  H       2.275969     -0.211093      1.915709
  H       2.605041     -0.492763      0.210755
  H       3.138765      1.055443      0.974985
  H      -1.371218      0.418292      2.523468
  H      -2.011490     -1.166855      1.990651
  H      -0.371374     -1.064220      2.684775
>
17
-724.91844986; 31P isotropic shielding: 241.950073 ppm
  C      -1.561430      0.782139     -1.786701
  O      -1.661502      0.526983     -0.354302
  P      -0.458873     -0.243579      0.401860
  O       0.040449     -1.512075     -0.207746
  C       0.952272      1.038298      0.490973
  O       0.761082      2.186360      0.128177
  C       2.290125      0.509940      0.960445
  C      -1.167023     -0.360695      2.072232
  H      -1.221837     -0.118481     -2.310872
  H      -0.873150      1.615574     -1.965958
  H      -2.568736      1.050408     -2.116316
  H       2.588113     -0.334214      0.323903
  H       3.044054      1.303595      0.937010
  H       2.198570      0.109238      1.981178
  H      -1.474454      0.627258      2.433048
  H      -2.039252     -1.024449      2.033926
  H      -0.421710     -0.792300      2.749443
>
17
-724.91850695; 31P isotropic shielding: 242.055564 ppm
  C      -1.553948      0.853323     -1.740101
  O      -1.647412      0.546420     -0.317508
  P      -0.449909     -0.266629      0.401245
  O       0.027609     -1.518602     -0.257885
  C       0.979239      0.992161      0.526068
  O       0.800002      2.156118      0.210899
  C       2.314423      0.428066      0.960468
  C      -1.147864     -0.434917      2.071535
  H      -0.862627      1.689614     -1.892627
  H      -2.561675      1.138192     -2.054195
  H      -1.221733     -0.028947     -2.299088
  H       3.078629      1.212181      0.960578
  H       2.227538     -0.011665      1.965414
  H       2.594716     -0.393951      0.287938
  H      -0.404277     -0.901641      2.726980
  H      -1.438579      0.543362      2.470594
  H      -2.029832     -1.084386      2.015282
>
17
-724.91859520; 31P isotropic shielding: 242.043683 ppm
  C      -1.573543      0.705435     -1.826040
  O      -1.677060      0.508115     -0.384562
  P      -0.470470     -0.222075      0.404738
  O       0.043001     -1.507895     -0.154753
  C       0.926987      1.077118      0.451938
  O       0.724248      2.210116      0.050048
  C       2.269402      0.579955      0.942023
  C      -1.183352     -0.281544      2.076104
  H      -2.580338      0.958981     -2.168524
  H      -1.231595     -0.215380     -2.312147
  H      -0.885822      1.531856     -2.037086
  H       2.578007     -0.282335      0.335634
  H       3.014592      1.380645      0.892577
  H       2.179732      0.213847      1.975837
  H      -2.048866     -0.954984      2.061694
  H      -0.436080     -0.678687      2.772021
  H      -1.501643      0.716732      2.396900
>
17
-724.91848190; 31P isotropic shielding: 242.079366 ppm
  C      -2.262058      1.064008     -1.056820
  O      -1.107253      1.183211     -0.176661
  P      -0.253417     -0.148823      0.216344
  O      -0.012080     -1.115513     -0.895147
  C       1.317841      0.696166      0.855025
  O       1.593978      0.624367      2.040390
  C       2.179797      1.362551     -0.191075
  C      -1.063737     -0.849626      1.685156
  H      -3.126773      0.680194     -0.499250
  H      -2.033954      0.399514     -1.897658
  H      -2.477607      2.073191     -1.418335
  H       3.106305      1.734246      0.258104
  H       2.396412      0.645596     -0.995035
  H       1.619282      2.190102     -0.648840
  H      -1.186227     -0.088138      2.462151
  H      -2.042826     -1.243188      1.387034
  H      -0.454483     -1.672058      2.074916
