26
-1315.03656327; 31P isotropic shielding: 204.849972 ppm
  C       2.703096     -1.108760     -1.800132
  O       1.564854     -0.292514     -1.411488
  P       1.439558      0.213563      0.129333
  S       2.987574      0.998405      0.942753
  O       0.151137      1.178050     -0.004973
  C      -1.124988      0.568349     -0.404714
  C      -2.210878      1.635479     -0.380783
  C      -3.570606      0.967822     -0.679773
  C      -3.804040     -0.234202      0.244228
  O      -2.711830     -1.180316      0.178257
  C      -1.470622     -0.577907      0.561289
  C      -0.397286     -1.665217      0.542740
  O       0.891029     -1.094275      0.931111
  H       3.637134     -0.577935     -1.583307
  H       2.689111     -2.067999     -1.266863
  H       2.599258     -1.276216     -2.875775
  H      -1.011040      0.159546     -1.419261
  H      -2.223379      2.103847      0.614522
  H      -1.983909      2.421862     -1.111518
  H      -4.387524      1.691940     -0.552526
  H      -3.597318      0.626045     -1.724580
  H      -3.928429      0.102707      1.289678
  H      -4.696275     -0.799567     -0.046639
  H      -1.543109     -0.162024      1.584000
  H      -0.324445     -2.114797     -0.457188
  H      -0.613773     -2.446886      1.276909
>
26
-1315.05265651; 31P isotropic shielding: 195.679932 ppm
  C       2.361424     -0.274982     -2.214302
  O       1.665033     -0.878190     -1.090461
  P       1.482567     -0.023757      0.281238
  S       3.029866      0.842072      1.008893
  O       0.266778      1.007530     -0.055965
  C      -1.025216      0.422922     -0.432052
  C      -2.037354      1.544216     -0.628345
  C      -3.425961      0.926063     -0.898450
  C      -3.782067     -0.104693      0.180259
  O      -2.757618     -1.116729      0.311717
  C      -1.494636     -0.544298      0.669220
  C      -0.504420     -1.690998      0.865228
  O       0.809760     -1.153070      1.218253
  H       2.413606     -1.048052     -2.985933
  H       1.805801      0.594393     -2.589115
  H       3.368874      0.032094     -1.910903
  H      -0.896368     -0.145132     -1.366111
  H      -2.063030      2.158908      0.283539
  H      -1.724464      2.196434     -1.453684
  H      -4.194941      1.710925     -0.922907
  H      -3.432698      0.432830     -1.881337
  H      -3.924544      0.394930      1.155881
  H      -4.699309     -0.649631     -0.068631
  H      -1.582885      0.022767      1.615100
  H      -0.424268     -2.297412     -0.046218
  H      -0.799331     -2.329541      1.702987
>
26
-1315.05253957; 31P isotropic shielding: 195.992540 ppm
  C       2.413891     -0.377814     -2.130397
  O       1.687839     -0.958854     -1.013707
  P       1.494362     -0.088134      0.346062
  S       3.040903      0.766101      1.089241
  O       0.297048      0.954289     -0.020684
  C      -0.996114      0.381328     -0.410845
  C      -1.990780      1.513263     -0.635206
  C      -3.383636      0.910430     -0.918065
  C      -3.768842     -0.103212      0.166806
  O      -2.759677     -1.126852      0.324082
  C      -1.494805     -0.566692      0.693954
  C      -0.522615     -1.723809      0.917926
  O       0.793311     -1.199269      1.284103
  H       3.421157     -0.085478     -1.812198
  H       2.466023     -1.158521     -2.894325
  H       1.880532      0.497755     -2.522842
  H      -0.859691     -0.198847     -1.336285
  H      -2.020942      2.138611      0.269285
  H      -1.657699      2.151626     -1.463456
  H      -4.141181      1.705486     -0.962465
  H      -3.383163      0.406085     -1.895332
  H      -3.918422      0.409121      1.134744
  H      -4.689456     -0.639074     -0.089224
  H      -1.590174      0.012550      1.631707
  H      -0.437460     -2.341638      0.014612
  H      -0.838311     -2.348550      1.758509
>
26
-1315.05252537; 31P isotropic shielding: 195.983993 ppm
  C       3.665924     -0.376871     -1.547899
  O       2.272084      0.031707     -1.458857
  P       1.491841      0.044076     -0.055932
  S       2.515640      0.443525      1.532691
  O       0.275581      1.065442     -0.368313
  C      -1.078404      0.511175     -0.471875
  C      -2.068662      1.669572     -0.509873
  C      -3.508533      1.119837     -0.431892
  C      -3.661840      0.170173      0.761868
  O      -2.687825     -0.896540      0.713554
  C      -1.346028     -0.388809      0.752135
  C      -0.391380     -1.598558      0.784650
  O       0.746024     -1.401145     -0.109594
  H       4.251863      0.099851     -0.754553
  H       3.741305     -1.467764     -1.466912
  H       4.008847     -0.047158     -2.532343
  H      -1.146620     -0.090970     -1.389131
  H      -1.865379      2.326039      0.348777
  H      -1.917135      2.263319     -1.420117
  H      -4.225022      1.948046     -0.338083
  H      -3.757033      0.576824     -1.355256
  H      -3.549115      0.724491      1.711531
  H      -4.638370     -0.326555      0.762039
  H      -1.209196      0.232366      1.655719
  H      -0.914073     -2.479607      0.399965
  H      -0.020796     -1.797365      1.797100
>
26
-1315.04962480; 31P isotropic shielding: 186.935030 ppm
  C       2.340686     -0.749349     -2.348863
  O       2.736416     -0.366684     -0.999519
  P       1.646713     -0.189214      0.160839
  S       2.388473      0.405062      1.830739
  O       0.500101      0.778832     -0.483200
  C      -0.875202      0.280297     -0.561668
  C      -1.807576      1.474891     -0.737292
  C      -3.275486      1.005169     -0.665504
  C      -3.513452      0.174472      0.600515
  O      -2.593695     -0.937735      0.675855
  C      -1.229109     -0.497169      0.721869
  C      -0.352069     -1.752038      0.882207
  O       0.894163     -1.634494      0.129649
  H       1.898808     -1.752004     -2.344423
  H       1.630061     -0.020519     -2.756068
  H       3.260372     -0.744657     -2.939512
  H      -0.952711     -0.401244     -1.422853
  H      -1.598721      2.195218      0.067119
  H      -1.596938      1.979282     -1.689097
  H      -3.951639      1.871577     -0.672745
  H      -3.520420      0.392614     -1.545371
  H      -3.401389      0.803583      1.502196
  H      -4.513172     -0.273677      0.610399
  H      -1.083479      0.183853      1.579230
  H      -0.874009     -2.613093      0.452688
  H      -0.114226     -1.946673      1.934213
>
26
-1315.04781105; 31P isotropic shielding: 197.751558 ppm
  C       2.709491     -1.206200     -1.745096
  O       1.564224     -0.381226     -1.398397
  P       1.439024      0.216793      0.108687
  S       2.984449      1.056840      0.869531
  O       0.148688      1.169212     -0.082878
  C      -1.142232      0.560161     -0.429596
  C      -2.209826      1.663508     -0.411914
  C      -3.586287      1.081883      0.006747
  C      -3.715345     -0.384290     -0.407560
  O      -2.697291     -1.224400      0.203709
  C      -1.480818     -0.553799      0.572050
  C      -0.390848     -1.627582      0.606672
  O       0.889556     -1.036408      0.989695
  H       2.601643     -1.437813     -2.808357
  H       3.638318     -0.652872     -1.565373
  H       2.709466     -2.132505     -1.156320
  H      -1.047130      0.116951     -1.430875
  H      -1.891456      2.435723      0.298589
  H      -2.266247      2.134571     -1.400960
  H      -3.716762      1.155646      1.094927
  H      -4.401647      1.659198     -0.448096
  H      -4.675983     -0.807547     -0.089549
  H      -3.647536     -0.481602     -1.504807
  H      -1.567509     -0.106768      1.578706
  H      -0.304561     -2.110332     -0.376294
  H      -0.611880     -2.385741      1.363760
>
26
-1315.04364526; 31P isotropic shielding: 196.408370 ppm
  C       2.386836     -0.412548     -2.186907
  O       1.669835     -0.942841     -1.039813
  P       1.480368     -0.011837      0.279692
  S       3.021812      0.903051      0.957717
  O       0.262365      0.994264     -0.119330
  C      -1.040905      0.411042     -0.456132
  C      -2.035526      1.560752     -0.679169
  C      -3.463277      1.142235     -0.241517
  C      -3.681378     -0.358264     -0.435919
  O      -2.748398     -1.159242      0.340435
  C      -1.507294     -0.517149      0.675770
  C      -0.500447     -1.642101      0.926987
  O       0.804887     -1.082702      1.279166
  H       3.396209     -0.105922     -1.889663
  H       2.433466     -1.226920     -2.915204
  H       1.850267      0.444553     -2.614233
  H      -0.920866     -0.190965     -1.369015
  H      -1.695947      2.423828     -0.094135
  H      -2.021799      1.858197     -1.735207
  H      -3.626359      1.391233      0.815827
  H      -4.218372      1.695074     -0.815307
  H      -4.680819     -0.664333     -0.103293
  H      -3.580682     -0.626698     -1.501821
  H      -1.610836      0.080072      1.599402
  H      -0.404742     -2.276791      0.036904
  H      -0.801897     -2.255988      1.780666
>
26
-1315.04346079; 31P isotropic shielding: 196.502012 ppm
  C       3.649294     -0.035587     -1.481104
  O       2.493922     -0.803678     -1.044285
  P       1.371396     -0.180404     -0.083457
  S       1.911554      1.288435      1.056833
  O       0.181929      0.131796     -1.145383
  C      -1.213450      0.133526     -0.699893
  C      -1.813476      1.543729     -0.650424
  C      -3.041272      1.541108      0.307169
  C      -3.687442      0.153810      0.402763
  O      -2.761645     -0.870983      0.875105
  C      -1.379292     -0.554417      0.661599
  C      -0.561505     -1.842227      0.715366
  O       0.863627     -1.521154      0.668910
  H       4.044473      0.562430     -0.653033
  H       4.386325     -0.772131     -1.812558
  H       3.365892      0.618228     -2.314326
  H      -1.731499     -0.485953     -1.445255
  H      -1.048544      2.238404     -0.284501
  H      -2.096533      1.862717     -1.661269
  H      -2.735232      1.860280      1.312146
  H      -3.797715      2.260147     -0.032956
  H      -4.518660      0.152597      1.118245
  H      -4.084075     -0.155340     -0.578903
  H      -1.009310      0.111583      1.460460
  H      -0.808277     -2.501503     -0.128325
  H      -0.726982     -2.376016      1.656373
>
26
-1315.03728685; 31P isotropic shielding: 193.362581 ppm
  C       3.725657     -0.442245     -1.360649
  O       2.299206     -0.173910     -1.465130
  P       1.383762      0.014418     -0.160531
  S       2.211417      0.797701      1.400762
  O       0.128270      0.835618     -0.777528
  C      -1.176502      0.152716     -0.766120
  C      -2.297865      1.160732     -1.078162
  C      -3.100166      1.510115      0.188459
  C      -3.643495      0.235831      0.866659
  O      -2.722680     -0.892517      0.779640
  C      -1.366653     -0.469451      0.629331
  C      -0.435006     -1.674203      0.804074
  O       0.778155     -1.489420      0.007172
  H       4.180687      0.213173     -0.610055
  H       3.887883     -1.492637     -1.091297
  H       4.138724     -0.238642     -2.352296
  H      -1.146415     -0.639082     -1.525858
  H      -1.853059      2.058875     -1.522388
  H      -2.966655      0.722791     -1.831105
  H      -2.462941      2.069860      0.885416
  H      -3.943872      2.167626     -0.058868
  H      -3.870827      0.427042      1.927810
  H      -4.560640     -0.109171      0.372299
  H      -1.108207      0.293945      1.381356
  H      -0.912106     -2.577320      0.408082
  H      -0.156172     -1.827447      1.853027
>
26
-1315.04018063; 31P isotropic shielding: 186.746203 ppm
  C       2.707656     -1.179971     -2.010428
  O       2.757527     -0.197771     -0.934248
  P       1.483493      0.076626     -0.005533
  S       1.818151      1.389970      1.361023
  O       0.326349      0.412668     -1.102442
  C      -1.082643      0.227258     -0.744161
  C      -1.819318      1.566791     -0.616142
  C      -3.080098      1.380190      0.276916
  C      -3.600916     -0.059837      0.227253
  O      -2.607041     -1.034187      0.664715
  C      -1.248320     -0.586293      0.547311
  C      -0.342672     -1.814856      0.544855
  O       1.061949     -1.415595      0.499537
  H       1.982821     -0.868892     -2.770937
  H       3.714774     -1.203152     -2.434419
  H       2.442715     -2.165446     -1.611171
  H      -1.497208     -0.371459     -1.567554
  H      -1.138615      2.296387     -0.162670
  H      -2.088118      1.938509     -1.612805
  H      -2.845083      1.637259      1.318080
  H      -3.882110      2.058964     -0.040562
  H      -4.460255     -0.195876      0.895009
  H      -3.922058     -0.318927     -0.795811
  H      -0.972716      0.039719      1.412660
  H      -0.555264     -2.449219     -0.327029
  H      -0.477601     -2.399860      1.460552
