35
-1259.27318559; 31P isotropic shielding: 110.417043 ppm
  C      -4.433388      1.718011     -1.114873
  C      -3.668458      1.744406      0.202202
  O      -3.575846      0.395131      0.761934
  P      -2.270928     -0.581954      0.732334
  O      -1.724389     -0.343578     -0.859735
  C      -0.369970      0.100836     -0.926887
  C      -0.152381      0.935129      0.385989
  O      -0.998813      0.323808      1.367165
  C       1.299904      0.928225      0.872602
  O       1.794702      0.062001      1.561364
  O       1.939357      2.021304      0.384298
  C       3.388242      2.100194      0.637706
  C       4.167162      1.399332     -0.467364
  C       0.649075     -1.044369     -1.048506
  O       1.758068     -0.867239     -1.521741
  O       0.174768     -2.197817     -0.543904
  C       1.107079     -3.336310     -0.489264
  C       1.852125     -3.347547      0.838501
  H      -3.892635      1.128051     -1.863320
  H      -5.427677      1.277286     -0.972800
  H      -4.560277      2.741107     -1.495879
  H      -4.190637      2.341291      0.959855
  H      -2.663436      2.163609      0.071661
  H      -0.246892      0.739758     -1.808054
  H      -0.464044      1.972180      0.203172
  H       3.590489      3.175965      0.664940
  H       3.589062      1.661799      1.620706
  H       5.243774      1.515132     -0.281170
  H       3.936290      1.835804     -1.446484
  H       3.928509      0.331697     -0.501943
  H       0.458398     -4.210463     -0.605464
  H       1.789272     -3.264167     -1.342738
  H       2.474484     -2.453980      0.949400
  H       2.497255     -4.235830      0.883637
  H       1.149755     -3.384402      1.679360
>
35
-1259.27216247; 31P isotropic shielding: 104.539486 ppm
  C      -3.614774      2.564637      0.775031
  C      -3.711520      1.537872     -0.348213
  O      -3.702259      0.177040      0.188962
  P      -2.398333     -0.793770      0.345201
  O      -1.667645     -0.602602     -1.173661
  C      -0.340217     -0.079999     -1.102646
  C      -0.322799      0.797310      0.197343
  O      -1.214022      0.136070      1.104081
  C       1.065912      0.923144      0.829283
  O       1.547548      0.129285      1.608396
  O       1.670615      2.041465      0.353656
  C       3.075642      2.244413      0.746768
  C       4.014791      1.560295     -0.237616
  C       0.747763     -1.165759     -1.063687
  O       1.892062     -0.935952     -1.414704
  O       0.286197     -2.327430     -0.566441
  C       1.274368     -3.396808     -0.343772
  C       1.827912     -3.313774      1.072221
  H      -3.686440      3.579812      0.360359
  H      -4.432786      2.426823      1.492411
  H      -2.666569      2.473582      1.316882
  H      -2.898470      1.644745     -1.077582
  H      -4.661671      1.629894     -0.888022
  H      -0.151349      0.540390     -1.985458
  H      -0.696594      1.800548     -0.048275
  H       3.194058      3.332941      0.739535
  H       3.205329      1.866027      1.765998
  H       3.859575      0.476854     -0.242859
  H       5.054739      1.767054      0.050295
  H       3.856338      1.936239     -1.255485
  H       0.706398     -4.317518     -0.511648
  H       2.060704     -3.302165     -1.099630
  H       1.020231     -3.378853      1.810645
  H       2.363707     -2.372557      1.231585
  H       2.521561     -4.149253      1.239745
>
35
-1259.27241941; 31P isotropic shielding: 107.805772 ppm
  C      -4.876323      0.478998      0.949957
  C      -4.343155      1.661093      0.146347
  O      -3.080656      1.327667     -0.501683
  P      -1.675912      1.763601      0.264730
  O      -1.121175      0.321703      0.904193
  C      -0.565346     -0.516089     -0.125388
  C       0.125069      0.486253     -1.112422
  O      -0.693731      1.664855     -1.083856
  C       1.582437      0.759454     -0.711716
  O       2.486665      0.019945     -1.061082
  O       1.703429      1.842166      0.077232
  C       3.040483      2.106672      0.634468
  C       3.211676      1.387742      1.965747
  C       0.397729     -1.531013      0.491705
  O       1.046585     -1.349258      1.499451
  O       0.425342     -2.643799     -0.284782
  C       1.409751     -3.675308      0.083669
  C       2.748780     -3.409458     -0.591283
  H      -5.858197      0.726160      1.377168
  H      -4.990500     -0.403528      0.308237
  H      -4.195671      0.222530      1.771268
  H      -4.205477      2.544515      0.789919
  H      -5.029231      1.933801     -0.664873
  H      -1.365665     -1.043012     -0.660480
  H       0.131302      0.078163     -2.128199
  H       3.789407      1.793527     -0.100422
  H       3.064758      3.195310      0.747915
  H       2.436116      1.694370      2.677386
  H       4.193545      1.639703      2.389683
  H       3.150931      0.302211      1.838516
  H       1.498321     -3.691072      1.174901
  H       0.952514     -4.607860     -0.263099
  H       2.637561     -3.374262     -1.681585
  H       3.448110     -4.218700     -0.339660
  H       3.176230     -2.458381     -0.258562
>
35
-1259.27150775; 31P isotropic shielding: 81.694591 ppm
  C      -5.140307      1.120593     -1.034218
  C      -4.574998      1.057168      0.380771
  O      -3.119409      1.086728      0.358654
  P      -2.287839     -0.337147      0.520821
  O      -1.569984     -0.441889     -0.995893
  C      -0.202881     -0.008165     -1.017285
  C      -0.025805      0.847747      0.284378
  O      -0.906212      0.233702      1.244904
  C       1.404375      0.852967      0.825279
  O       1.868631      0.015138      1.568346
  O       2.066173      1.922334      0.315676
  C       3.504984      2.007356      0.617558
  C       4.320121      1.264002     -0.432281
  C       0.794340     -1.175691     -1.067947
  O       1.929432     -1.023767     -1.486711
  O       0.279273     -2.313559     -0.569007
  C       1.198372     -3.457043     -0.448455
  C       1.892184     -3.438219      0.907083
  H      -4.767739      2.009130     -1.558565
  H      -4.851963      0.233616     -1.612461
  H      -6.237572      1.170877     -1.000079
  H      -4.917740      0.149829      0.902630
  H      -4.883547      1.927868      0.972684
  H      -0.030687      0.610602     -1.904089
  H      -0.349430      1.876076      0.080544
  H       3.710014      3.082951      0.611623
  H       3.669553      1.605824      1.622803
  H       4.078400      0.196512     -0.436143
  H       5.389888      1.383806     -0.212084
  H       4.125734      1.664677     -1.434328
  H       0.546939     -4.329134     -0.565708
  H       1.914131     -3.414732     -1.276091
  H       1.157529     -3.445945      1.720795
  H       2.517383     -2.546522      1.017434
  H       2.527457     -4.329691      1.001962
>
35
-1259.27159334; 31P isotropic shielding: 80.570032 ppm
  C      -4.429347      1.571762     -1.099556
  C      -3.644965      1.671093      0.202566
  O      -3.494298      0.346292      0.806967
  P      -2.153418     -0.581211      0.782924
  O      -1.653197     -0.391863     -0.830388
  C      -0.326403      0.118684     -0.957493
  C      -0.098235      0.997469      0.327205
  O      -0.907906      0.402738      1.347970
  C       1.366401      1.021339      0.778808
  O       1.899015      0.154530      1.438739
  O       1.969617      2.134891      0.291298
  C       3.424249      2.235710      0.503567
  C       4.181621      1.546679     -0.623799
  C       0.741311     -0.979556     -1.077244
  O       1.794166     -0.800859     -1.663995
  O       0.391379     -2.092211     -0.408468
  C       1.422961     -3.132721     -0.293112
  C       0.853757     -4.231852      0.585768
  H      -3.879661      0.976173     -1.836936
  H      -5.404474      1.100817     -0.925261
  H      -4.599724      2.575929     -1.512644
  H      -4.176397      2.274954      0.948158
  H      -2.657972      2.121401      0.041309
  H      -0.265293      0.737739     -1.858763
  H      -0.431021      2.023900      0.123782
  H       3.610409      3.314388      0.525800
  H       3.659009      1.799805      1.480128
  H       5.261423      1.674828     -0.466209
  H       3.919972      1.982763     -1.595349
  H       3.955807      0.476015     -0.654245
  H       1.668567     -3.483937     -1.302849
  H       2.315739     -2.668554      0.141472
  H       0.605674     -3.844909      1.581095
  H       1.597831     -5.031123      0.700297
  H      -0.051596     -4.664401      0.142658
>
35
-1259.27229204; 31P isotropic shielding: 103.231809 ppm
  C      -4.961028      2.201814     -0.063192
  C      -3.534878      1.679104      0.018118
  O      -3.577819      0.301561      0.506467
  P      -2.307324     -0.724376      0.564821
  O      -1.659665     -0.530939     -0.990751
  C      -0.318791     -0.038842     -0.988295
  C      -0.204186      0.812232      0.324236
  O      -1.057390      0.154277      1.271178
  C       1.222310      0.890764      0.874033
  O       1.729305      0.068974      1.606622
  O       1.826480      2.003411      0.383778
  C       3.257708      2.162263      0.693947
  C       4.116116      1.485019     -0.365995
  C       0.742045     -1.151010     -1.035023
  O       1.869079     -0.943420     -1.449873
  O       0.280413     -2.311317     -0.534544
  C       1.249295     -3.412325     -0.402379
  C       1.920800     -3.365300      0.963326
  H      -4.959338      3.242155     -0.416019
  H      -5.554990      1.599266     -0.760989
  H      -5.443175      2.169824      0.921329
  H      -2.932771      2.273285      0.719588
  H      -3.048905      1.689261     -0.966504
  H      -0.167393      0.594959     -1.868837
  H      -0.568826      1.827503      0.119104
  H       3.403203      3.247439      0.709445
  H       3.440242      1.751128      1.692113
  H       5.176916      1.656332     -0.136786
  H       3.906442      1.895857     -1.360884
  H       3.931168      0.406545     -0.393238
  H       0.640140     -4.312732     -0.531461
  H       1.973746     -3.334296     -1.219752
  H       2.504663     -2.447364      1.084766
  H       2.592917     -4.228412      1.065993
  H       1.175092     -3.407539      1.765759
>
35
-1259.27306933; 31P isotropic shielding: 111.821671 ppm
  C      -3.618302      2.541950      0.688747
  C      -3.716192      1.442203     -0.362986
  O      -3.639304      0.118601      0.255721
  P      -2.292800     -0.788215      0.434071
  O      -1.606066     -0.658959     -1.110722
  C      -0.304785     -0.069746     -1.114003
  C      -0.273992      0.862983      0.149701
  O      -1.133412      0.232691      1.106918
  C       1.130328      1.018138      0.742774
  O       1.655551      0.220952      1.490339
  O       1.695583      2.156952      0.267766
  C       3.109724      2.378968      0.617310
  C       4.026319      1.709968     -0.398457
  C       0.830760     -1.103918     -1.069593
  O       1.927994     -0.883837     -1.551857
  O       0.477104     -2.206651     -0.386977
  C       1.548351     -3.176008     -0.117571
  C       0.962946     -4.250249      0.781367
  H      -2.648706      2.520809      1.198761
  H      -3.743622      3.524656      0.212957
  H      -4.404592      2.422142      1.443941
  H      -2.933913      1.530625     -1.127859
  H      -4.687474      1.467754     -0.871539
  H      -0.179490      0.519503     -2.028672
  H      -0.662971      1.852553     -0.125299
  H       3.212390      3.468961      0.609799
  H       3.276147      1.999055      1.630621
  H       5.072302      1.926041     -0.140746
  H       3.833992      2.089572     -1.409148
  H       3.883253      0.624704     -0.404193
  H       1.898421     -3.573514     -1.078225
  H       2.374866     -2.635870      0.358162
  H       0.123109     -4.760489      0.294146
  H       0.609673     -3.816934      1.724501
  H       1.734711     -4.996888      1.010544
>
35
-1259.27251188; 31P isotropic shielding: 106.502209 ppm
  C      -4.513118      1.555793     -0.984212
  C      -3.962510      0.537144      0.005462
  O      -3.237561      1.218769      1.079538
  P      -1.618060      1.310435      1.248244
  O      -1.056643     -0.277728      1.193059
  C      -0.568143     -0.695639     -0.086005
  C      -0.218311      0.630841     -0.852884
  O      -1.142401      1.598722     -0.357469
  C       1.255536      1.023827     -0.655503
  O       2.143366      0.540372     -1.335692
  O       1.414962      1.896953      0.356493
  C       2.798797      2.238700      0.726893
  C       3.322420      1.265105      1.773867
  C       0.639207     -1.620590      0.089691
  O       1.425063     -1.569138      1.011329
  O       0.709502     -2.465252     -0.969531
  C       1.901125     -3.325910     -1.034336
  C       1.702234     -4.600482     -0.223739
  H      -5.151493      2.284304     -0.469667
  H      -3.696295      2.093622     -1.478431
  H      -5.116249      1.048290     -1.750149
  H      -3.302278     -0.184193     -0.490831
  H      -4.766870     -0.020286      0.500678
  H      -1.350786     -1.231177     -0.640309
  H      -0.378378      0.500344     -1.928516
  H       3.410266      2.232986     -0.181475
  H       2.719851      3.259193      1.115087
  H       4.333573      1.569180      2.077833
  H       3.365784      0.245892      1.377085
  H       2.678194      1.262835      2.660826
  H       2.012782     -3.533779     -2.103141
  H       2.760290     -2.746958     -0.680781
  H       0.810746     -5.143738     -0.561167
  H       1.599909     -4.373333      0.842960
  H       2.573387     -5.256803     -0.354507
>
35
-1259.27171477; 31P isotropic shielding: 104.483100 ppm
  C      -4.969276      2.149424     -0.277784
  C      -3.542151      1.636108     -0.160464
  O      -3.588307      0.262250      0.337905
  P      -2.312527     -0.753950      0.438440
  O      -1.624581     -0.567861     -1.100843
  C      -0.287558     -0.066726     -1.065848
  C      -0.214579      0.795838      0.242077
  O      -1.088424      0.139422      1.170997
  C       1.195605      0.889730      0.830346
  O       1.687274      0.078987      1.585382
  O       1.805794      2.001481      0.345869
  C       3.226325      2.174070      0.695348
  C       4.120058      1.488406     -0.329412
  C       0.781754     -1.171744     -1.073196
  O       1.918428     -0.959238     -1.458161
  O       0.314709     -2.330800     -0.574672
  C       1.288661     -3.421560     -0.399653
  C       1.903453     -3.361041      0.991985
  H      -5.544024      1.536918     -0.982963
  H      -5.472600      2.123064      0.696218
  H      -4.966172      3.186540     -0.639940
  H      -2.959667      2.239667      0.549533
  H      -3.034400      1.641405     -1.134046
  H      -0.116078      0.560718     -1.947222
  H      -0.580821      1.806647      0.018549
  H       3.364292      3.260323      0.700033
  H       3.382327      1.778040      1.704096
  H       5.172459      1.671624     -0.072399
  H       3.935926      1.883093     -1.335813
  H       3.944308      0.408202     -0.346109
  H       0.694608     -4.328933     -0.548902
  H       2.044389     -3.338841     -1.187582
  H       2.581883     -4.214911      1.125661
  H       1.126227     -3.410187      1.763566
  H       2.469582     -2.434865      1.133505
>
35
-1259.27305433; 31P isotropic shielding: 111.765880 ppm
  C      -3.402358      2.702972      0.771614
  C      -3.622461      1.605818     -0.264253
  O      -3.634449      0.288082      0.371155
  P      -2.366017     -0.732196      0.502519
  O      -1.752412     -0.691014     -1.078260
  C      -0.403360     -0.229122     -1.152438
  C      -0.238198      0.735005      0.074846
  O      -1.085752      0.192660      1.093572
  C       1.204063      0.821607      0.579366
  O       1.695344      0.090624      1.412170
  O       1.847160      1.810950     -0.090303
  C       3.292661      1.928436      0.156950
  C       3.572579      2.787056      1.383753
  C       0.639705     -1.358575     -1.119532
  O       1.765718     -1.201134     -1.557888
  O       0.167085     -2.467278     -0.520254
  C       1.126633     -3.563078     -0.300307
  C       1.798613     -3.409657      1.057259
  H      -3.457519      3.689000      0.289524
  H      -4.173811      2.655986      1.549667
  H      -2.423473      2.602900      1.254378
  H      -2.858737      1.621675     -1.052062
  H      -4.603177      1.705513     -0.744793
  H      -0.262188      0.319550     -2.089887
  H      -0.576507      1.739295     -0.215353
  H       3.704219      0.919440      0.261922
  H       3.675509      2.387476     -0.759991
  H       3.188952      2.308890      2.291602
  H       3.114642      3.778777      1.280617
  H       4.657077      2.920802      1.496771
  H       0.510011     -4.465870     -0.356387
  H       1.851221     -3.555910     -1.121001
  H       2.470411     -4.262204      1.227981
  H       1.053285     -3.388180      1.860983
  H       2.383530     -2.485497      1.105162
>
35
-1259.27191761; 31P isotropic shielding: 107.181364 ppm
  C      -4.763926      0.915777      0.896083
  C      -4.228560      1.945356     -0.094132
  O      -3.000654      1.475519     -0.723594
  P      -1.555839      1.990544     -0.092023
  O      -1.008936      0.654608      0.751176
  C      -0.524744     -0.356798     -0.151205
  C       0.147655      0.449271     -1.315659
  O      -0.631965      1.648047     -1.441265
  C       1.630772      0.726617     -1.028790
  O       2.491636     -0.097803     -1.285474
  O       1.825338      1.920945     -0.441787
  C       3.194142      2.221582      0.008561
  C       3.386856      1.760141      1.446978
  C       0.437775     -1.291151      0.582351
  O       1.147805     -0.966528      1.509763
  O       0.386812     -2.519663      0.007835
  C       1.363685     -3.510844      0.489501
  C       2.646034     -3.439248     -0.328510
  H      -4.927922     -0.048511      0.399183
  H      -4.058820      0.762273      1.722464
  H      -5.720937      1.257050      1.314768
  H      -4.042111      2.910258      0.403607
  H      -4.936571      2.116097     -0.914398
  H      -1.363440     -0.933428     -0.561256
  H       0.090074     -0.114981     -2.252048
  H       3.898395      1.737833     -0.676141
  H       3.269588      3.309446     -0.089370
  H       4.394231      2.038317      1.786303
  H       3.273747      0.674451      1.531015
  H       2.653363      2.234516      2.109549
  H       1.545638     -3.325888      1.553091
  H       0.848682     -4.469076      0.364138
  H       3.130102     -2.463434     -0.219255
  H       2.440619     -3.604557     -1.392957
  H       3.339877     -4.218640      0.015600
>
35
-1259.27155155; 31P isotropic shielding: 82.226892 ppm
  C      -4.428309      1.423680     -1.221718
  C      -3.633385      1.714577      0.044968
  O      -3.500938      0.499603      0.849478
  P      -2.168606     -0.432122      0.980189
  O      -1.644747     -0.473885     -0.636386
  C      -0.310441      0.001404     -0.810842
  C      -0.094274      1.052407      0.337826
  O      -0.920833      0.610407      1.420943
  C       1.363680      1.141341      0.801459
  O       1.884105      0.385898      1.593741
  O       1.976586      2.168471      0.158893
  C       3.426217      2.305090      0.381412
  C       4.207275      1.440396     -0.599116
  C       0.747209     -1.113097     -0.761821
  O       1.817068     -1.011958     -1.336523
  O       0.362418     -2.137066      0.021585
  C       1.353066     -3.199514      0.252003
  C       1.304356     -4.241522     -0.857737
  H      -4.584470      2.352136     -1.788826
  H      -3.894162      0.708731     -1.857635
  H      -5.410086      1.003738     -0.971053
  H      -4.149630      2.438696      0.687051
  H      -2.640406      2.116112     -0.191214
  H      -0.228874      0.486039     -1.789534
  H      -0.421358      2.039485     -0.014821
  H       3.613544      3.372861      0.227849
  H       3.640132      2.038335      1.421630
  H       3.986921      0.378604     -0.450311
  H       5.283372      1.601900     -0.447114
  H       3.960394      1.702381     -1.634870
  H       2.340202     -2.733614      0.334878
  H       1.059930     -3.616605      1.220143
  H       0.294848     -4.658891     -0.957429
  H       1.994010     -5.062564     -0.618980
  H       1.607587     -3.806554     -1.816519
>
35
-1259.27150806; 31P isotropic shielding: 103.362779 ppm
  C      -5.203449      2.291547     -0.174483
  C      -4.295890      1.485823      0.745746
  O      -3.062683      1.154189      0.043908
  P      -1.617641      1.553827      0.750992
  O      -0.976141      0.069161      1.169786
  C      -0.467346     -0.618676      0.012894
  C       0.118804      0.519570     -0.890990
  O      -0.733545      1.651501     -0.665590
  C       1.591685      0.801922     -0.559902
  O       2.490986      0.143565     -1.054343
  O       1.734910      1.790791      0.340727
  C       3.098253      2.040513      0.836982
  C       3.367378      1.204248      2.081016
  C       0.570623     -1.657431      0.439073
  O       1.289317     -1.562871      1.410724
  O       0.574192     -2.674552     -0.459766
  C       1.621324     -3.696036     -0.290191
  C       2.880241     -3.305868     -1.052972
  H      -4.737679      3.248816     -0.439763
  H      -5.405453      1.737495     -1.099517
  H      -6.161107      2.496182      0.323789
  H      -4.766059      0.538288      1.041914
  H      -4.062552      2.049154      1.663246
  H      -1.285898     -1.111653     -0.526970
  H       0.065083      0.234572     -1.946649
  H       3.805721      1.817131      0.031810
  H       3.106947      3.114007      1.051925
  H       2.631252      1.421924      2.863880
  H       4.367937      1.441218      2.468283
  H       3.320985      0.134309      1.854093
  H       1.812788     -3.817879      0.780884
  H       1.164627     -4.607728     -0.689369
  H       3.305314     -2.375331     -0.663505
  H       2.663886     -3.165671     -2.118801
  H       3.627293     -4.105357     -0.952964
>
35
-1259.27150017; 31P isotropic shielding: 85.076938 ppm
  C      -3.630237      2.669144      0.425074
  C      -3.696850      1.430567     -0.461708
  O      -3.656461      0.211329      0.345257
  P      -2.330713     -0.677788      0.690576
  O      -1.614334     -0.802369     -0.841583
  C      -0.307429     -0.230938     -0.912948
  C      -0.288820      0.888026      0.187960
  O      -1.163862      0.415944      1.219910
  C       1.106993      1.138452      0.767422
  O       1.617471      0.482276      1.649168
  O       1.682620      2.179179      0.111967
  C       3.090428      2.460588      0.441994
  C       4.024057      1.628892     -0.427333
  C       0.818716     -1.254178     -0.696951
  O       1.933174     -1.090607     -1.162518
  O       0.430867     -2.273288      0.090546
  C       1.467307     -3.248931      0.461257
  C       1.614148     -4.322961     -0.608668
  H      -3.729347      3.574565     -0.189808
  H      -4.445556      2.659649      1.158540
  H      -2.680637      2.718142      0.969974
  H      -2.884015      1.405577     -1.198738
  H      -4.646881      1.385893     -1.007778
  H      -0.163096      0.209386     -1.905505
  H      -0.673001      1.821251     -0.245322
  H       3.194285      3.533270      0.248586
  H       3.239129      2.261268      1.508306
  H       3.885644      0.558874     -0.242562
  H       5.065328      1.894408     -0.198422
  H       3.843482      1.821776     -1.491614
  H       2.403059     -2.705937      0.628803
  H       1.104582     -3.659877      1.408227
  H       2.335275     -5.079448     -0.270429
  H       1.982394     -3.893036     -1.546686
  H       0.655278     -4.821798     -0.795794
>
35
-1259.27184415; 31P isotropic shielding: 107.000897 ppm
  C      -4.455590      1.456279     -1.150240
  C      -3.635082      1.772587      0.093869
  O      -3.505847      0.580313      0.931841
  P      -2.185065     -0.367365      1.067016
  O      -1.691809     -0.466402     -0.556674
  C      -0.355737     -0.012931     -0.771173
  C      -0.104313      1.068438      0.341596
  O      -0.914177      0.668513      1.453250
  C       1.363924      1.153070      0.772159
  O       1.891606      0.418126      1.578680
  O       1.975846      2.148739      0.080752
  C       3.431454      2.274679      0.266871
  C       4.180418      1.374345     -0.706564
  C       0.688891     -1.138946     -0.709397
  O       1.747801     -1.069398     -1.308530
  O       0.307866     -2.133171      0.113315
  C       1.289367     -3.201638      0.354824
  C       1.202249     -4.276607     -0.720563
  H      -3.943095      0.714167     -1.772682
  H      -5.439381      1.059657     -0.871138
  H      -4.606830      2.369696     -1.742515
  H      -4.129793      2.522974      0.722617
  H      -2.640731      2.152274     -0.170823
  H      -0.287862      0.441754     -1.765159
  H      -0.426757      2.048697     -0.033583
  H       3.627145      3.335560      0.079483
  H       3.666530      2.034366      1.308962
  H       3.952395      0.319573     -0.523302
  H       5.261366      1.527889     -0.583465
  H       3.912772      1.610221     -1.743430
  H       2.284158     -2.747233      0.402101
  H       1.012212     -3.584982      1.341464
  H       0.185524     -4.683271     -0.784622
  H       1.886490     -5.099041     -0.471259
  H       1.489358     -3.876029     -1.699082
>
35
-1259.27152095; 31P isotropic shielding: 103.383220 ppm
  C      -5.574844      1.157587     -0.261092
  C      -4.454083      0.969263      0.753008
  O      -3.189403      0.791805      0.051384
  P      -2.264493     -0.536852      0.405755
  O      -1.492185     -0.633785     -1.074991
  C      -0.139220     -0.157111     -1.051083
  C      -0.047296      0.745900      0.226586
  O      -0.934093      0.120927      1.171894
  C       1.361502      0.833230      0.814740
  O       1.833460      0.044464      1.605110
  O       1.996788      1.910143      0.286631
  C       3.419925      2.065423      0.632040
  C       4.299382      1.323751     -0.365884
  C       0.895949     -1.291462     -1.020259
  O       2.041905     -1.116057     -1.397892
  O       0.397028     -2.428372     -0.502724
  C       1.348072     -3.534116     -0.301276
  C       1.982194     -3.441157      1.080035
  H      -6.524625      1.349792      0.256780
  H      -5.360268      2.008214     -0.919630
  H      -5.692138      0.260615     -0.881756
  H      -4.647199      0.097995      1.398818
  H      -4.346685      1.851381      1.398742
  H       0.047877      0.436778     -1.951605
  H      -0.407840      1.751316     -0.025494
  H       3.581119      3.147921      0.597400
  H       3.566793      1.702870      1.654652
  H       4.098463      0.248021     -0.344767
  H       5.355478      1.491637     -0.113494
  H       4.125482      1.686777     -1.385925
  H       0.731656     -4.432035     -0.412516
  H       2.096149     -3.496409     -1.099953
  H       1.214282     -3.447463      1.862458
  H       2.569933     -2.523354      1.182919
  H       2.644333     -4.304335      1.234292
>
35
-1259.27149388; 31P isotropic shielding: 84.950248 ppm
  C      -4.492487      1.369390     -1.172921
  C      -3.981723      0.592357      0.033671
  O      -3.234130      1.478260      0.927590
  P      -1.612659      1.561114      1.075695
  O      -1.095928     -0.017137      1.364087
  C      -0.618605     -0.712045      0.208578
  C      -0.240391      0.408471     -0.828394
  O      -1.133675      1.485668     -0.553717
  C       1.245359      0.791673     -0.721864
  O       2.115119      0.147088     -1.282038
  O       1.436690      1.855285      0.079933
  C       2.831977      2.229386      0.367470
  C       3.331884      1.495962      1.604461
  C       0.573859     -1.599194      0.576825
  O       1.344849     -1.391313      1.488562
  O       0.658075     -2.618004     -0.313539
  C       1.870253     -3.444630     -0.225546
  C       1.838447     -4.418260     -1.390305
  H      -5.109585      0.716611     -1.806241
  H      -5.107692      2.218338     -0.850716
  H      -3.655962      1.749855     -1.769747
  H      -3.348644     -0.249343     -0.272556
  H      -4.807528      0.195522      0.636600
  H      -1.412840     -1.338372     -0.220074
  H      -0.411877      0.051970     -1.849730
  H       3.437656      2.004618     -0.516617
  H       2.785304      3.312364      0.520120
  H       2.695398      1.711941      2.470416
  H       4.354781      1.826085      1.832489
  H       3.339552      0.413081      1.444375
  H       2.736648     -2.774542     -0.264599
  H       1.867857     -3.952969      0.746506
  H       1.835302     -3.882497     -2.347164
  H       0.951260     -5.062128     -1.345392
  H       2.729454     -5.058902     -1.357117
>
35
-1259.27222479; 31P isotropic shielding: 103.599629 ppm
  C      -3.473451      2.684756      0.689474
  C      -3.602162      1.641681     -0.415343
  O      -3.688184      0.294650      0.148930
  P      -2.447885     -0.747556      0.357017
  O      -1.668370     -0.628731     -1.144732
  C      -0.322507     -0.161319     -1.054744
  C      -0.285385      0.724319      0.241284
  O      -1.232361      0.126189      1.131851
  C       1.100190      0.768849      0.889413
  O       1.499391      0.007303      1.743214
  O       1.822345      1.762188      0.314520
  C       3.246520      1.807146      0.675442
  C       3.887099      2.908270     -0.151197
  C       0.720973     -1.289061     -0.989285
  O       1.884883     -1.101490     -1.299537
  O       0.200906     -2.435082     -0.513597
  C       1.144514     -3.540349     -0.271696
  C       1.707354     -3.456006      1.140601
  H      -4.319197      2.615004      1.384204
  H      -2.549384      2.545287      1.261952
  H      -3.467541      3.693148      0.252721
  H      -2.765293      1.684268     -1.124143
  H      -4.530385      1.778276     -0.983131
  H      -0.092227      0.445811     -1.936923
  H      -0.591453      1.746828     -0.019967
  H       3.321284      1.994450      1.753580
  H       3.676397      0.821390      0.463709
  H       4.955320      2.975565      0.093052
  H       3.424970      3.880908      0.058598
  H       3.791785      2.698193     -1.223309
  H       0.536834     -4.438513     -0.420956
  H       1.931465     -3.493581     -1.031531
  H       2.364464     -4.318062      1.320516
  H       0.901302     -3.472342      1.883427
  H       2.286190     -2.537488      1.280785
>
35
-1259.27249816; 31P isotropic shielding: 107.280602 ppm
  C      -3.464229      2.688388      0.667926
  C      -3.600689      1.632781     -0.424155
  O      -3.686947      0.292519      0.155629
  P      -2.448364     -0.750032      0.370703
  O      -1.674005     -0.650026     -1.135075
  C      -0.327527     -0.182657     -1.056088
  C      -0.283889      0.716516      0.230482
  O      -1.227837      0.129039      1.131216
  C       1.104653      0.765729      0.871999
  O       1.506431      0.012745      1.732190
  O       1.825936      1.751383      0.282865
  C       3.251967      1.797481      0.636150
  C       3.889826      2.890488     -0.203303
  C       0.715318     -1.310611     -0.983341
  O       1.877794     -1.127988     -1.301875
  O       0.196405     -2.450213     -0.491396
  C       1.139251     -3.554009     -0.240342
  C       1.702638     -3.457346      1.170943
  H      -2.537808      2.553636      1.237719
  H      -3.458008      3.691556      0.219280
  H      -4.306927      2.628848      1.367310
  H      -2.767295      1.665504     -1.137588
  H      -4.531431      1.765355     -0.988764
  H      -0.100707      0.415344     -1.945375
  H      -0.589498      1.736714     -0.040173
  H       3.332697      1.993928      1.712213
  H       3.679284      0.809320      0.430420
  H       3.788047      2.671533     -1.273061
  H       4.959546      2.957877      0.034288
  H       3.430621      3.865718      0.000880
  H       0.530950     -4.453082     -0.381486
  H       1.925897     -3.514329     -1.000905
  H       2.280340     -2.536868      1.302964
  H       2.361105     -4.316903      1.357763
  H       0.897057     -3.468539      1.914389
>
35
-1259.27248914; 31P isotropic shielding: 107.402310 ppm
  C      -4.962992      2.095820     -0.061204
  C      -3.519278      1.621767      0.007695
  O      -3.506066      0.266575      0.556688
  P      -2.197210     -0.709273      0.630314
  O      -1.593761     -0.570185     -0.947895
  C      -0.279242     -0.014541     -1.012308
  C      -0.148747      0.883041      0.270196
  O      -0.968151      0.250231      1.262082
  C       1.292057      0.984522      0.780924
  O       1.837044      0.157064      1.479775
  O       1.862436      2.115737      0.293421
  C       3.301394      2.288065      0.560210
  C       4.134077      1.614018     -0.522136
  C       0.827021     -1.079946     -1.060075
  O       1.900390     -0.877600     -1.600202
  O       0.481874     -2.190257     -0.385218
  C       1.539275     -3.194085     -0.201107
  C       0.974685     -4.277695      0.699918
  H      -5.003053      3.118226     -0.461064
  H      -5.553628      1.443589     -0.715844
  H      -5.420565      2.094720      0.935490
  H      -2.920083      2.265105      0.666982
  H      -3.057675      1.603777     -0.988587
  H      -0.190614      0.595814     -1.917388
  H      -0.527960      1.888084      0.043406
  H       3.437056      3.374474      0.567468
  H       3.516505      1.882077      1.553993
  H       5.199695      1.793873     -0.323866
  H       3.893375      2.020527     -1.511762
  H       3.957647      0.533860     -0.540594
  H       1.825809     -3.573664     -1.189657
  H       2.404884     -2.688965      0.242538
  H       1.737255     -5.049910      0.866473
  H       0.096241     -4.752426      0.246030
  H       0.684804     -3.862218      1.672203
