47
-1459.66297760; 31P isotropic shielding: 268.200195 ppm
  C       2.143340     -2.028025      1.846260
  N       2.124509     -0.612536      1.469199
  P       2.480941     -0.057771     -0.056738
  N       1.652830      1.281442     -0.583326
  N       0.425234      1.716804     -0.465660
  C      -0.641638      1.107747      0.038712
  C      -0.943387     -0.302642      0.364576
  O      -0.315666     -1.337606      0.146469
  N      -2.234993     -0.304695      0.960537
  N      -2.833291      1.070222      0.843492
  C      -1.902936      1.897902      0.116251
  O      -2.187293      3.004430     -0.298405
  C      -4.005678      0.448644      0.261176
  C      -3.453716     -0.830484      0.373688
  C      -4.121767     -1.987978      0.034952
  C      -5.423972     -1.762737     -0.470714
  C      -5.977791     -0.476527     -0.588216
  C      -5.278624      0.693260     -0.208971
  N       4.086153      0.432707      0.018811
  C       4.661734      1.063242     -1.183302
  C       4.674501      0.932508      1.267929
  N       2.523966     -1.221053     -1.233100
  C       3.600659     -2.211580     -1.353298
  C       1.443526     -1.374647     -2.219376
  C       1.555869      0.289859      2.476651
  H       2.500498     -2.641586      1.017473
  H       1.130912     -2.366661      2.104500
  H       2.809125     -2.185197      2.710020
  H      -3.699011     -2.984320      0.128474
  H      -6.020972     -2.619150     -0.777992
  H      -6.986160     -0.376532     -0.985160
  H      -5.711096      1.685559     -0.299806
  H       4.499322      2.151507     -1.186185
  H       4.199790      0.648408     -2.082929
  H       5.741940      0.861089     -1.214483
  H       5.765296      0.813245      1.215365
  H       4.306851      0.353487      2.117472
  H       4.454817      2.000346      1.436488
  H       4.388688     -2.006769     -0.624751
  H       4.039770     -2.168975     -2.362038
  H       3.216165     -3.230926     -1.192059
  H       0.788369     -0.503141     -2.207564
  H       0.838669     -2.266979     -2.015333
  H       1.894216     -1.458348     -3.219564
  H       1.525494      1.316830      2.101149
  H       0.532329     -0.015554      2.739075
  H       2.167276      0.276983      3.392752
>
47
-1459.66617808; 31P isotropic shielding: 256.233252 ppm
  C       1.596577     -0.088742      2.689439
  N       2.567283     -0.509894      1.668948
  P       2.475657      0.024512      0.098066
  N       1.682571      1.474207     -0.048724
  N       0.433665      1.867012     -0.059308
  C      -0.678422      1.191851      0.202563
  C      -0.966704     -0.203732      0.598519
  O      -0.256381     -1.207585      0.622374
  N      -2.333205     -0.228935      0.994158
  N      -2.965919      1.089810      0.656152
  C      -1.969829      1.921708      0.038763
  O      -2.227534      2.980032     -0.501118
  C      -4.002780      0.355332     -0.037822
  C      -3.419816     -0.875292      0.279692
  C      -3.976612     -2.094813     -0.041547
  C      -5.193283     -1.990831     -0.756582
  C      -5.778036     -0.754255     -1.078897
  C      -5.198160      0.483084     -0.713353
  N       4.087208      0.350373     -0.241051
  C       4.787717      1.312599      0.630504
  C       4.539114      0.437940     -1.639767
  N       2.056309     -1.090914     -1.066800
  C       2.249360     -2.527856     -0.839005
  C       1.080581     -0.764419     -2.115953
  C       3.567224     -1.471639      2.148190
  H       0.914503     -0.905025      2.959804
  H       1.008273      0.758935      2.334813
  H       2.146856      0.233559      3.586370
  H      -3.531610     -3.052789      0.212384
  H      -5.697970     -2.904145     -1.065416
  H      -6.717229     -0.748308     -1.628637
  H      -5.656233      1.436640     -0.959977
  H       4.428310      1.225544      1.658635
  H       4.626455      2.348597      0.294489
  H       5.864928      1.096694      0.613321
  H       4.325377      1.426954     -2.077428
  H       4.049139     -0.331124     -2.239842
  H       5.624506      0.272101     -1.671197
  H       2.414014     -3.023721     -1.806061
  H       1.371389     -2.975369     -0.350486
  H       3.133324     -2.708001     -0.221167
  H       0.096400     -1.199042     -1.893853
  H       1.438420     -1.165557     -3.075920
  H       0.976151      0.318494     -2.217020
  H       4.064069     -1.074267      3.046738
  H       3.099130     -2.432777      2.411481
  H       4.329414     -1.640149      1.383528
>
47
-1459.66435600; 31P isotropic shielding: 259.121807 ppm
  C       0.965326     -0.067264      2.280579
  N       1.988752     -0.696961      1.434974
  P       2.478313      0.003353      0.004348
  N       1.692589      1.422185     -0.346848
  N       0.447036      1.787440     -0.518436
  C      -0.655764      1.055074     -0.610701
  C      -0.935778     -0.396914     -0.569241
  O      -0.233008     -1.354302     -0.249631
  N      -2.283306     -0.552766     -0.999486
  N      -2.921340      0.801242     -1.114492
  C      -1.948013      1.790239     -0.740362
  O      -2.222164      2.961814     -0.566139
  C      -3.992212      0.310552     -0.272659
  C      -3.404500     -0.953924     -0.168205
  C      -3.982233     -2.017527      0.491765
  C      -5.227291     -1.705380      1.087271
  C      -5.817044     -0.433857      0.985356
  C      -5.214167      0.633170      0.279107
  N       4.073927      0.426838      0.307166
  C       4.829939      1.070799     -0.783545
  C       4.458157      0.945961      1.630322
  N       2.644211     -0.991578     -1.316529
  C       3.655111     -2.050847     -1.419419
  C       1.730517     -0.915315     -2.465744
  C       2.181190     -2.131407      1.678191
  H       0.856621      0.989927      2.027268
  H       1.276313     -0.137212      3.333738
  H      -0.007688     -0.563863      2.164468
  H      -3.533105     -3.003901      0.566501
  H      -5.750471     -2.481406      1.642504
  H      -6.778562     -0.264299      1.466052
  H      -5.675643      1.613257      0.199196
  H       4.524302      0.662903     -1.749990
  H       5.902288      0.877239     -0.642079
  H       4.663425      2.159035     -0.798745
  H       4.239553      2.022202      1.727246
  H       5.537947      0.798123      1.767330
  H       3.927256      0.402820      2.414357
  H       4.205657     -1.948701     -2.367405
  H       3.188315     -3.047749     -1.398624
  H       4.372165     -1.972637     -0.598563
  H       1.055459     -1.779912     -2.502678
  H       2.328899     -0.885112     -3.388853
  H       1.133608     -0.003013     -2.423770
  H       1.324789     -2.715631      1.310590
  H       3.093544     -2.489167      1.193333
  H       2.292381     -2.298626      2.758879
>
47
-1459.66435932; 31P isotropic shielding: 259.026095 ppm
  C       2.028917     -0.467329      3.119968
  N       2.772076     -0.650739      1.864092
  P       2.341455      0.069554      0.438072
  N       1.656851      1.548211      0.735965
  N       0.468959      2.033124      0.501824
  C      -0.680615      1.353017      0.450134
  C      -1.056376      0.049294      1.006867
  O      -0.379276     -0.871562      1.461524
  N      -2.490036      0.031070      1.058290
  N      -3.005425      1.246530      0.343670
  C      -1.879613      2.027223     -0.096193
  O      -1.985019      3.001036     -0.821393
  C      -3.791161      0.363763     -0.491435
  C      -3.317312     -0.771738      0.172227
  C      -3.752695     -2.053013     -0.092326
  C      -4.713863     -2.122624     -1.129022
  C      -5.189142     -0.981515     -1.797577
  C      -4.745635      0.325343     -1.486556
  N       3.751707      0.510348     -0.352391
  C       4.579865      1.606663      0.172201
  C       4.407057     -0.275417     -1.398204
  N       1.631468     -0.978384     -0.639380
  C       1.108858     -0.455068     -1.909723
  C       1.270742     -2.364811     -0.339097
  C       3.894008     -1.593151      1.939762
  H       1.424214     -1.349855      3.367155
  H       1.362793      0.392039      3.038538
  H       2.751989     -0.281320      3.927550
  H      -3.398119     -2.936844      0.430927
  H      -5.105043     -3.097116     -1.414892
  H      -5.933545     -1.107859     -2.581378
  H      -5.122333      1.205943     -1.999202
  H       4.880975      2.271272     -0.650393
  H       5.491921      1.212700      0.651421
  H       4.008995      2.192706      0.894225
  H       3.789140     -1.127738     -1.685806
  H       5.383787     -0.653478     -1.051179
  H       4.585940      0.346985     -2.288406
  H       1.524757     -1.017739     -2.760025
  H       1.375689      0.599362     -2.029288
  H       0.012899     -0.538357     -1.939902
  H       1.768421     -3.044059     -1.050605
  H       0.184933     -2.506256     -0.408739
  H       1.572688     -2.625530      0.676206
  H       3.546350     -2.611787      2.173537
  H       4.435406     -1.625780      0.990735
  H       4.595648     -1.281111      2.727823
>
47
-1459.66401933; 31P isotropic shielding: 255.969905 ppm
  C       2.144424     -2.274947      1.612902
  N       1.997182     -0.824643      1.444141
  P       2.509546     -0.066590      0.051165
  N       1.762680      1.387205     -0.234021
  N       0.528510      1.797002     -0.384331
  C      -0.595458      1.102204     -0.507978
  C      -0.915562     -0.341452     -0.540297
  O      -0.238175     -1.333345     -0.275889
  N      -2.269097     -0.437302     -0.970234
  N      -2.869132      0.938087     -1.011292
  C      -1.866636      1.879036     -0.593007
  O      -2.106938      3.047291     -0.357610
  C      -3.949419      0.434739     -0.189170
  C      -3.397091     -0.849279     -0.153547
  C      -4.001587     -1.928748      0.454678
  C      -5.234472     -1.612852      1.073178
  C      -5.788599     -0.321909      1.040284
  C      -5.159121      0.762673      0.385929
  N       4.113965      0.303641      0.379556
  C       4.888183      0.984612     -0.675568
  C       4.501184      0.752611      1.727506
  N       2.657543     -1.000164     -1.315773
  C       3.649566     -2.071262     -1.469170
  C       1.746060     -0.851575     -2.459585
  C       0.991810     -0.206980      2.319806
  H       1.266870     -2.811990      1.223916
  H       2.258288     -2.500656      2.682733
  H       3.040747     -2.636721      1.102038
  H      -3.580596     -2.930016      0.475987
  H      -5.776652     -2.401555      1.591082
  H      -6.742678     -0.150671      1.535012
  H      -5.592963      1.758158      0.358679
  H       4.581131      0.629000     -1.662024
  H       5.955792      0.764281     -0.537730
  H       4.741980      2.075298     -0.639775
  H       5.577071      0.577487      1.862624
  H       3.955541      0.183635      2.482572
  H       4.302645      1.827243      1.873155
  H       4.367005     -2.043050     -0.645574
  H       4.202134     -1.934523     -2.411632
  H       3.165640     -3.059865     -1.494988
  H       2.345336     -0.783952     -3.380193
  H       1.163531      0.066516     -2.370722
  H       1.057797     -1.702672     -2.539775
  H       1.293547     -0.348135      3.368441
  H       0.924172      0.866211      2.126399
  H       0.001697     -0.659177      2.171505
>
47
-1459.66433877; 31P isotropic shielding: 258.982277 ppm
  C       1.643327     -1.529736      2.401437
  N       2.782783     -0.936682      1.670979
  P       2.471789     -0.069192      0.275572
  N       1.454063      1.170418      0.597925
  N       0.276114      1.634209      0.322827
  C      -0.738774      0.996559     -0.257368
  C      -1.039618     -0.434371     -0.424342
  O      -0.475079     -1.438991      0.012750
  N      -2.260096     -0.504144     -1.150937
  N      -2.828324      0.883287     -1.287273
  C      -1.958997      1.786470     -0.568176
  O      -2.255844      2.942249     -0.335587
  C      -4.070434      0.363848     -0.748629
  C      -3.546277     -0.925355     -0.625832
  C      -4.276966     -2.014469     -0.200451
  C      -5.616341     -1.702445      0.132462
  C      -6.142725     -0.404942      0.013457
  C      -5.376337      0.690083     -0.449845
  N       3.852998      0.761252     -0.173419
  C       4.975243      0.068589     -0.815848
  C       4.189379      2.117771      0.288153
  N       2.257827     -1.185876     -0.937275
  C       1.751974     -0.702210     -2.228335
  C       2.274922     -2.642512     -0.782399
  C       3.896663     -0.552285      2.551249
  H       1.277557     -0.843369      3.182000
  H       1.970387     -2.463454      2.879519
  H       0.821783     -1.741932      1.714469
  H      -3.874798     -3.019590     -0.110310
  H      -6.264857     -2.498912      0.492177
  H      -7.182568     -0.236095      0.286752
  H      -5.786739      1.691650     -0.541162
  H       5.335364      0.660111     -1.670165
  H       4.663102     -0.913575     -1.176414
  H       5.819088     -0.063989     -0.117244
  H       5.020256      2.091539      1.013059
  H       3.316326      2.578675      0.749808
  H       4.505526      2.727072     -0.570850
  H       0.756932     -1.116976     -2.439160
  H       2.436877     -0.997543     -3.038192
  H       1.677662      0.390618     -2.226224
  H       1.255148     -3.050194     -0.802169
  H       2.751966     -2.909397      0.162986
  H       2.856806     -3.087721     -1.604640
  H       4.746695     -0.191493      1.969116
  H       3.601013      0.228316      3.271397
  H       4.219507     -1.437568      3.116252
>
47
-1459.66469375; 31P isotropic shielding: 262.024343 ppm
  C       3.730823     -2.752908     -0.898581
  N       2.667854     -2.086971     -0.130648
  P       2.433482     -0.437247     -0.260489
  N       1.337885     -0.120712     -1.434991
  N       0.173500      0.413365     -1.630802
  C      -0.754007      0.703487     -0.720111
  C      -0.977705      0.211581      0.648437
  O      -0.418474     -0.678384      1.292222
  N      -2.116473      0.905319      1.141656
  N      -2.726638      1.703244      0.020176
  C      -1.970452      1.423226     -1.179714
  O      -2.337078      1.768996     -2.286068
  C      -3.992693      1.071654      0.338991
  C      -3.429001      0.334289      1.383142
  C      -4.150554     -0.493735      2.216524
  C      -5.528411     -0.553730      1.900407
  C      -6.095364      0.184355      0.847602
  C      -5.334571      1.045832      0.022856
  N       2.363890      0.160200      1.289451
  C       1.957855      1.560393      1.465190
  C       2.409853     -0.633445      2.520372
  N       3.807606      0.267227     -0.904144
  C       5.000397      0.498970     -0.082330
  C       4.050618      0.430404     -2.346674
  C       1.491762     -2.949773      0.106070
  H       4.612223     -2.113941     -0.980014
  H       3.395733     -3.028102     -1.912224
  H       4.021936     -3.671503     -0.370866
  H      -3.716138     -1.063635      3.033033
  H      -6.174571     -1.194615      2.497120
  H      -7.163357      0.090875      0.660190
  H      -5.777167      1.615008     -0.789612
  H       0.995704      1.626604      1.991189
  H       1.856237      2.055689      0.493594
  H       2.716723      2.103991      2.049119
  H       3.080688     -0.142709      3.242941
  H       2.802007     -1.629344      2.303780
  H       1.408892     -0.726317      2.962451
  H       4.762295      0.390706      0.977586
  H       5.379886      1.516424     -0.257005
  H       5.806618     -0.210045     -0.337131
  H       3.128159      0.255448     -2.900205
  H       4.830316     -0.267678     -2.694866
  H       4.397722      1.454948     -2.544210
  H       1.067245     -3.304169     -0.846915
  H       1.800793     -3.821283      0.699604
  H       0.720455     -2.398087      0.647392
>
47
-1459.66479874; 31P isotropic shielding: 261.678395 ppm
  C       1.661670     -0.276812      2.382041
  N       2.218255     -0.976227      1.216959
  P       2.485164     -0.087894     -0.162696
  N       1.477444      1.061642     -0.746099
  N       0.288032      1.555046     -0.601689
  C      -0.746912      1.015166      0.039154
  C      -1.046924     -0.369759      0.436407
  O      -0.462180     -1.427727      0.196104
  N      -2.293068     -0.328169      1.119841
  N      -2.873605      1.055221      0.995347
  C      -1.982703      1.831773      0.163359
  O      -2.276956      2.926603     -0.275813
  C      -4.092614      0.436095      0.511921
  C      -3.556791     -0.848731      0.631143
  C      -4.265191     -2.003714      0.375918
  C      -5.593947     -1.770258     -0.050562
  C      -6.132188     -0.478126     -0.174730
  C      -5.389454      0.689680      0.117892
  N       3.839449      0.825183      0.198917
  C       4.923714      0.282080      1.024223
  C       4.198794      2.074837     -0.491060
  N       2.863056     -1.180385     -1.370509
  C       1.758808     -1.878235     -2.061432
  C       4.039045     -0.965659     -2.227276
  C       2.235386     -2.437714      1.317146
  H       0.652695     -0.643400      2.614836
  H       1.602714      0.800089      2.190470
  H       2.305825     -0.433616      3.261082
  H      -3.853737     -3.004317      0.474399
  H      -6.224467     -2.624557     -0.289188
  H      -7.162780     -0.371573     -0.507863
  H      -5.809913      1.686608      0.021356
  H       4.594821     -0.621449      1.541134
  H       5.227836      1.027410      1.773627
  H       5.809415      0.037091      0.413356
  H       5.079771      1.925762     -1.137642
  H       4.449138      2.844515      0.253439
  H       3.357868      2.421936     -1.091273
  H       2.103878     -2.874117     -2.371873
  H       1.440387     -1.320214     -2.956558
  H       0.901031     -1.984381     -1.394226
  H       3.810335     -0.314040     -3.086788
  H       4.374677     -1.938253     -2.612661
  H       4.859660     -0.523689     -1.658992
  H       2.745663     -2.862004      0.449893
  H       2.785327     -2.732434      2.224754
  H       1.214171     -2.838483      1.369515
>
47
-1459.66486000; 31P isotropic shielding: 261.732459 ppm
  C       1.665453     -0.104393      2.421562
  N       2.224551     -0.881897      1.308212
  P       2.494397     -0.089505     -0.127331
  N       1.489601      1.022328     -0.783717
  N       0.296371      1.517579     -0.685410
  C      -0.744311      1.020606     -0.019802
  C      -1.047026     -0.332385      0.474988
  O      -0.457112     -1.403631      0.322617
  N      -2.302737     -0.244228      1.136692
  N      -2.884704      1.124129      0.901910
  C      -1.983494      1.840429      0.028341
  O      -2.273768      2.899309     -0.493838
  C      -4.094531      0.466907      0.446791
  C      -3.557500     -0.803710      0.668245
  C      -4.258699     -1.976855      0.486366
  C      -5.580869     -1.779877      0.022704
  C      -6.120360     -0.502247     -0.203960
  C      -5.385400      0.686491      0.014443
  N       3.852562      0.841371      0.168616
  C       4.216711      2.036055     -0.610304
  C       4.936120      0.352842      1.027724
  N       2.868041     -1.262610     -1.258948
  C       1.759303     -1.998142     -1.901929
  C       4.043379     -1.108406     -2.129831
  C       2.246026     -2.332832      1.509471
  H       0.662033     -0.464913      2.685666
  H       1.591544      0.954304      2.150351
  H       2.314987     -0.187471      3.306689
  H      -3.846196     -2.966093      0.663569
  H      -6.205328     -2.651588     -0.163045
  H      -7.145709     -0.424160     -0.560359
  H      -5.806360      1.672245     -0.161724
  H       5.096777      1.836966     -1.244615
  H       4.470249      2.856736      0.076390
  H       3.376894      2.342037     -1.233922
  H       5.815342      0.049050      0.433828
  H       4.601904     -0.502738      1.618018
  H       5.253093      1.152253      1.713231
  H       1.444900     -1.499181     -2.832608
  H       0.901140     -2.053413     -1.228892
  H       2.097702     -3.014926     -2.144587
  H       4.372268     -2.105153     -2.454424
  H       4.867908     -0.636847     -1.591803
  H       3.816218     -0.510756     -3.028083
  H       2.796456     -2.563071      2.435213
  H       1.225693     -2.731235      1.589267
  H       2.757284     -2.815070      0.673628
>
47
-1459.66485211; 31P isotropic shielding: 261.684588 ppm
  C       1.668616     -0.122308      2.412490
  N       2.227827     -0.890837      1.293025
  P       2.495690     -0.088941     -0.138435
  N       1.487399      1.023779     -0.790980
  N       0.297573      1.523329     -0.677243
  C      -0.739516      1.020492     -0.009819
  C      -1.040432     -0.339611      0.463814
  O      -0.451922     -1.408486      0.289027
  N      -2.291896     -0.262157      1.134458
  N      -2.873202      1.111132      0.927710
  C      -1.976542      1.841303      0.060604
  O      -2.268399      2.909683     -0.440987
  C      -4.086846      0.463594      0.468508
  C      -3.550632     -0.811449      0.664058
  C      -4.254883     -1.980152      0.466457
  C      -5.579740     -1.773152      0.014857
  C      -6.118500     -0.490944     -0.185974
  C      -5.380097      0.692653      0.048457
  N       3.848936      0.846165      0.167128
  C       4.212042      2.044143     -0.607365
  C       4.930954      0.361020      1.030618
  N       2.874342     -1.250726     -1.278470
  C       1.772280     -1.983077     -1.935689
  C       4.064429     -1.104630     -2.129557
  C       2.241967     -2.343981      1.479545
  H       0.660031     -0.476005      2.666121
  H       1.607634      0.940494      2.154499
  H       2.311977     -0.223769      3.300166
  H      -3.842814     -2.972933      0.623863
  H      -6.206834     -2.640483     -0.182187
  H      -7.145943     -0.405054     -0.534455
  H      -5.800785      1.681950     -0.107374
  H       5.096771      1.849683     -1.236575
  H       4.457570      2.864646      0.082364
  H       3.374330      2.347129     -1.235273
  H       5.816125      0.068456      0.440034
  H       4.599793     -0.500769      1.613356
  H       5.237166      1.158670      1.723076
  H       0.901581     -2.026512     -1.278057
  H       2.106368     -3.004782     -2.163846
  H       1.480222     -1.488957     -2.876111
  H       4.396740     -2.103434     -2.444586
  H       4.881076     -0.632333     -1.580279
  H       3.853769     -0.510233     -3.033993
  H       2.789536     -2.585385      2.404139
  H       1.219761     -2.738707      1.553214
  H       2.752776     -2.820112      0.639967
>
47
-1459.66489373; 31P isotropic shielding: 261.413737 ppm
  C       1.662010     -1.153229      2.663713
  N       2.796550     -0.728242      1.818495
  P       2.473088     -0.023205      0.339862
  N       1.442543      1.232795      0.548400
  N       0.279698      1.662277      0.168405
  C      -0.712238      0.949646     -0.362298
  C      -1.007663     -0.491563     -0.331121
  O      -0.463487     -1.417378      0.273674
  N      -2.198262     -0.672041     -1.087191
  N      -2.759770      0.678761     -1.444561
  C      -1.919434      1.680418     -0.827478
  O      -2.225218      2.855910     -0.774212
  C      -4.022768      0.235324     -0.886060
  C      -3.504531     -1.019814     -0.557974
  C      -4.251954     -2.040388     -0.009471
  C      -5.603495     -1.691265      0.221319
  C      -6.124307     -0.427407     -0.104396
  C      -5.339643      0.593807     -0.689546
  N       3.841724      0.764735     -0.212749
  C       4.181984      2.153688      0.136686
  C       4.946989      0.036597     -0.845192
  N       2.260872     -1.258176     -0.753815
  C       1.780826     -0.910014     -2.097361
  C       2.240398     -2.688802     -0.437499
  C       3.991373     -0.352278      2.587971
  H       1.955354     -2.043120      3.237809
  H       0.797817     -1.395463      2.041623
  H       1.378607     -0.355779      3.369150
  H      -3.853811     -3.019712      0.240665
  H      -6.266194     -2.431149      0.666007
  H      -7.174222     -0.226874      0.100347
  H      -5.746193      1.569492     -0.940004
  H       5.037654      2.183872      0.831898
  H       3.321511      2.642784      0.593109
  H       4.462940      2.701396     -0.774502
  H       5.253703      0.553251     -1.766474
  H       4.641134     -0.980474     -1.097528
  H       5.825318     -0.014585     -0.179183
  H       1.737156      0.177588     -2.218973
  H       0.776660     -1.319081     -2.275103
  H       2.464917     -1.312935     -2.860227
  H       1.213327     -3.077085     -0.448496
  H       2.675639     -2.856154      0.550033
  H       2.841898     -3.233277     -1.182376
  H       4.282905     -1.199230      3.224406
  H       4.826608     -0.123154      1.923423
  H       3.804188      0.518932      3.237294
>
47
-1459.66503173; 31P isotropic shielding: 261.486796 ppm
  C       1.666244     -0.146524      2.424773
  N       2.228451     -0.900877      1.297250
  P       2.500438     -0.079212     -0.120979
  N       1.496349      1.046044     -0.755811
  N       0.301744      1.536937     -0.652500
  C      -0.739735      1.026365      0.001259
  C      -1.041204     -0.335395      0.472256
  O      -0.450648     -1.403211      0.300348
  N      -2.296574     -0.259695      1.136215
  N      -2.880115      1.111585      0.924549
  C      -1.980077      1.843343      0.062567
  O      -2.272265      2.909577     -0.443365
  C      -4.089813      0.460523      0.460254
  C      -3.551234     -0.812831      0.660561
  C      -4.251563     -1.983669      0.461709
  C      -5.574872     -1.780817      0.003716
  C      -6.116065     -0.500321     -0.201646
  C      -5.381808      0.685574      0.034117
  N       3.858046      0.845955      0.195488
  C       4.224723      2.053634     -0.561549
  C       4.939042      0.341660      1.048504
  N       2.875358     -1.228844     -1.276200
  C       1.767946     -1.952403     -1.934627
  C       4.051370     -1.056339     -2.142629
  C       2.253542     -2.355271      1.469814
  H       1.585828      0.916416      2.172588
  H       2.316810     -0.241343      3.308014
  H       0.665077     -0.517402      2.682735
  H      -3.837596     -2.975133      0.622403
  H      -6.198790     -2.650143     -0.194582
  H      -7.142189     -0.417678     -0.554758
  H      -5.804174      1.673591     -0.125233
  H       3.386210      2.371598     -1.180895
  H       5.105515      1.864769     -1.198104
  H       4.478250      2.861730      0.139902
  H       5.255158      1.129334      1.747847
  H       5.819341      0.046932      0.451606
  H       4.602168     -0.523189      1.623478
  H       2.108900     -2.962780     -2.199449
  H       1.451780     -1.434029     -2.854027
  H       0.910362     -2.024769     -1.262471
  H       4.380242     -2.046035     -2.488130
  H       4.875681     -0.596800     -1.593895
  H       3.825525     -0.439443     -3.028139
  H       2.805577     -2.603144      2.390086
  H       1.233977     -2.757031      1.542862
  H       2.764467     -2.819737      0.623788
>
47
-1459.66485720; 31P isotropic shielding: 261.602198 ppm
  C       4.741383     -0.733125      1.620812
  N       3.708980      0.271810      1.346372
  P       2.494535     -0.019690      0.233251
  N       1.461333      1.204293      0.569884
  N       0.220567      1.455048      0.846298
  C      -0.829995      0.650019      0.700301
  C      -1.046149     -0.554298     -0.117704
  O      -0.339120     -1.093608     -0.970980
  N      -2.366964     -0.998311      0.165763
  N      -3.055021      0.029353      1.024336
  C      -2.143066      1.136850      1.198987
  O      -2.481150      2.199589      1.683145
  C      -4.138383      0.023153      0.060260
  C      -3.503260     -0.933797     -0.735143
  C      -4.060863     -1.482342     -1.870503
  C      -5.340372     -0.963533     -2.180151
  C      -5.978038      0.001983     -1.382676
  C      -5.392426      0.529764     -0.208081
  N       3.110948      0.158296     -1.310874
  C       2.163546      0.240954     -2.442004
  C       4.348128      0.921708     -1.534863
  N       2.148372     -1.633910      0.424268
  C       2.294927     -2.674630     -0.596474
  C       1.394956     -2.031728      1.620013
  C       4.022542      1.600130      1.896943
  H       4.441868     -1.707099      1.228687
  H       4.893920     -0.821258      2.706425
  H       5.706944     -0.451899      1.166323
  H      -3.572748     -2.231618     -2.487362
  H      -5.851629     -1.328292     -3.068909
  H      -6.963145      0.356733     -1.679626
  H      -5.889175      1.275327      0.406195
  H       2.631918     -0.196968     -3.334300
  H       1.902181      1.289083     -2.659286
  H       1.246963     -0.304652     -2.208640
  H       4.819243      0.562219     -2.459997
  H       5.052019      0.772251     -0.713985
  H       4.151821      2.001061     -1.643843
  H       2.927250     -2.309062     -1.408136
  H       1.316255     -2.963826     -1.002444
  H       2.775752     -3.558684     -0.148877
  H       1.944205     -2.808859      2.173903
  H       0.406412     -2.426068      1.347671
  H       1.253644     -1.174177      2.286686
  H       3.222751      2.299442      1.653886
  H       4.116787      1.529443      2.990302
  H       4.978451      1.976624      1.495447
>
47
-1459.66480942; 31P isotropic shielding: 261.690506 ppm
  C       1.697038     -0.559884      2.553383
  N       2.306761     -1.079063      1.321346
  P       2.523786     -0.002724      0.074041
  N       1.530237      1.259124     -0.229530
  N       0.328479      1.545259     -0.636967
  C      -0.767663      0.796850     -0.651954
  C      -1.085270     -0.555389     -0.160279
  O      -0.438358     -1.340363      0.532958
  N      -2.392896     -0.856193     -0.635072
  N      -2.978558      0.374076     -1.267305
  C      -2.018797      1.440448     -1.143464
  O      -2.277390      2.599194     -1.406197
  C      -4.137838      0.193154     -0.418245
  C      -3.598626     -0.955684      0.167975
  C      -4.266010     -1.732431      1.091002
  C      -5.552268     -1.242370      1.419158
  C      -6.093298     -0.085465      0.832982
  C      -5.396132      0.679040     -0.131647
  N       3.913193      0.832122      0.483997
  C       4.254834      2.181471      0.007967
  C       5.044637      0.127925      1.096558
  N       2.843787     -0.946596     -1.280763
  C       1.739276     -1.708958     -1.897829
  C       3.832808     -0.476870     -2.264241
  C       2.400067     -2.537536      1.244158
  H       0.678883     -0.951941      2.674605
  H       1.642387      0.533399      2.516263
  H       2.310330     -0.846899      3.420972
  H      -3.853945     -2.630348      1.542839
  H      -6.147166     -1.784485      2.151618
  H      -7.090284      0.233419      1.130892
  H      -5.819180      1.570967     -0.584894
  H       5.064259      2.143607     -0.740788
  H       4.605370      2.786811      0.856570
  H       3.373612      2.652357     -0.426683
  H       5.855089     -0.047274      0.368492
  H       4.723469     -0.833234      1.502397
  H       5.453995      0.734864      1.917145
  H       2.148312     -2.613344     -2.369093
  H       1.225451     -1.115507     -2.670511
  H       1.010372     -2.005646     -1.141664
  H       4.210776     -1.344806     -2.821839
  H       4.677391      0.001188     -1.764137
  H       3.397463      0.233947     -2.985803
  H       2.937690     -2.911702      2.129431
  H       1.401868     -2.997429      1.217630
  H       2.959655     -2.831580      0.353325
>
47
-1459.66300591; 31P isotropic shielding: 268.481110 ppm
  C       1.686851     -0.856498      2.469901
  N       2.285850     -1.257367      1.189248
  P       2.517611     -0.061053      0.058992
  N       1.543345      1.240427     -0.118260
  N       0.348996      1.581888     -0.503964
  C      -0.758114      0.855075     -0.594059
  C      -1.097261     -0.531065     -0.228702
  O      -0.461783     -1.386475      0.387407
  N      -2.410664     -0.765612     -0.724392
  N      -2.975836      0.526886     -1.241864
  C      -1.997966      1.561293     -1.024051
  O      -2.237149      2.743181     -1.180647
  C      -4.135954      0.291011     -0.407170
  C      -3.616102     -0.914984      0.071624
  C      -4.295124     -1.759277      0.924201
  C      -5.571343     -1.277717      1.300470
  C      -6.092885     -0.063577      0.822371
  C      -5.384583      0.771460     -0.073165
  N       3.916258      0.708684      0.555509
  C       5.036683     -0.069806      1.093714
  C       4.274590      2.098043      0.231392
  N       2.829237     -0.864177     -1.386182
  C       3.814838     -0.293563     -2.318991
  C       1.717338     -1.548929     -2.077212
  C       2.349192     -2.701860      0.960873
  H       2.297630     -1.239809      3.301337
  H       0.662799     -1.242531      2.554637
  H       1.649823      0.235673      2.544046
  H      -3.898105     -2.701318      1.291862
  H      -6.173798     -1.872234      1.984492
  H      -7.083000      0.245179      1.152143
  H      -5.792809      1.707799     -0.442750
  H       5.440809      0.433449      1.984214
  H       5.854020     -0.163422      0.358284
  H       4.706394     -1.070051      1.380046
  H       5.093804      2.132197     -0.506646
  H       4.618195      2.606193      1.144238
  H       3.403052      2.621288     -0.160776
  H       4.663831      0.124452     -1.774358
  H       3.378335      0.494121     -2.954880
  H       4.185673     -1.096840     -2.970086
  H       0.990373     -1.924036     -1.354855
  H       2.120095     -2.398651     -2.645608
  H       1.203949     -0.872262     -2.778302
  H       2.908121     -2.913008      0.046426
  H       2.874285     -3.176801      1.804227
  H       1.341600     -3.134577      0.883464
>
47
-1459.66295842; 31P isotropic shielding: 268.383815 ppm
  C       3.717117      0.355288      2.468798
  N       2.761005     -0.431204      1.673304
  P       2.528679     -0.044181      0.053558
  N       1.558048      1.251144     -0.178179
  N       0.346118      1.676591      0.026971
  C      -0.769653      0.994641      0.256089
  C      -1.098750     -0.441092      0.281418
  O      -0.441208     -1.431229     -0.039508
  N      -2.433834     -0.536552      0.764591
  N      -3.017302      0.843706      0.864585
  C      -2.026031      1.782241      0.405737
  O      -2.267457      2.957072      0.205678
  C      -4.140369      0.367108      0.083797
  C      -3.603021     -0.920358     -0.006009
  C      -4.245635     -1.980858     -0.608458
  C      -5.503109     -1.640897     -1.161161
  C      -6.042241     -0.346091     -1.074498
  C      -5.371979      0.718390     -0.427410
  N       3.958947      0.570849     -0.556240
  C       4.315115      1.997688     -0.589790
  C       5.098667     -0.318600     -0.803574
  N       2.341641     -1.498668     -0.728737
  C       1.798398     -1.455993     -2.093906
  C       2.376534     -2.829634     -0.120398
  C       1.614359     -0.913715      2.469310
  H       4.052184     -0.255831      3.318156
  H       3.266278      1.280111      2.864871
  H       4.591851      0.618401      1.870997
  H      -3.834715     -2.984440     -0.673144
  H      -6.076501     -2.413099     -1.670306
  H      -7.016325     -0.155244     -1.520777
  H      -5.793712      1.717144     -0.359868
  H       3.428483      2.603251     -0.404043
  H       4.719508      2.246604     -1.581752
  H       5.088920      2.229939      0.161617
  H       5.563902     -0.060531     -1.766025
  H       4.771015     -1.359193     -0.843992
  H       5.867948     -0.219397     -0.018630
  H       1.775352     -0.423740     -2.459461
  H       0.774622     -1.851439     -2.113132
  H       2.437201     -2.048023     -2.766581
  H       2.892830     -2.790712      0.841556
  H       2.930915     -3.513185     -0.782151
  H       1.361191     -3.224748      0.024844
  H       1.978789     -1.605359      3.241629
  H       1.094350     -0.079762      2.966617
  H       0.901475     -1.441490      1.833309
>
47
-1459.66293630; 31P isotropic shielding: 268.209613 ppm
  C       1.654245     -1.124551      2.364252
  N       2.783068     -0.544055      1.610127
  P       2.530058     -0.010607      0.035615
  N       1.538817      1.285491     -0.066005
  N       0.322626      1.673586      0.181777
  C      -0.782891      0.958204      0.351007
  C      -1.091062     -0.478548      0.249833
  O      -0.419079     -1.426487     -0.157181
  N      -2.423463     -0.636237      0.724319
  N      -3.026171      0.721280      0.947428
  C      -2.049432      1.711240      0.573571
  O      -2.307928      2.895759      0.480260
  C      -4.143612      0.300584      0.127490
  C      -3.588646     -0.966096     -0.076910
  C      -4.217661     -1.977360     -0.771285
  C      -5.480508     -1.606701     -1.291140
  C      -6.037217     -0.332274     -1.089424
  C      -5.380583      0.679287     -0.349999
  N       3.945108      0.681418     -0.524804
  C       5.096325     -0.161888     -0.863510
  C       4.276435      2.111905     -0.437861
  N       2.358958     -1.388657     -0.878323
  C       1.802999     -1.226535     -2.229171
  C       2.417692     -2.769605     -0.395789
  C       3.733443      0.177828      2.470616
  H       1.126424     -0.353799      2.948071
  H       2.038546     -1.883644      3.059870
  H       0.942688     -1.598124      1.685667
  H      -3.793328     -2.965500     -0.925386
  H      -6.043873     -2.338207     -1.867171
  H      -7.014443     -0.115705     -1.516695
  H      -5.815448      1.662258     -0.193260
  H       5.877847     -0.108611     -0.086452
  H       5.538294      0.181545     -1.810224
  H       4.788085     -1.202456     -0.981234
  H       5.063797      2.289522      0.314399
  H       3.384672      2.681615     -0.178328
  H       4.653570      2.456852     -1.411710
  H       1.775906     -0.165979     -2.501830
  H       0.779879     -1.621580     -2.275555
  H       2.437340     -1.755068     -2.956658
  H       2.969066     -3.381788     -1.126153
  H       1.409458     -3.189502     -0.272289
  H       2.949282     -2.811242      0.557616
  H       4.587228      0.532564      1.890210
  H       3.265141      1.039336      2.974611
  H       4.103948     -0.511968      3.241606
>
47
-1459.66305792; 31P isotropic shielding: 268.202187 ppm
  C       1.600056     -1.202951      2.401807
  N       2.738643     -0.599014      1.681292
  P       2.508314     -0.022383      0.118751
  N       1.514502      1.274091      0.039943
  N       0.294348      1.650469      0.285700
  C      -0.811154      0.927254      0.417379
  C      -1.114411     -0.505259      0.259782
  O      -0.433094     -1.436638     -0.169276
  N      -2.454710     -0.682195      0.704211
  N      -3.063671      0.665576      0.967939
  C      -2.082475      1.669932      0.647675
  O      -2.341514      2.856818      0.595141
  C      -4.165142      0.275348      0.111875
  C      -3.604499     -0.981924     -0.130680
  C      -4.219184     -1.966314     -0.874803
  C      -5.472899     -1.577081     -1.403072
  C      -6.035377     -0.311907     -1.162615
  C      -5.393963      0.670933     -0.372838
  N       3.928813      0.689419     -0.401148
  C       5.087747     -0.140195     -0.747028
  C       4.252473      2.118588     -0.273817
  N       2.355837     -1.374749     -0.836173
  C       1.826741     -1.174572     -2.192610
  C       2.408324     -2.768549     -0.391441
  C       3.675635      0.098667      2.575725
  H       1.976656     -1.978261      3.083597
  H       0.901694     -1.662335      1.700118
  H       1.059824     -0.449523      2.996662
  H      -3.790465     -2.947410     -1.058866
  H      -6.024377     -2.286246     -2.017266
  H      -7.004993     -0.079912     -1.599011
  H      -5.833228      1.646717     -0.186319
  H       5.861388     -0.098717      0.038516
  H       5.536916      0.225265     -1.682114
  H       4.786710     -1.179746     -0.889484
  H       4.639420      2.490185     -1.233942
  H       5.030179      2.280308      0.491952
  H       3.355114      2.677601     -0.010444
  H       1.807761     -0.106888     -2.436632
  H       0.803898     -1.565405     -2.270494
  H       2.474581     -1.684708     -2.921331
  H       2.975642     -3.358747     -1.127728
  H       1.398915     -3.193673     -0.299748
  H       2.921648     -2.835665      0.570418
  H       4.039763     -0.613540      3.329178
  H       4.534774      0.474638      2.016969
  H       3.197741      0.942297      3.100450
>
47
-1459.66305349; 31P isotropic shielding: 268.173551 ppm
  C       1.719462     -0.506716      2.530565
  N       2.310995     -1.057818      1.303424
  P       2.510878     -0.014537      0.025806
  N       1.518951      1.251131     -0.274944
  N       0.311794      1.528112     -0.674167
  C      -0.782543      0.777362     -0.668940
  C      -1.097598     -0.563846     -0.145166
  O      -0.448838     -1.331533      0.565632
  N      -2.406510     -0.875453     -0.607408
  N      -2.996602      0.340445     -1.263001
  C      -2.038061      1.410360     -1.164762
  O      -2.299766      2.563357     -1.448469
  C      -4.152631      0.174943     -0.406068
  C      -3.609351     -0.960685      0.201578
  C      -4.272771     -1.720686      1.141228
  C      -5.559343     -1.227231      1.462791
  C      -6.104525     -0.083475      0.855055
  C      -5.411556      0.663217     -0.126398
  N       3.916756      0.818601      0.380264
  C       4.254206      2.156727     -0.128595
  C       5.058221      0.117243      0.976972
  N       2.793871     -0.993239     -1.311605
  C       1.685445     -1.792812     -1.871005
  C       3.752185     -0.549499     -2.336210
  C       2.411507     -2.517238      1.266468
  H       1.663017      0.585081      2.465187
  H       2.346540     -0.770365      3.395706
  H       0.703758     -0.896313      2.677061
  H      -3.857430     -2.608647      1.609450
  H      -6.151255     -1.755976      2.207336
  H      -7.101533      0.238952      1.149035
  H      -5.837980      1.544756     -0.596480
  H       4.625331      2.776774      0.700485
  H       3.365786      2.623284     -0.553201
  H       5.047454      2.100833     -0.893491
  H       4.739364     -0.830649      1.414667
  H       5.496257      0.738828      1.771377
  H       5.846259     -0.083440      0.231053
  H       0.972434     -2.059587     -1.089158
  H       2.093644     -2.715036     -2.307498
  H       1.152511     -1.240429     -2.660924
  H       4.132583     -1.433062     -2.867142
  H       4.598967     -0.036482     -1.876172
  H       3.287768      0.124007     -3.075139
  H       2.965046     -2.863488      2.153328
  H       1.415443     -2.982804      1.269296
  H       2.958162     -2.834562      0.375580
>
47
-1459.66305126; 31P isotropic shielding: 268.729962 ppm
  C       1.672958     -0.630245      2.579618
  N       2.298360     -1.111784      1.340112
  P       2.524430      0.002594      0.127456
  N       1.527527      1.261833     -0.170762
  N       0.332104      1.555905     -0.588751
  C      -0.763791      0.807384     -0.628391
  C      -1.081504     -0.554553     -0.167034
  O      -0.434690     -1.354101      0.509398
  N      -2.388121     -0.846564     -0.651437
  N      -2.971135      0.395634     -1.263154
  C      -2.011249      1.459505     -1.116356
  O      -2.268494      2.622593     -1.360459
  C      -4.131958      0.201749     -0.418958
  C      -3.595324     -0.957992      0.147986
  C      -4.264887     -1.749010      1.057312
  C      -5.550441     -1.262169      1.392728
  C      -6.088874     -0.094501      0.825845
  C      -5.389606      0.684957     -0.125100
  N       3.895896      0.837909      0.592482
  C       4.234440      2.203923      0.163610
  C       5.020885      0.129718      1.212666
  N       2.879786     -0.898496     -1.248300
  C       1.782892     -1.627088     -1.918528
  C       3.888210     -0.390801     -2.192984
  C       2.381845     -2.567845      1.215121
  H       0.650797     -1.019496      2.673080
  H       1.625897      0.464097      2.578780
  H       2.271660     -0.950310      3.445761
  H      -3.854855     -2.655204      1.494209
  H      -6.146819     -1.815455      2.115568
  H      -7.085448      0.221271      1.128415
  H      -5.810692      1.585350     -0.563174
  H       5.063843      2.195014     -0.563664
  H       4.555376      2.788786      1.037879
  H       3.360034      2.677812     -0.281371
  H       5.854520     -0.004699      0.502401
  H       4.704810     -0.851043      1.572855
  H       5.396313      0.712209      2.066583
  H       2.197991     -2.507084     -2.428755
  H       1.280116     -0.994624     -2.667125
  H       1.043886     -1.961294     -1.188069
  H       3.468898      0.351682     -2.891841
  H       4.273887     -1.236045     -2.779172
  H       4.724452      0.062228     -1.656768
  H       2.902758     -2.974796      2.095809
  H       1.381040     -3.018700      1.157415
  H       2.954277     -2.835554      0.324161
