55
-1587.36940936; 31P isotropic shielding: 97.924072 ppm
  C      -4.125887     -3.165543      0.229898
  C      -2.881494     -2.802614     -0.570844
  O      -1.698949     -2.984067      0.268989
  P      -0.653957     -1.799913      0.704141
  O      -0.383351     -1.086099     -0.809569
  C      -0.525912      0.346041     -0.801918
  C      -1.674589      0.645831      0.223627
  N      -1.649918     -0.440935      1.183996
  O      -2.870328      0.662989     -0.566100
  C      -4.109021      0.655686      0.183697
  C      -5.248486      0.510821     -0.814923
  O      -1.525471      1.852156      0.965340
  C      -1.768414      3.081931      0.239590
  C      -1.258840      4.223711      1.107346
  C       0.816201      1.020225     -0.470445
  O       1.188472      0.524933      0.832336
  C       2.356106      1.031129      1.422462
  O       3.570688      0.731304      0.716176
  C       3.861439     -0.675866      0.393388
  O       2.858282     -1.239550     -0.440547
  C       2.506780     -0.598373     -1.681225
  C       1.870392      0.809363     -1.599099
  O       2.842742      1.870846     -1.613032
  C       3.860356     -1.545850      1.651701
  C       5.235822     -0.614961     -0.282870
  H      -4.065947     -4.197994      0.596248
  H      -4.234794     -2.499156      1.093799
  H      -5.023379     -3.073027     -0.397727
  H      -2.921730     -1.772762     -0.939873
  H      -2.754273     -3.471549     -1.432230
  H      -0.846198      0.647548     -1.805958
  H      -1.489223     -0.105949      2.130652
  H      -4.204571      1.591216      0.756797
  H      -4.090857     -0.174668      0.901400
  H      -5.156670     -0.425378     -1.378693
  H      -6.211685      0.503077     -0.287886
  H      -5.252350      1.343305     -1.529806
  H      -1.251468      3.065442     -0.731367
  H      -2.843040      3.190162      0.035014
  H      -0.178389      4.136127      1.276277
  H      -1.457189      5.186317      0.618239
  H      -1.761946      4.220468      2.082413
  H       0.668093      2.109712     -0.409009
  H       2.376563      0.602439      2.431679
  H       2.347147      2.132144      1.468745
  H       1.777560     -1.287086     -2.117266
  H       3.375719     -0.527201     -2.354000
  H       1.326421      0.942163     -2.546474
  H       3.401738      1.725218     -0.817498
  H       4.216963     -2.549940      1.397436
  H       2.845432     -1.644031      2.049669
  H       4.522079     -1.116646      2.412717
  H       5.226503      0.071462     -1.136365
  H       5.991486     -0.264637      0.428828
  H       5.512139     -1.615172     -0.634684
>
55
-1587.37293832; 31P isotropic shielding: 102.226570 ppm
  C      -2.787770     -3.533399     -1.583019
  C      -3.073262     -2.720424     -0.325701
  O      -1.975585     -2.877765      0.628219
  P      -0.844855     -1.740589      0.965419
  O      -0.555341     -1.157998     -0.602570
  C      -0.635807      0.275284     -0.712320
  C      -1.735554      0.715294      0.316251
  N      -1.728158     -0.286470      1.362070
  O      -2.955566      0.725324     -0.436569
  C      -4.167767      0.812345      0.352453
  C      -5.344512      0.741000     -0.610098
  O      -1.506353      1.970946      0.947277
  C      -1.724109      3.145131      0.127327
  C      -1.120486      4.329521      0.868222
  C       0.745213      0.910896     -0.482175
  O       1.143816      0.517603      0.846083
  C       2.323271      1.075799      1.362982
  O       3.518188      0.746564      0.637570
  C       3.841079     -0.676690      0.432399
  O       2.804253     -1.351562     -0.264959
  C       2.365873     -0.870915     -1.551128
  C       1.749418      0.545891     -1.617952
  O       2.730898      1.581991     -1.806546
  C       3.962104     -1.412804      1.768001
  C       5.162275     -0.640140     -0.344078
  H      -2.613455     -4.587634     -1.333821
  H      -3.643235     -3.477611     -2.271450
  H      -1.900957     -3.142784     -2.094964
  H      -3.971583     -3.085258      0.189552
  H      -3.208516     -1.661364     -0.566123
  H      -0.974915      0.506685     -1.728742
  H      -1.524058      0.111010      2.275171
  H      -4.176911      1.755981      0.919796
  H      -4.185031     -0.013165      1.076968
  H      -5.311717      1.564547     -1.334593
  H      -5.336910     -0.205186     -1.165344
  H      -6.289245      0.806951     -0.054412
  H      -1.254416      3.018320     -0.859386
  H      -2.800905      3.289813     -0.040178
  H      -0.038793      4.200873      0.998591
  H      -1.294383      5.255088      0.304021
  H      -1.576817      4.437867      1.860138
  H       0.644593      2.007075     -0.517915
  H       2.381573      0.717118      2.397625
  H       2.299067      2.177392      1.334667
  H       1.600665     -1.597611     -1.838518
  H       3.184358     -0.906211     -2.287015
  H       1.169946      0.565858     -2.553185
  H       3.299329      1.558410     -1.004775
  H       4.335854     -2.427072      1.590280
  H       2.983113     -1.498455      2.250040
  H       4.659927     -0.888024      2.430294
  H       5.458684     -1.662028     -0.605864
  H       5.063257     -0.052636     -1.262891
  H       5.948219     -0.185985      0.269373
>
55
-1587.37343211; 31P isotropic shielding: 99.103611 ppm
  C      -2.574128     -3.641996     -1.723064
  C      -3.035338     -2.720085     -0.600593
  O      -2.108986     -2.808803      0.527898
  P      -0.981162     -1.690571      0.935346
  O      -0.596424     -1.134017     -0.619736
  C      -0.651015      0.296312     -0.760277
  C      -1.764776      0.788200      0.233037
  N      -1.831696     -0.204032      1.291514
  O      -2.964393      0.848335     -0.543820
  C      -4.171137      1.155439      0.212840
  C      -5.088640     -0.053700      0.360539
  O      -1.487485      2.034428      0.864738
  C      -1.632925      3.217170      0.039892
  C      -0.939064      4.361554      0.764781
  C       0.738320      0.905483     -0.507656
  O       1.092743      0.528650      0.837587
  C       2.261487      1.086008      1.378424
  O       3.472861      0.737402      0.690324
  C       3.793447     -0.691084      0.522417
  O       2.767671     -1.376988     -0.180522
  C       2.361249     -0.926645     -1.488004
  C       1.764752      0.495015     -1.607933
  O       2.764926      1.513195     -1.798321
  C       3.884228     -1.398166      1.876265
  C       5.130872     -0.677965     -0.226397
  H      -2.468234     -4.672702     -1.361968
  H      -3.309070     -3.635260     -2.540759
  H      -1.608172     -3.308687     -2.119833
  H      -4.012889     -3.028836     -0.208937
  H      -3.108780     -1.683876     -0.944031
  H      -0.960717      0.513011     -1.789340
  H      -1.594040      0.195324      2.196666
  H      -4.674868      1.954701     -0.348841
  H      -3.895768      1.555261      1.196646
  H      -6.026982      0.255577      0.843161
  H      -5.336178     -0.479606     -0.619644
  H      -4.619161     -0.827844      0.975124
  H      -1.187997      3.050954     -0.951848
  H      -2.699145      3.436697     -0.112234
  H      -1.059975      5.294093      0.198166
  H      -1.371299      4.504934      1.763015
  H       0.133703      4.162228      0.879189
  H       0.666717      2.002322     -0.568814
  H       2.289137      0.743026      2.419618
  H       2.246073      2.187365      1.333309
  H       1.593243     -1.651790     -1.771846
  H       3.194581     -0.992076     -2.204967
  H       1.210120      0.496920     -2.558324
  H       3.306567      1.510149     -0.977943
  H       2.895869     -1.466068      2.341741
  H       4.573041     -0.863188      2.539815
  H       4.253742     -2.418780      1.728469
  H       5.430023     -1.707150     -0.454512
  H       5.054723     -0.114951     -1.162619
  H       5.904648     -0.209989      0.392158
>
55
-1587.37001455; 31P isotropic shielding: 96.978148 ppm
  C      -4.134809     -3.184595      0.207969
  C      -2.889625     -2.811542     -0.587007
  O      -1.709026     -2.991182      0.255798
  P      -0.671197     -1.804472      0.700471
  O      -0.398565     -1.081374     -0.808824
  C      -0.547403      0.350056     -0.793482
  C      -1.702105      0.638398      0.228109
  N      -1.676288     -0.452523      1.183894
  O      -2.894311      0.652695     -0.566753
  C      -4.136357      0.636282      0.177450
  C      -5.270550      0.489388     -0.826771
  O      -1.562849      1.842316      0.976117
  C      -1.807869      3.073979      0.254502
  C      -1.312332      4.214725      1.131648
  C       0.790214      1.028344     -0.451870
  O       1.158544      0.527718      0.849832
  C       2.321150      1.036013      1.448148
  O       3.540311      0.745184      0.746124
  C       3.838994     -0.659015      0.417628
  O       2.842498     -1.222622     -0.424446
  C       2.494177     -0.576080     -1.663192
  C       1.850374      0.828033     -1.576763
  O       2.817529      1.894458     -1.581268
  C       3.835234     -1.535530      1.671314
  C       5.216515     -0.588544     -0.251235
  H      -5.030626     -3.093241     -0.422222
  H      -4.071110     -4.218562      0.569348
  H      -4.249668     -2.522973      1.074725
  H      -2.933892     -1.780094     -0.951095
  H      -2.756404     -3.475606     -1.451257
  H      -0.863996      0.656093     -1.797335
  H      -1.516533     -0.120347      2.131774
  H      -4.238903      1.569123      0.753697
  H      -4.117116     -0.196656      0.892112
  H      -5.171336     -0.444275     -1.393505
  H      -6.236036      0.474592     -0.304085
  H      -5.275710      1.324399     -1.538685
  H      -1.282945      3.065529     -0.712306
  H      -2.881467      3.176507      0.041791
  H      -0.233233      4.131311      1.311052
  H      -1.510040      5.178253      0.644072
  H      -1.824985      4.205905      2.101701
  H       0.637009      2.116861     -0.385480
  H       2.338727      0.602107      2.455182
  H       2.307046      2.136723      1.500008
  H       1.770692     -1.265983     -2.106871
  H       3.366168     -0.496716     -2.331048
  H       1.310132      0.962822     -2.525983
  H       3.373816      1.747801     -0.784039
  H       4.196957     -2.536919      1.413672
  H       2.818779     -1.639662      2.063830
  H       4.491571     -1.107759      2.437789
  H       5.208332      0.101781     -1.101590
  H       5.966827     -0.237930      0.465958
  H       5.499391     -1.585794     -0.606202
>
55
-1587.37293006; 31P isotropic shielding: 102.004879 ppm
  C      -4.135991     -3.189287      0.203796
  C      -2.891189     -2.814575     -0.590940
  O      -1.710220     -2.993571      0.251867
  P      -0.675704     -1.805330      0.699446
  O      -0.401295     -1.080596     -0.808876
  C      -0.553013      0.350695     -0.792525
  C      -1.710707      0.635595      0.226854
  N      -1.684867     -0.456168      1.181611
  O      -2.901241      0.647894     -0.570806
  C      -4.144857      0.627251      0.170479
  C      -5.276211      0.476371     -0.836349
  O      -1.576349      1.839141      0.976555
  C      -1.823471      3.070767      0.255627
  C      -1.331142      4.212015      1.133726
  C       0.782739      1.030600     -0.446864
  O       1.148496      0.528754      0.855052
  C       2.309262      1.037436      1.456795
  O       3.530139      0.749618      0.756703
  C       3.831797     -0.653753      0.427461
  O       2.837981     -1.217758     -0.417414
  C       2.491926     -0.570129     -1.656235
  C       1.845774      0.832884     -1.569520
  O       2.811594      1.900760     -1.570319
  C       3.826646     -1.531647      1.680178
  C       5.210713     -0.580506     -0.238296
  H      -5.032030     -3.097817     -0.426099
  H      -4.071680     -4.223663      0.563954
  H      -4.251239     -2.528676      1.071263
  H      -2.936296     -1.782942     -0.954374
  H      -2.757115     -3.478081     -1.455459
  H      -0.868180      0.656983     -1.796702
  H      -1.526811     -0.124339      2.129937
  H      -4.252028      1.559975      0.746088
  H      -4.124346     -0.205465      0.885377
  H      -5.172604     -0.456815     -1.403106
  H      -6.242861      0.458192     -0.315876
  H      -5.282642      1.311551     -1.548084
  H      -1.298108      3.064093     -0.710947
  H      -2.897266      3.170762      0.042555
  H      -0.251745      4.131679      1.312837
  H      -1.531762      5.175403      0.647065
  H      -1.843553      4.200895      2.103886
  H       0.628091      2.118831     -0.379533
  H       2.325268      0.601640      2.463033
  H       2.293515      2.138035      1.510718
  H       1.770733     -1.260465     -2.102927
  H       3.365703     -0.488539     -2.321465
  H       1.307702      0.968059     -2.519873
  H       3.366105      1.754091     -0.771938
  H       4.478375     -1.102212      2.449672
  H       4.193685     -2.531256      1.422990
  H       2.809120     -1.640387      2.068671
  H       5.959581     -0.232610      0.481772
  H       5.494535     -1.576369     -0.596426
  H       5.204345      0.113084     -1.086016
>
55
-1587.37290801; 31P isotropic shielding: 102.023568 ppm
  C      -2.798654     -3.548475     -1.601445
  C      -3.090256     -2.739619     -0.342890
  O      -1.994848     -2.896669      0.613659
  P      -0.871327     -1.756073      0.961763
  O      -0.578065     -1.163254     -0.602042
  C      -0.664585      0.270397     -0.703492
  C      -1.771301      0.698618      0.322422
  N      -1.764445     -0.308744      1.363211
  O      -2.987782      0.706436     -0.435595
  C      -4.204304      0.783336      0.347798
  C      -5.375777      0.708500     -0.620777
  O      -1.551031      1.952169      0.961483
  C      -1.772023      3.129975      0.148031
  C      -1.180198      4.313533      0.899789
  C       0.712199      0.911133     -0.461856
  O       1.105550      0.511497      0.865881
  C       2.275248      1.079036      1.395038
  O       3.477878      0.773013      0.672928
  C       3.823674     -0.644261      0.459308
  O       2.797254     -1.331192     -0.240580
  C       2.353154     -0.854117     -1.526270
  C       1.725074      0.557413     -1.593537
  O       2.698491      1.602412     -1.774393
  C       3.957960     -1.384821      1.791016
  C       5.143689     -0.581596     -0.317802
  H      -3.651918     -3.492770     -2.292629
  H      -1.911075     -3.154232     -2.109370
  H      -2.622632     -4.603003     -1.354667
  H      -3.989164     -3.108137      0.168710
  H      -3.227421     -1.680305     -0.581028
  H      -0.999896      0.506087     -1.720146
  H      -1.559657      0.085564      2.277683
  H      -4.221512      1.724961      0.918314
  H      -4.220094     -0.044791      1.069344
  H      -5.344497      1.534825     -1.342193
  H      -5.359703     -0.235645     -1.179363
  H      -6.323634      0.766673     -0.069539
  H      -1.296210      3.012667     -0.836998
  H      -2.848846      3.268815     -0.024273
  H      -0.098408      4.191011      1.035280
  H      -1.357086      5.241609      0.340661
  H      -1.642741      4.412195      1.889868
  H       0.606647      2.007064     -0.491299
  H       2.332221      0.710313      2.426257
  H       2.236798      2.180511      1.377753
  H       1.593008     -1.586779     -1.812117
  H       3.171211     -0.883724     -2.262864
  H       1.150812      0.573594     -2.532035
  H       3.258251      1.586505     -0.966341
  H       4.648676     -0.852654      2.454843
  H       4.347024     -2.392381      1.607924
  H       2.981239     -1.487933      2.274359
  H       5.457583     -1.597086     -0.584122
  H       5.033567      0.008233     -1.233803
  H       5.922078     -0.116833      0.297343
>
55
-1587.37340923; 31P isotropic shielding: 98.911509 ppm
  C      -2.573000     -3.660555     -1.743205
  C      -3.043305     -2.743465     -0.620803
  O      -2.119199     -2.829975      0.510266
  P      -1.007398     -1.701256      0.931349
  O      -0.620197     -1.131020     -0.618179
  C      -0.689107      0.299563     -0.749926
  C      -1.814262      0.772794      0.239885
  N      -1.876384     -0.226444      1.293039
  O      -3.009880      0.823499     -0.543165
  C      -4.224407      1.113709      0.208261
  C      -5.125926     -0.107590      0.353640
  O      -1.554672      2.018173      0.880459
  C      -1.706043      3.203807      0.061037
  C      -1.022654      4.349567      0.793680
  C       0.691981      0.921991     -0.484410
  O       1.040486      0.541268      0.861382
  C       2.199696      1.106742      1.414871
  O       3.419393      0.776717      0.733099
  C       3.757215     -0.647573      0.557208
  O       2.743118     -1.339882     -0.155258
  C       2.340079     -0.887398     -1.463341
  C       1.730477      0.528893     -1.579734
  O       2.721094      1.558446     -1.757394
  C       3.848997     -1.361668      1.907224
  C       5.098266     -0.613711     -0.184462
  H      -2.463215     -4.691489     -1.383948
  H      -3.304429     -3.655955     -2.564084
  H      -1.607111     -3.321523     -2.135425
  H      -4.020286     -3.057984     -0.232513
  H      -3.120774     -1.706878     -0.962080
  H      -0.995363      0.519293     -1.779372
  H      -1.637516      0.170454      2.199163
  H      -4.736290      1.905141     -0.357023
  H      -3.958324      1.518382      1.192611
  H      -6.068627      0.189203      0.835658
  H      -5.367308     -0.535623     -0.627140
  H      -4.646883     -0.875914      0.967995
  H      -1.257189      3.045852     -0.930291
  H      -2.773424      3.416208     -0.093294
  H      -1.150377      5.284511      0.232552
  H      -1.457917      4.483172      1.791977
  H       0.051508      4.158377      0.908729
  H       0.609267      2.018380     -0.539611
  H       2.223107      0.755574      2.453476
  H       2.172508      2.208226      1.378574
  H       1.580299     -1.618340     -1.754325
  H       3.178118     -0.942204     -2.175678
  H       1.182320      0.530505     -2.533907
  H       3.256240      1.556918     -0.932718
  H       4.523759     -0.819706      2.579479
  H       4.236722     -2.375067      1.756254
  H       2.858125     -1.448656      2.364130
  H       5.021404     -0.040637     -1.114473
  H       5.864896     -0.146204      0.443270
  H       5.407592     -1.637551     -0.422911
>
55
-1587.36997428; 31P isotropic shielding: 96.854134 ppm
  C      -2.605536     -3.789132     -1.695643
  C      -2.973452     -2.859117     -0.545820
  O      -1.956453     -2.947111      0.501620
  P      -0.873727     -1.777540      0.883790
  O      -0.540608     -1.198654     -0.675245
  C      -0.647149      0.232691     -0.794721
  C      -1.800694      0.651066      0.187410
  N      -1.802786     -0.339215      1.241148
  O      -2.993726      0.618291     -0.614840
  C      -4.257184      0.431305      0.075242
  C      -4.835172      1.699299      0.704776
  O      -1.616398      1.918100      0.810716
  C      -1.759597      3.081213     -0.041917
  C      -1.150361      4.261868      0.700169
  C       0.713759      0.891209     -0.510904
  O       1.062055      0.513239      0.835883
  C       2.206272      1.099019      1.399511
  O       3.437483      0.793981      0.726741
  C       3.802669     -0.622344      0.545350
  O       2.809988     -1.327555     -0.185271
  C       2.412155     -0.869766     -1.492883
  C       1.771837      0.533684     -1.600277
  O       2.740104      1.587302     -1.757866
  C       3.890190     -1.345302      1.890705
  C       5.151380     -0.558744     -0.180086
  H      -2.478277     -4.819066     -1.339474
  H      -3.399080     -3.780643     -2.456441
  H      -1.669695     -3.462322     -2.163824
  H      -3.919078     -3.159482     -0.075537
  H      -3.063676     -1.825890     -0.894177
  H      -0.948714      0.452383     -1.825350
  H      -1.626630      0.071478      2.154322
  H      -4.134586     -0.350744      0.835086
  H      -4.928907      0.054280     -0.706015
  H      -5.821840      1.469938      1.132119
  H      -4.194699      2.075948      1.510092
  H      -4.969610      2.492007     -0.041800
  H      -1.251498      2.917449     -1.003348
  H      -2.820352      3.254479     -0.260058
  H      -0.079958      4.103062      0.881510
  H      -1.270027      5.179882      0.109964
  H      -1.645565      4.406737      1.668530
  H       0.603040      1.985182     -0.559646
  H       2.228570      0.745502      2.437338
  H       2.158749      2.199801      1.365436
  H       1.671868     -1.613806     -1.800288
  H       3.258854     -0.898217     -2.196505
  H       1.232422      0.532924     -2.559413
  H       3.271252      1.585322     -0.930610
  H       4.551501     -0.800238      2.573754
  H       4.291792     -2.352618      1.735616
  H       2.896054     -1.448311      2.337088
  H       5.485793     -1.575096     -0.416561
  H       5.072404      0.014462     -1.109854
  H       5.900244     -0.075590      0.457160
>
55
-1587.37026130; 31P isotropic shielding: 100.491596 ppm
  C      -2.613928     -3.797616     -1.678351
  C      -2.975809     -2.850728     -0.540599
  O      -1.958610     -2.933446      0.507881
  P      -0.874617     -1.764083      0.886055
  O      -0.542926     -1.189031     -0.675061
  C      -0.647086      0.242927     -0.795423
  C      -1.802600      0.661004      0.183430
  N      -1.801027     -0.323795      1.242727
  O      -2.995442      0.616535     -0.617591
  C      -4.257593      0.428022      0.074930
  C      -4.836483      1.694227      0.707620
  O      -1.626408      1.933272      0.800649
  C      -1.783604      3.090737     -0.056688
  C      -1.338165      4.305322      0.744484
  C       0.714897      0.897880     -0.506411
  O       1.060054      0.513212      0.839496
  C       2.207092      1.090444      1.407123
  O       3.437151      0.783488      0.734135
  C       3.796343     -0.634008      0.546271
  O       2.801262     -1.330762     -0.187787
  C       2.406609     -0.865799     -1.494063
  C       1.773195      0.541177     -1.595979
  O       2.746208      1.591182     -1.747561
  C       3.880068     -1.362816      1.888717
  C       5.145927     -0.572765     -0.177954
  H      -3.407039     -3.793091     -2.439672
  H      -1.675739     -3.483222     -2.150379
  H      -2.494060     -4.823948     -1.309514
  H      -3.923273     -3.138650     -0.066398
  H      -3.057847     -1.821227     -0.901516
  H      -0.945732      0.462919     -1.826760
  H      -1.613390      0.091267      2.151689
  H      -4.132869     -0.354370      0.833995
  H      -4.929748      0.050939     -0.705849
  H      -4.978713      2.487244     -0.037161
  H      -5.819820      1.460745      1.140469
  H      -4.193124      2.072922      1.509513
  H      -1.177526      2.978168     -0.967898
  H      -2.829877      3.184115     -0.370474
  H      -1.939101      4.406079      1.656834
  H      -0.283232      4.221430      1.034143
  H      -1.462250      5.217063      0.145666
  H       0.607220      1.992346     -0.548757
  H       2.226304      0.730994      2.442991
  H       2.164520      2.191555      1.379002
  H       1.662586     -1.604751     -1.804464
  H       3.253749     -0.896367     -2.197028
  H       1.235367      0.547102     -2.555956
  H       3.275534      1.584175     -0.919253
  H       4.539006     -0.820486      2.576200
  H       4.283364     -2.369071      1.730753
  H       2.884599     -1.468706      2.331431
  H       5.898153     -0.101476      0.464192
  H       5.472924     -1.589242     -0.424138
  H       5.071504      0.009863     -1.102210
>
55
-1587.37042258; 31P isotropic shielding: 101.070108 ppm
  C      -4.069718     -3.670982     -0.523851
  C      -2.862054     -2.784299     -0.786946
  O      -1.954171     -2.893832      0.354869
  P      -0.877447     -1.750434      0.825027
  O      -0.484812     -1.127409     -0.699924
  C      -0.580208      0.304507     -0.791297
  C      -1.721313      0.731895      0.202293
  N      -1.793070     -0.309925      1.211480
  O      -2.907471      0.815014     -0.594253
  C      -4.130676      1.083809      0.149664
  C      -5.037092     -0.138959      0.244944
  O      -1.474299      1.950430      0.898768
  C      -1.626018      3.172054      0.134930
  C      -0.939349      4.281923      0.918238
  C       0.789297      0.939669     -0.497208
  O       1.132635      0.523780      0.839403
  C       2.279146      1.088299      1.418729
  O       3.509080      0.795157      0.737591
  C       3.868475     -0.618485      0.522855
  O       2.869324     -1.304025     -0.216922
  C       2.468346     -0.819849     -1.514254
  C       1.841674      0.591556     -1.594920
  O       2.820556      1.638329     -1.733450
  C       3.960902     -1.370511      1.851851
  C       5.213637     -0.543869     -0.208356
  H      -4.753116     -3.641947     -1.384076
  H      -3.760536     -4.711429     -0.363687
  H      -4.618875     -3.334678      0.364056
  H      -3.147754     -1.738248     -0.934285
  H      -2.313877     -3.115856     -1.678648
  H      -0.883451      0.547781     -1.816294
  H      -1.602763      0.055760      2.141836
  H      -4.634055      1.893786     -0.396615
  H      -3.877802      1.457006      1.149893
  H      -5.260863     -0.540666     -0.751037
  H      -4.572344     -0.924120      0.848769
  H      -5.988730      0.146064      0.716404
  H      -1.181099      3.060342     -0.864412
  H      -2.693605      3.393485     -0.005703
  H      -1.370880      4.368598      1.923288
  H       0.134975      4.084478      1.020676
  H      -1.067848      5.242463      0.402375
  H       0.693295      2.036068     -0.521321
  H       2.299661      0.707063      2.446710
  H       2.237500      2.189911      1.413914
  H       1.718807     -1.551084     -1.829883
  H       3.311054     -0.844898     -2.222798
  H       1.301665      0.613802     -2.553435
  H       3.348103      1.618517     -0.904109
  H       4.362966     -2.373842      1.673656
  H       2.968317     -1.483923      2.299153
  H       4.624202     -0.840134      2.544447
  H       5.132749      0.053516     -1.122544
  H       5.969182     -0.082048      0.436787
  H       5.540346     -1.555809     -0.472881
>
55
-1587.36940540; 31P isotropic shielding: 97.811132 ppm
  C      -4.038781     -3.500558     -0.127252
  C      -2.762054     -2.938236     -0.737439
  O      -1.683394     -3.033408      0.244759
  P      -0.682197     -1.816795      0.692433
  O      -0.379135     -1.137503     -0.830274
  C      -0.542600      0.292492     -0.861341
  C      -1.730524      0.597474      0.120970
  N      -1.710628     -0.460167      1.109012
  O      -2.906448      0.568976     -0.706700
  C      -4.174160      0.301685     -0.052648
  C      -4.823269      1.519864      0.605717
  O      -1.614327      1.827014      0.830613
  C      -1.787148      3.038392      0.055041
  C      -1.293819      4.195273      0.912132
  C       0.785385      0.984578     -0.507082
  O       1.119403      0.533928      0.821543
  C       2.255648      1.083293      1.434500
  O       3.498550      0.794224      0.775540
  C       3.837538     -0.614793      0.512815
  O       2.870761     -1.238203     -0.321109
  C       2.538004     -0.658451     -1.596966
  C       1.876053      0.739963     -1.594901
  O       2.831890      1.816109     -1.629346
  C       3.832908     -1.437038      1.802996
  C       5.225857     -0.538856     -0.132798
  H      -3.889865     -4.536806      0.200987
  H      -4.350176     -2.906099      0.740429
  H      -4.850669     -3.485565     -0.868006
  H      -2.886081     -1.899025     -1.057796
  H      -2.446708     -3.526717     -1.609387
  H      -0.834447      0.565632     -1.881923
  H      -1.576972     -0.097811      2.049736
  H      -4.030614     -0.498300      0.683846
  H      -4.812301     -0.080321     -0.859253
  H      -4.218894      1.893377      1.439757
  H      -4.974080      2.332367     -0.116017
  H      -5.808956      1.233054      0.999172
  H      -1.220615      2.977997     -0.885870
  H      -2.843735      3.164668     -0.209547
  H      -1.440136      5.145460      0.381953
  H      -1.848507      4.238011      1.857818
  H      -0.226804      4.087520      1.143599
  H       0.635748      2.074740     -0.486511
  H       2.253127      0.683093      2.455506
  H       2.219716      2.184701      1.449118
  H       1.832342     -1.379043     -2.019740
  H       3.422095     -0.600444     -2.250918
  H       1.359223      0.821051     -2.563018
  H       3.364260      1.721926     -0.808315
  H       4.467761     -0.962359      2.559882
  H       4.220540     -2.439943      1.593485
  H       2.813342     -1.547577      2.185524
  H       5.541366     -1.543699     -0.435034
  H       5.217878      0.110490     -1.014794
  H       5.952148     -0.135734      0.581501
>
55
-1587.36963319; 31P isotropic shielding: 102.074134 ppm
  C      -4.031591     -3.487487     -0.098370
  C      -2.757679     -2.929886     -0.718817
  O      -1.674803     -3.016503      0.259211
  P      -0.670621     -1.798386      0.695185
  O      -0.376264     -1.125842     -0.833035
  C      -0.532914      0.305193     -0.864102
  C      -1.720538      0.612498      0.115742
  N      -1.695206     -0.437706      1.112462
  O      -2.897411      0.568440     -0.709250
  C      -4.163566      0.308668     -0.048168
  C      -4.812998      1.535032      0.595406
  O      -1.613388      1.849074      0.817012
  C      -1.806629      3.055728      0.039274
  C      -1.640943      4.232243      0.990087
  C       0.798740      0.990016     -0.507435
  O       1.129299      0.536959      0.821407
  C       2.272866      1.072616      1.433347
  O       3.511666      0.765803      0.775060
  C       3.830211     -0.647523      0.511095
  O       2.857679     -1.254532     -0.328411
  C       2.537146     -0.664675     -1.602580
  C       1.888939      0.740215     -1.594789
  O       2.855402      1.806862     -1.622034
  C       3.808067     -1.472700      1.799302
  C       5.222106     -0.591547     -0.128917
  H      -4.846634     -3.478714     -0.835776
  H      -3.881030     -4.520990      0.237687
  H      -4.339580     -2.886231      0.765818
  H      -2.883121     -1.893581     -1.047679
  H      -2.446233     -3.526004     -1.587012
  H      -0.821860      0.581795     -1.884731
  H      -1.548768     -0.067725      2.048375
  H      -4.016970     -0.480436      0.699214
  H      -4.803071     -0.085348     -0.847837
  H      -4.965640      2.338971     -0.135497
  H      -5.797862      1.252191      0.993633
  H      -4.207748      1.918700      1.423858
  H      -1.068828      3.108169     -0.776264
  H      -2.801728      3.050605     -0.419195
  H      -1.783675      5.175983      0.447656
  H      -2.380671      4.181919      1.798649
  H      -0.639581      4.237900      1.438285
  H       0.655710      2.080928     -0.485608
  H       2.265006      0.673943      2.454976
  H       2.251033      2.174371      1.446239
  H       1.826615     -1.375897     -2.033029
  H       3.424915     -0.611383     -2.251955
  H       1.374017      0.831429     -2.563036
  H       3.388578      1.700167     -0.803052
  H       4.181882     -2.480627      1.588855
  H       2.785370     -1.569414      2.177212
  H       4.446562     -1.009012      2.559945
  H       5.951690     -0.201357      0.589183
  H       5.523034     -1.600479     -0.432380
  H       5.227718      0.059866     -1.009418
>
55
-1587.36980549; 31P isotropic shielding: 102.522557 ppm
  C      -3.567964     -3.318296     -1.766690
  C      -3.608939     -2.489207     -0.488909
  O      -2.554075     -2.934638      0.421436
  P      -1.211863     -2.072133      0.801676
  O      -0.823739     -1.457772     -0.726607
  C      -0.647831     -0.025659     -0.758670
  C      -1.611922      0.546510      0.331974
  N      -1.780421     -0.503720      1.309977
  O      -2.823457      0.862486     -0.365264
  C      -3.974747      1.116045      0.475474
  C      -5.157827      1.387667     -0.442699
  O      -1.111675      1.688618      1.034630
  C      -1.121166      2.935665      0.293219
  C      -0.304631      3.945264      1.087418
  C       0.835631      0.313486     -0.527456
  O       1.259884     -0.331377      0.690424
  C       1.959047      0.487629      1.606142
  O       3.171681      1.034093      1.093463
  C       4.216623      0.119702      0.676797
  O       3.846923     -0.592042     -0.519759
  C       3.204940      0.164400     -1.555765
  C       1.709686     -0.183619     -1.694587
  O       1.200878      0.480148     -2.880195
  C       4.506962     -0.973456      1.707560
  C       5.428566      1.024524      0.425318
  H      -4.401454     -3.037529     -2.426534
  H      -2.626403     -3.146450     -2.301434
  H      -3.652251     -4.388590     -1.540075
  H      -4.554361     -2.633220      0.051049
  H      -3.486929     -1.424103     -0.709577
  H      -0.949422      0.320421     -1.750703
  H      -1.548448     -0.216469      2.256154
  H      -3.776577      1.978146      1.131588
  H      -4.152274      0.241629      1.116618
  H      -5.353188      0.524245     -1.090846
  H      -6.059438      1.582886      0.152920
  H      -4.969099      2.260247     -1.080690
  H      -0.697422      2.786222     -0.710644
  H      -2.155776      3.281408      0.162584
  H      -0.334552      4.923660      0.590130
  H      -0.711862      4.061062      2.099805
  H       0.744017      3.633868      1.169499
  H       0.956894      1.401124     -0.445683
  H       2.135821     -0.153675      2.478542
  H       1.363875      1.366648      1.886182
  H       3.704473     -0.096122     -2.501901
  H       3.309657      1.246203     -1.403305
  H       1.590489     -1.274171     -1.770814
  H       1.508869     -0.012357     -3.660196
  H       4.732346     -0.528556      2.683874
  H       5.373512     -1.557746      1.379408
  H       3.657287     -1.656927      1.798140
  H       5.178478      1.807594     -0.299269
  H       5.743218      1.509839      1.356395
  H       6.257955      0.426991      0.031176
>
55
-1587.37532978; 31P isotropic shielding: 103.187334 ppm
  C      -2.850673     -3.452154     -1.676790
  C      -3.118566     -2.680620     -0.389853
  O      -2.013918     -2.880096      0.548290
  P      -0.874079     -1.763025      0.918921
  O      -0.597701     -1.119900     -0.627953
  C      -0.676527      0.317053     -0.681189
  C      -1.761942      0.719568      0.377229
  N      -1.746291     -0.322328      1.383474
  O      -2.990824      0.762689     -0.359385
  C      -4.193449      0.823755      0.446449
  C      -5.381884      0.784338     -0.503352
  O      -1.520306      1.948371      1.055129
  C      -1.747504      3.156263      0.288921
  C      -1.144807      4.308992      1.079017
  C       0.708420      0.940653     -0.443783
  O       1.121909      0.499997      0.864765
  C       2.300131      1.052136      1.391808
  O       3.490554      0.771394      0.639697
  C       3.835585     -0.638363      0.379414
  O       2.796105     -1.308831     -0.316583
  C       2.326372     -0.800520     -1.581385
  C       1.699575      0.613133     -1.602561
  O       2.671345      1.660943     -1.776065
  C       4.001336     -1.414328      1.687265
  C       5.138887     -0.550418     -0.423427
  H      -3.711598     -3.364486     -2.355115
  H      -1.964893     -3.051903     -2.183166
  H      -2.684058     -4.516021     -1.466303
  H      -4.015560     -3.055536      0.120330
  H      -3.246324     -1.612782     -0.592810
  H      -1.027971      0.587486     -1.683649
  H      -1.522582      0.039233      2.306983
  H      -4.194939      1.748403      1.044356
  H      -4.202507     -0.024677      1.144091
  H      -5.355987      1.629370     -1.203006
  H      -5.383948     -0.144620     -1.087030
  H      -6.319575      0.835626      0.065697
  H      -1.282806      3.075995     -0.705193
  H      -2.825718      3.303800      0.133852
  H      -1.595774      4.369403      2.077436
  H      -0.061695      4.180124      1.197154
  H      -1.326586      5.258393      0.558627
  H       0.609650      2.037665     -0.439691
  H       2.374955      0.651011      2.409708
  H       2.259925      2.153516      1.410188
  H       1.559394     -1.525117     -1.869330
  H       3.129390     -0.813423     -2.334763
  H       1.108515      0.652773     -2.529777
  H       3.242452      1.627965     -0.976590
  H       3.035446     -1.539789      2.186872
  H       4.700485     -0.894527      2.352043
  H       4.395523     -2.412909      1.469075
  H       5.009649      0.067822     -1.317845
  H       5.930438     -0.105156      0.189362
  H       5.446552     -1.556943     -0.728261
>
55
-1587.37342578; 31P isotropic shielding: 98.994026 ppm
  C      -4.788402     -2.790538     -0.023423
  C      -3.491018     -2.559828     -0.787732
  O      -2.370905     -3.061186      0.006585
  P      -1.074573     -2.176612      0.481346
  O      -0.691244     -1.409107     -0.975515
  C      -0.560521      0.023750     -0.865900
  C      -1.570111      0.459041      0.246828
  N      -1.728761     -0.686002      1.116501
  O      -2.773679      0.802078     -0.450801
  C      -3.947625      0.966933      0.379521
  C      -5.138461      1.169630     -0.546633
  O      -1.125255      1.542948      1.068270
  C      -1.152119      2.853933      0.447440
  C      -0.402802      3.809192      1.365590
  C       0.904877      0.382149     -0.558899
  O       1.312744     -0.363160      0.606140
  C       1.967304      0.382561      1.612556
  O       3.184921      0.990609      1.189362
  C       4.254518      0.131718      0.721629
  O       3.934613     -0.462515     -0.550837
  C       3.307490      0.382646     -1.525686
  C       1.824113      0.023466     -1.742393
  O       1.335882      0.795413     -2.870368
  C       4.526111     -1.054882      1.649468
  C       5.463921      1.066992      0.602754
  H      -5.647836     -2.465390     -0.626570
  H      -4.916853     -3.853853      0.214752
  H      -4.790389     -2.224904      0.916314
  H      -3.340464     -1.500636     -1.019628
  H      -3.481001     -3.121956     -1.731012
  H      -0.845968      0.455584     -1.828617
  H      -1.525864     -0.480106      2.090422
  H      -3.815763      1.833239      1.046985
  H      -4.072472      0.075690      1.008772
  H      -6.055175      1.303390      0.042821
  H      -4.999723      2.057466     -1.176307
  H      -5.274031      0.301118     -1.202479
  H      -0.686038      2.816230     -0.548191
  H      -2.192809      3.177126      0.308113
  H      -0.849338      3.811286      2.367933
  H       0.653534      3.527917      1.457602
  H      -0.452689      4.829613      0.963568
  H       0.991021      1.459947     -0.371154
  H       2.128594     -0.329886      2.431169
  H       1.347238      1.223919      1.948990
  H       3.837575      0.226665     -2.477873
  H       3.387921      1.445303     -1.263260
  H       1.730866     -1.055500     -1.931917
  H       1.629644      0.358837     -3.688006
  H       5.412538     -1.591934      1.294976
  H       3.685099     -1.754898      1.642350
  H       4.711921     -0.706690      2.672327
  H       6.312560      0.517007      0.181261
  H       5.232627      1.917196     -0.049008
  H       5.741856      1.459790      1.587666
>
55
-1587.37496438; 31P isotropic shielding: 105.177958 ppm
  C      -4.863888     -2.718544     -0.093795
  C      -3.562119     -2.507124     -0.855948
  O      -2.455043     -3.063770     -0.079940
  P      -1.134430     -2.234646      0.422805
  O      -0.729423     -1.429206     -1.011724
  C      -0.550378     -0.006153     -0.846899
  C      -1.551190      0.421810      0.275945
  N      -1.741189     -0.745898      1.110226
  O      -2.744006      0.810727     -0.416063
  C      -3.914391      0.991082      0.417444
  C      -5.097129      1.253099     -0.503688
  O      -1.084750      1.469952      1.127458
  C      -1.070758      2.798109      0.542305
  C      -0.307618      3.710119      1.492324
  C       0.924249      0.296142     -0.540245
  O       1.313216     -0.428794      0.646813
  C       1.943804      0.346789      1.652078
  O       3.077222      1.077934      1.197099
  C       4.242790      0.338851      0.742361
  O       3.974084     -0.382129     -0.468946
  C       3.307004      0.317168     -1.531766
  C       1.849790     -0.148087     -1.697121
  O       1.402876      0.434147     -2.947637
  C       4.696750     -0.731099      1.738952
  C       5.309683      1.420495      0.531944
  H      -5.714543     -2.354345     -0.686911
  H      -5.022585     -3.783131      0.118766
  H      -4.847473     -2.175876      0.859193
  H      -3.379636     -1.447268     -1.059974
  H      -3.571717     -3.044428     -1.813633
  H      -0.833275      0.473957     -1.788796
  H      -1.509713     -0.578258      2.085425
  H      -3.756403      1.836138      1.105758
  H      -4.066309      0.089048      1.024883
  H      -6.009399      1.401784      0.088964
  H      -4.930237      2.150987     -1.111972
  H      -5.260452      0.405378     -1.180073
  H      -0.593330      2.774064     -0.448280
  H      -2.101390      3.150562      0.399769
  H      -0.338070      4.742835      1.120859
  H      -0.759367      3.690638      2.492168
  H       0.743029      3.407782      1.579174
  H       1.049317      1.375572     -0.390901
  H       2.202888     -0.372327      2.438800
  H       1.263372      1.116030      2.038436
  H       3.840035      0.082716     -2.462275
  H       3.331814      1.405547     -1.387551
  H       1.830994     -1.244894     -1.746949
  H       0.782872     -0.188190     -3.363899
  H       5.647886     -1.156663      1.401426
  H       3.968557     -1.546177      1.796917
  H       4.839901     -0.290595      2.732447
  H       5.550615      1.906390      1.484320
  H       6.217003      0.965885      0.119220
  H       4.950560      2.189863     -0.160090
>
55
-1587.37475407; 31P isotropic shielding: 103.051033 ppm
  C      -1.759773     -4.229308     -0.984894
  C      -2.244428     -3.683249      0.355987
  O      -2.382461     -2.236856      0.323187
  P      -1.048239     -1.336659      0.761958
  O      -0.602945     -0.784579     -0.770853
  C      -0.503279      0.652446     -0.852398
  C      -1.599622      1.220841      0.119196
  N      -1.804339      0.167418      1.133646
  O      -2.799683      1.546290     -0.589048
  C      -3.664674      0.466957     -1.040841
  C      -4.828551      0.233344     -0.081136
  O      -1.138958      2.420219      0.676363
  C      -2.105311      3.198988      1.442272
  C      -2.478150      4.473662      0.693687
  C       0.930413      1.114016     -0.549511
  O       1.212287      0.628334      0.782845
  C       2.443547      0.965129      1.360300
  O       3.596063      0.435523      0.681647
  C       3.658028     -1.011589      0.430322
  O       2.572662     -1.452997     -0.375421
  C       2.324183     -0.831167     -1.651861
  C       1.934752      0.665779     -1.653079
  O       3.074263      1.542263     -1.720151
  C       3.531486     -1.807445      1.730881
  C       5.019965     -1.203248     -0.248223
  H      -1.731788     -5.327869     -0.958092
  H      -2.430854     -3.917726     -1.794827
  H      -0.751155     -3.862802     -1.213518
  H      -1.553490     -3.969246      1.165316
  H      -3.240879     -4.069373      0.604671
  H      -0.764049      0.947150     -1.875593
  H      -1.617958      0.506042      2.073238
  H      -3.093031     -0.454024     -1.191219
  H      -4.034190      0.801548     -2.019580
  H      -5.515084     -0.515024     -0.502490
  H      -4.464668     -0.135728      0.882541
  H      -5.390279      1.163418      0.077757
  H      -2.994841      2.593198      1.649996
  H      -1.608306      3.435242      2.393966
  H      -2.994508      4.229139     -0.240558
  H      -3.138797      5.096514      1.313625
  H      -1.579205      5.057065      0.457291
  H       0.946500      2.214530     -0.543917
  H       2.392732      0.588001      2.389228
  H       2.617539      2.053092      1.353341
  H       1.486839     -1.411105     -2.050299
  H       3.187865     -0.947698     -2.324985
  H       1.421130      0.834446     -2.611665
  H       3.596870      1.360733     -0.907771
  H       3.726740     -2.866494      1.529191
  H       2.517275     -1.725794      2.134718
  H       4.257823     -1.448342      2.468878
  H       5.133945     -2.251160     -0.547576
  H       5.110180     -0.568262     -1.135840
  H       5.827206     -0.939084      0.443798
>
55
-1587.36506081; 31P isotropic shielding: 61.752720 ppm
  C      -3.661099     -3.268988     -1.820280
  C      -3.658670     -2.446427     -0.537639
  O      -2.605399     -2.932792      0.353208
  P      -1.246319     -2.109078      0.752644
  O      -0.849288     -1.459305     -0.763286
  C      -0.634678     -0.031440     -0.745882
  C      -1.593238      0.529193      0.355166
  N      -1.779197     -0.542984      1.308021
  O      -2.798833      0.872484     -0.339108
  C      -3.947568      1.130987      0.505043
  C      -5.125977      1.433277     -0.409312
  O      -1.081957      1.647457      1.082360
  C      -1.066215      2.909440      0.365444
  C      -0.241897      3.892145      1.184752
  C       0.854573      0.264083     -0.510194
  O       1.259539     -0.354368      0.730388
  C       1.942752      0.493168      1.637639
  O       3.094584      1.124748      1.089420
  C       4.212741      0.292368      0.681439
  O       3.883016     -0.516258     -0.457996
  C       3.211074      0.119365     -1.556798
  C       1.735540     -0.307494     -1.645955
  O       1.271365      0.182281     -2.929752
  C       4.637717     -0.708593      1.759212
  C       5.325640      1.296411      0.356168
  H      -4.492590     -2.957601     -2.468645
  H      -2.720618     -3.125636     -2.365473
  H      -3.776958     -4.337242     -1.598533
  H      -4.600923     -2.563509      0.014123
  H      -3.505001     -1.384477     -0.753120
  H      -0.934297      0.360599     -1.722768
  H      -1.510940     -0.287454      2.254073
  H      -3.736344      1.980290      1.173253
  H      -4.137395      0.250275      1.133675
  H      -6.024172      1.634893      0.189217
  H      -4.923826      2.311193     -1.035797
  H      -5.335559      0.581807     -1.068749
  H      -0.634895      2.772701     -0.636955
  H      -2.094628      3.272111      0.232203
  H      -0.261004      4.881300      0.708647
  H      -0.652290      3.990088      2.197734
  H       0.803225      3.568903      1.262876
  H       1.006148      1.349781     -0.467360
  H       2.190020     -0.151129      2.490417
  H       1.302849      1.326300      1.955305
  H       3.708912     -0.207853     -2.478849
  H       3.276776      1.214163     -1.501080
  H       1.681317     -1.403387     -1.601264
  H       0.629160     -0.457187     -3.281013
  H       3.873136     -1.478534      1.902405
  H       4.825395     -0.191472      2.707391
  H       5.559463     -1.208135      1.442110
  H       5.613774      1.850379      1.256921
  H       6.199109      0.762039     -0.033426
  H       4.987848      2.020214     -0.393518
>
55
-1587.37514435; 31P isotropic shielding: 101.548689 ppm
  C      -1.931760     -4.115753     -0.930684
  C      -2.285750     -3.636924      0.474999
  O      -2.407815     -2.189968      0.529847
  P      -1.029750     -1.321369      0.882480
  O      -0.683938     -0.746878     -0.667675
  C      -0.590366      0.690866     -0.735983
  C      -1.620587      1.237622      0.314722
  N      -1.737807      0.185532      1.340860
  O      -2.876749      1.550834     -0.302605
  C      -3.876137      0.522263     -0.520702
  C      -3.733028     -0.166604     -1.877578
  O      -1.130219      2.443073      0.836882
  C      -2.043200      3.214380      1.671603
  C      -2.481268      4.485661      0.953001
  C       0.860593      1.148046     -0.523459
  O       1.231956      0.654335      0.784554
  C       2.504284      0.978736      1.272869
  O       3.600320      0.433229      0.517244
  C       3.621140     -1.013380      0.259720
  O       2.482864     -1.432515     -0.483363
  C       2.167528     -0.792996     -1.735844
  C       1.787138      0.706089     -1.695456
  O       2.925726      1.576429     -1.830026
  C       3.556728     -1.813139      1.562609
  C       4.937412     -1.228586     -0.497198
  H      -1.915379     -5.214416     -0.962421
  H      -2.669456     -3.757478     -1.659090
  H      -0.943428     -3.746709     -1.232199
  H      -1.528890     -3.971032      1.202960
  H      -3.260835     -4.027052      0.792598
  H      -0.919905      1.000731     -1.733972
  H      -1.428910      0.520315      2.249302
  H      -4.829476      1.064605     -0.467249
  H      -3.845912     -0.205718      0.296481
  H      -4.585181     -0.843133     -2.035440
  H      -3.728467      0.572281     -2.689866
  H      -2.816818     -0.763214     -1.924883
  H      -2.909413      2.601254      1.946265
  H      -1.478887      3.455340      2.583752
  H      -1.607046      5.073785      0.646051
  H      -3.067890      4.237227      0.062175
  H      -3.094803      5.105921      1.622048
  H       0.879249      2.248362     -0.511460
  H       2.522237      0.604923      2.304154
  H       2.689796      2.064498      1.250199
  H       1.306579     -1.363748     -2.094983
  H       2.991974     -0.903644     -2.457273
  H       1.211536      0.888290     -2.615445
  H       3.506310      1.373408     -1.063598
  H       2.573202     -1.708431      2.031687
  H       4.338059     -1.477844      2.254261
  H       3.710796     -2.875488      1.343534
  H       4.989837     -0.592978     -1.387537
  H       5.788232     -0.982651      0.147737
  H       5.013072     -2.277488     -0.805004
>
55
-1587.36552235; 31P isotropic shielding: 61.982345 ppm
  C      -4.065076     -3.706702     -0.565827
  C      -2.868249     -2.799161     -0.805908
  O      -1.974033     -2.903738      0.347128
  P      -0.908550     -1.754729      0.830043
  O      -0.509733     -1.122531     -0.689654
  C      -0.618358      0.308455     -0.777525
  C      -1.769323      0.722438      0.210499
  N      -1.836280     -0.322780      1.216613
  O      -2.951669      0.795881     -0.592335
  C      -4.182014      1.047903      0.145922
  C      -5.072696     -0.186814      0.237253
  O      -1.538085      1.941200      0.911736
  C      -1.699323      3.163853      0.151341
  C      -1.027521      4.277651      0.941943
  C       0.743198      0.955888     -0.473761
  O       1.082173      0.541426      0.864372
  C       2.220378      1.115084      1.451022
  O       3.457027      0.832062      0.777736
  C       3.828518     -0.578616      0.563169
  O       2.840014     -1.270402     -0.184768
  C       2.443860     -0.786862     -1.483847
  C       1.805735      0.619412     -1.565507
  O       2.776471      1.674705     -1.695388
  C       3.917155     -1.332041      1.891628
  C       5.178219     -0.492265     -0.158257
  H      -4.737454     -3.681195     -1.434805
  H      -3.741800     -4.743511     -0.409954
  H      -4.631252     -3.386506      0.317419
  H      -3.168616     -1.756614     -0.948658
  H      -2.303429     -3.114713     -1.693005
  H      -0.917823      0.552002     -1.803601
  H      -1.654233      0.041671      2.149049
  H      -4.693466      1.850901     -0.403070
  H      -3.938710      1.424440      1.147264
  H      -5.290249     -0.589142     -0.759838
  H      -4.598585     -0.967131      0.840061
  H      -6.028378      0.085215      0.708236
  H      -1.248858      3.060628     -0.846443
  H      -2.768532      3.374535      0.006703
  H      -1.463632      4.355007      1.945757
  H       0.048488      4.091329      1.047327
  H      -1.164637      5.239028      0.429855
  H       0.637100      2.051432     -0.496972
  H       2.237492      0.733945      2.479097
  H       2.169943      2.216340      1.446083
  H       1.702644     -1.523671     -1.805968
  H       3.291482     -0.803233     -2.186771
  H       1.271655      0.639281     -2.527397
  H       3.299877      1.656484     -0.863365
  H       4.573929     -0.799400      2.588678
  H       4.324877     -2.333208      1.714182
  H       2.922610     -1.450792      2.333139
  H       5.098619      0.104150     -1.073204
  H       5.924806     -0.023480      0.492254
  H       5.515895     -1.501310     -0.420078
