34
-1201.81424678; 31P isotropic shielding: 264.810540 ppm
  C       0.021349     -3.971189      0.945380
  C      -0.521156     -2.942784     -0.080563
  P      -0.044833     -1.219539      0.397673
  O      -0.402948     -0.809590      1.771057
  O       1.538472     -1.301206      0.032877
  C       2.298039     -0.107991      0.050992
  C       2.502670      0.583013      1.245981
  C       3.261066      1.758304      1.217028
  C       3.806219      2.223302      0.015066
  C       3.592608      1.509616     -1.170139
  C       2.830133      0.337479     -1.158410
  O      -0.647841     -0.321279     -0.802578
  C      -1.398309      0.856424     -0.553375
  C      -2.781296      0.760445     -0.427336
  C      -3.515725      1.934842     -0.231869
  C      -2.866877      3.173144     -0.164799
  C      -1.475007      3.240710     -0.294114
  C      -0.727042      2.075113     -0.489959
  C      -1.975784     -2.995596     -0.207143
  N      -3.134383     -3.020420     -0.288686
  H      -0.275815     -4.984072      0.652581
  H      -0.374436     -3.758473      1.943258
  H       1.114404     -3.917494      0.978437
  H      -0.083259     -3.122545     -1.073057
  H       2.057621      0.216143      2.166365
  H       3.423700      2.310645      2.140642
  H       4.396052      3.137653      0.001615
  H       4.013321      1.866914     -2.108202
  H       2.637201     -0.226105     -2.067965
  H      -3.265445     -0.211985     -0.474797
  H      -4.597596      1.877498     -0.127710
  H      -3.444131      4.082755     -0.010474
  H      -0.965993      4.201292     -0.239651
  H       0.355224      2.103977     -0.587527
>
34
-1201.81583936; 31P isotropic shielding: 256.696896 ppm
  C      -1.555278     -3.161386     -0.990597
  C      -0.983782     -2.818985      0.409291
  P      -0.582451     -1.027322      0.648863
  O      -0.126323     -0.648895      2.001382
  O       0.437842     -0.717514     -0.567350
  C       1.659373     -0.027141     -0.363262
  C       2.783977     -0.739118      0.044851
  C       3.991935     -0.049421      0.192374
  C       4.059521      1.324244     -0.066641
  C       2.913287      2.015788     -0.474607
  C       1.697704      1.340279     -0.624974
  O      -1.978046     -0.376981      0.128027
  C      -2.021872      1.017359     -0.107594
  C      -2.204021      1.447664     -1.420968
  C      -2.258359      2.820959     -1.679940
  C      -2.121653      3.741380     -0.634274
  C      -1.937135      3.286312      0.676208
  C      -1.888518      1.915877      0.951870
  C       0.236547     -3.573467      0.691478
  N       1.227632     -4.155252      0.861129
  H      -0.842492     -2.885737     -1.774107
  H      -2.490530     -2.617773     -1.150961
  H      -1.750550     -4.237431     -1.057715
  H      -1.723355     -3.049376      1.190894
  H       2.710120     -1.804342      0.250216
  H       4.879633     -0.590098      0.515180
  H       5.002310      1.854840      0.051854
  H       2.960482      3.084936     -0.673348
  H       0.793121      1.858313     -0.933471
  H      -2.290532      0.714161     -2.218753
  H      -2.400692      3.169424     -2.701201
  H      -2.159738      4.809224     -0.840218
  H      -1.828582      3.998711      1.491830
  H      -1.729877      1.541969      1.959335
>
34
-1201.81502840; 31P isotropic shielding: 260.445897 ppm
  C      -0.056642     -4.135091      0.253977
  C      -0.495141     -2.958845     -0.655871
  P      -0.108439     -1.331522      0.136212
  O      -0.633628     -1.139186      1.503629
  O       1.507511     -1.358295     -0.046214
  C       2.239923     -0.183432      0.244983
  C       2.886134      0.454264     -0.813068
  C       3.626812      1.611474     -0.552933
  C       3.705548      2.120058      0.748824
  C       3.046223      1.464812      1.794921
  C       2.307836      0.301700      1.551617
  O      -0.578789     -0.256372     -0.974432
  C      -1.383143      0.864141     -0.644026
  C      -2.768430      0.742385     -0.707668
  C      -3.549758      1.868944     -0.429902
  C      -2.944610      3.085762     -0.095664
  C      -1.549477      3.180022     -0.038090
  C      -0.754757      2.062264     -0.313105
  C      -1.923590     -2.990239     -0.961468
  N      -3.060935     -2.992726     -1.198099
  H      -0.293262     -5.089603     -0.228676
  H      -0.574326     -4.085518      1.216957
  H       1.022937     -4.083977      0.428764
  H       0.057908     -2.980569     -1.606026
  H       2.797279      0.048390     -1.817769
  H       4.136481      2.117643     -1.370628
  H       4.279142      3.023228      0.947320
  H       3.103483      1.858321      2.808047
  H       1.775364     -0.211492      2.347214
  H      -3.218920     -0.213907     -0.961973
  H      -4.634494      1.790546     -0.471887
  H      -3.558520      3.957895      0.120973
  H      -1.074987      4.123776      0.224528
  H       0.330266      2.111948     -0.269266
>
34
-1201.81581808; 31P isotropic shielding: 256.871986 ppm
  C      -1.193267     -3.550191     -0.123214
  C       0.010709     -2.586703      0.067347
  P      -0.535758     -1.080707      1.000941
  O      -1.346249     -1.387458      2.196840
  O       0.782692     -0.236494      1.402764
  C       1.819814      0.088533      0.496439
  C       3.000556     -0.649175      0.566854
  C       4.041882     -0.343501     -0.313470
  C       3.895663      0.691213     -1.242881
  C       2.710864      1.434169     -1.279237
  C       1.662425      1.141415     -0.402654
  O      -1.253488     -0.282291     -0.209543
  C      -1.845320      0.989387     -0.122727
  C      -2.284244      1.537248      1.085172
  C      -2.860414      2.812639      1.068486
  C      -3.001202      3.519516     -0.129997
  C      -2.561048      2.946248     -1.328851
  C      -1.977638      1.676522     -1.331181
  C       0.653751     -2.271422     -1.205548
  N       1.134107     -2.048460     -2.239633
  H      -1.642023     -3.770580      0.849934
  H      -0.850721     -4.481549     -0.587249
  H      -1.951383     -3.095787     -0.769158
  H       0.755654     -3.059379      0.725208
  H       3.092682     -1.448448      1.298962
  H       4.964435     -0.919425     -0.275111
  H       4.703810      0.920321     -1.934348
  H       2.596678      2.245492     -1.995566
  H       0.738879      1.712117     -0.421390
  H      -2.189663      0.975604      2.010424
  H      -3.204972      3.249561      2.003979
  H      -3.453048      4.509347     -0.131029
  H      -2.668525      3.487339     -2.267173
  H      -1.620739      1.212999     -2.247887
>
34
-1201.81392907; 31P isotropic shielding: 264.532840 ppm
  C      -1.126386     -3.566201      0.272241
  C       0.075864     -2.582609      0.237545
  P      -0.367147     -1.020078      1.132245
  O      -1.004478     -1.248948      2.444856
  O       0.978498     -0.140228      1.294464
  C       1.873686      0.147396      0.237200
  C       1.571934      1.146856     -0.685554
  C       2.484559      1.407593     -1.711445
  C       3.679821      0.685921     -1.798858
  C       3.974022     -0.294184     -0.845627
  C       3.069287     -0.567263      0.183767
  O      -1.254503     -0.314866     -0.022215
  C      -1.862263      0.949929      0.059085
  C      -2.157017      1.556726     -1.163511
  C      -2.767424      2.813709     -1.166582
  C      -3.073348      3.453652      0.040216
  C      -2.770961      2.826475      1.253024
  C      -2.165057      1.565013      1.276331
  C       0.539185     -2.348907     -1.127692
  N       0.874625     -2.189339     -2.228491
  H      -1.439766     -3.723350      1.308595
  H      -0.832360     -4.524338     -0.170083
  H      -1.969799     -3.162383     -0.296938
  H       0.909239     -3.003529      0.820228
  H       0.642631      1.702674     -0.605576
  H       2.256111      2.177613     -2.445821
  H       4.381384      0.889461     -2.605155
  H       4.905956     -0.853071     -0.904105
  H       3.278843     -1.323520      0.937015
  H      -1.901983      1.042566     -2.087159
  H      -3.001469      3.292604     -2.115628
  H      -3.546869      4.433284      0.034639
  H      -3.010881      3.315399      2.195457
  H      -1.944233      1.064342      2.214932
>
34
-1201.81392305; 31P isotropic shielding: 264.683518 ppm
  C      -0.032194     -3.960271     -0.693612
  C      -0.587567     -2.615567     -1.230185
  P      -0.035061     -1.206038     -0.164288
  O      -0.254124     -1.384528      1.286250
  O       1.495006     -1.116485     -0.697231
  C       2.366867     -0.104961     -0.233705
  C       2.614412      0.061089      1.130817
  C       3.522499      1.048238      1.529806
  C       4.171015      1.845335      0.580387
  C       3.906728      1.659829     -0.781547
  C       2.996321      0.683200     -1.196230
  O      -0.702123      0.101200     -0.841733
  C      -1.614456      0.937554     -0.151469
  C      -2.939750      0.954638     -0.577815
  C      -3.836129      1.820814      0.056747
  C      -3.403298      2.646449      1.100373
  C      -2.065690      2.609795      1.510462
  C      -1.157321      1.752182      0.882371
  C      -2.046185     -2.607577     -1.311731
  N      -3.206012     -2.593609     -1.375488
  H      -0.406414     -4.149802      0.316914
  H       1.061728     -3.923080     -0.665066
  H      -0.342719     -4.781191     -1.349264
  H      -0.190931     -2.411537     -2.235290
  H       2.098462     -0.562578      1.855132
  H       3.725065      1.187655      2.590132
  H       4.880359      2.606268      0.899525
  H       4.404827      2.278513     -1.525638
  H       2.767953      0.527870     -2.247909
  H      -3.260443      0.291570     -1.376624
  H      -4.876511      1.840229     -0.261993
  H      -4.106249      3.314725      1.593881
  H      -1.724617      3.248240      2.323260
  H      -0.115850      1.708630      1.189762
>
34
-1201.81589827; 31P isotropic shielding: 259.814147 ppm
  C      -1.923251     -3.133886      0.838186
  C      -0.905904     -2.457843     -0.116374
  P       0.224485     -1.336090      0.829779
  O       0.939197     -2.021394      1.925593
  O       1.103727     -0.777584     -0.408178
  C       2.160659      0.145064     -0.322723
  C       2.512495      0.768999     -1.521556
  C       3.555397      1.698895     -1.521953
  C       4.233041      2.001201     -0.335055
  C       3.865261      1.363341      0.853857
  C       2.826776      0.425285      0.872977
  O      -0.637159     -0.093200      1.398621
  C      -1.504310      0.716095      0.626410
  C      -2.874527      0.583292      0.845566
  C      -3.758351      1.375246      0.108213
  C      -3.268211      2.290089     -0.829132
  C      -1.888480      2.426904     -1.012803
  C      -0.992806      1.644200     -0.278875
  C      -1.544320     -1.815657     -1.262518
  N      -2.068905     -1.326156     -2.176293
  H      -2.634051     -2.404000      1.236233
  H      -1.386973     -3.597783      1.672120
  H      -2.484073     -3.903744      0.297378
  H      -0.216223     -3.222256     -0.507051
  H       1.967127      0.522247     -2.429463
  H       3.835797      2.187779     -2.453149
  H       5.043730      2.726913     -0.337967
  H       4.390869      1.588946      1.779911
  H       2.551559     -0.087530      1.790361
  H      -3.234346     -0.129684      1.583096
  H      -4.830343      1.271410      0.264271
  H      -3.958598      2.897800     -1.410344
  H      -1.501582      3.145491     -1.732755
  H       0.079095      1.750007     -0.412186
>
34
-1201.81359219; 31P isotropic shielding: 266.591838 ppm
  C      -1.990646     -3.089800      0.857783
  C      -0.946218     -2.446883     -0.090482
  P       0.187262     -1.328496      0.856005
  O       0.872752     -2.007346      1.974273
  O       1.095932     -0.805708     -0.376520
  C       2.165609      0.102090     -0.288779
  C       2.536627      0.712150     -1.488952
  C       3.593377      1.626294     -1.487118
  C       4.265646      1.926798     -0.296705
  C       3.878588      1.302877      0.893503
  C       2.826043      0.380551      0.910452
  O      -0.662678     -0.062412      1.390336
  C      -1.501963      0.749521      0.590657
  C      -0.957779      1.657862     -0.315494
  C      -1.825841      2.444834     -1.077572
  C      -3.211013      2.331683     -0.920517
  C      -3.734265      1.436781      0.018202
  C      -2.878238      0.640848      0.783525
  C      -1.554694     -1.812993     -1.257334
  N      -2.055717     -1.330171     -2.187735
  H      -2.694864     -2.341174      1.231910
  H      -1.476457     -3.549235      1.707958
  H      -2.555971     -3.858570      0.320119
  H      -0.263213     -3.228971     -0.457149
  H       1.994734      0.467392     -2.399477
  H       3.888679      2.104458     -2.419276
  H       5.087060      2.640358     -0.297880
  H       4.399876      1.527198      1.822310
  H       2.535166     -0.121624      1.828903
  H       0.118147      1.745697     -0.427479
  H      -1.412999      3.147955     -1.798378
  H      -3.879948      2.942327     -1.523331
  H      -4.810697      1.351583      0.153632
  H      -3.264395     -0.056573      1.522610
>
34
-1201.81357641; 31P isotropic shielding: 266.550727 ppm
  C      -0.078841     -3.569884     -0.074834
  C      -0.651015     -2.276643     -0.711507
  P       0.069453     -0.775519      0.100313
  O       0.003378     -0.767846      1.576518
  O       1.531304     -0.819387     -0.588279
  C       2.645135     -0.090061     -0.128328
  C       2.526977      1.205498      0.377887
  C       3.685307      1.874972      0.786143
  C       4.938120      1.261910      0.680575
  C       5.034125     -0.034972      0.163173
  C       3.884720     -0.719569     -0.241360
  O      -0.581923      0.485938     -0.677389
  C      -1.817775      1.090399     -0.335909
  C      -2.121870      1.445628      0.978480
  C      -3.347957      2.070738      1.231067
  C      -4.239409      2.343024      0.188191
  C      -3.905045      1.986079     -1.122947
  C      -2.688172      1.354697     -1.391815
  C      -2.109761     -2.224755     -0.629070
  N      -3.268722     -2.193185     -0.556878
  H       1.009111     -3.591771     -0.196621
  H      -0.508575     -4.449860     -0.566033
  H      -0.315995     -3.606014      0.992725
  H      -0.365981     -2.213299     -1.771778
  H       1.555054      1.684546      0.450411
  H       3.602068      2.883687      1.186269
  H       5.833856      1.791149      0.998883
  H       6.004594     -0.520187      0.077181
  H       3.936506     -1.729445     -0.641549
  H      -1.428170      1.214865      1.780807
  H      -3.603043      2.344318      2.253243
  H      -5.191119      2.828025      0.395723
  H      -4.594518      2.190310     -1.939845
  H      -2.412416      1.058412     -2.400950
>
34
-1201.81450350; 31P isotropic shielding: 261.730974 ppm
  C       0.031613     -4.107680     -0.703459
  C      -0.539076     -2.780578     -1.267218
  P      -0.074551     -1.351794     -0.186054
  O      -0.396243     -1.498444      1.248414
  O       1.497155     -1.252182     -0.592041
  C       2.250459     -0.154121     -0.114601
  C       2.720525      0.765733     -1.050989
  C       3.479197      1.853387     -0.607172
  C       3.750144      2.014161      0.756690
  C       3.265392      1.080041      1.679121
  C       2.511380     -0.017135      1.249528
  O      -0.725174     -0.081499     -0.943499
  C      -1.508470      0.881860     -0.257739
  C      -2.893184      0.739334     -0.253298
  C      -3.662144      1.721342      0.380275
  C      -3.045120      2.816914      0.994703
  C      -1.650629      2.934341      0.977035
  C      -0.868514      1.961218      0.346669
  C      -1.994339     -2.808132     -1.392086
  N      -3.153658     -2.821891     -1.465300
  H       1.124285     -4.051219     -0.663197
  H      -0.257302     -4.943464     -1.349958
  H      -0.351816     -4.288303      0.305449
  H      -0.113647     -2.570390     -2.259221
  H       2.484975      0.627015     -2.103314
  H       3.852107      2.577764     -1.328818
  H       4.337132      2.864182      1.098844
  H       3.472093      1.202332      2.740669
  H       2.112093     -0.743401      1.951550
  H      -3.352013     -0.124940     -0.727223
  H      -4.746018      1.623581      0.395988
  H      -3.649137      3.575944      1.488132
  H      -1.166447      3.782806      1.457040
  H       0.216131      2.030319      0.325278
>
34
-1201.81593708; 31P isotropic shielding: 256.746414 ppm
  C      -1.724479     -2.302604     -0.486227
  C      -0.271350     -1.772876     -0.335867
  P      -0.105932     -0.713182      1.191386
  O      -0.834196     -1.287099      2.339630
  O       1.467783     -0.545716      1.471407
  C       2.418901     -0.192303      0.483526
  C       2.515161      1.124516      0.037846
  C       3.473086      1.432458     -0.931783
  C       4.321807      0.439370     -1.433089
  C       4.222209     -0.870763     -0.954249
  C       3.266601     -1.194116      0.013542
  O      -0.507060      0.787297      0.728816
  C      -1.830733      1.111241      0.346812
  C      -2.879112      1.001119      1.261508
  C      -4.166370      1.357486      0.845824
  C      -4.390194      1.821506     -0.455568
  C      -3.319896      1.931744     -1.350703
  C      -2.027254      1.574087     -0.953974
  C       0.184234     -1.090077     -1.542476
  N       0.508314     -0.533451     -2.509670
  H      -1.766744     -3.027305     -1.307078
  H      -2.419534     -1.486957     -0.705058
  H      -2.030611     -2.786949      0.445379
  H       0.403110     -2.621773     -0.146771
  H       1.839894      1.879164      0.429365
  H       3.551906      2.453741     -1.299426
  H       5.060312      0.686703     -2.192864
  H       4.885042     -1.645505     -1.334835
  H       3.174407     -2.204674      0.405449
  H      -2.685393      0.629880      2.263840
  H      -4.995364      1.272982      1.546149
  H      -5.394646      2.097890     -0.770231
  H      -3.487825      2.292214     -2.363856
  H      -1.183775      1.633751     -1.636552
>
34
-1201.81399093; 31P isotropic shielding: 265.450039 ppm
  C      -1.339149     -2.877326     -2.056620
  C      -0.879220     -2.957927     -0.578117
  P      -0.557780     -1.312945      0.208595
  O      -0.212044     -1.345526      1.643929
  O       0.537320     -0.649732     -0.780258
  C       1.705556     -0.017594     -0.282722
  C       1.696844      1.366631     -0.130654
  C       2.864118      1.997213      0.313241
  C       4.008965      1.244518      0.597695
  C       3.989169     -0.145992      0.438081
  C       2.830097     -0.790513     -0.005874
  O      -1.934433     -0.553785     -0.203841
  C      -2.010396      0.847669     -0.027756
  C      -1.960269      1.403198      1.251521
  C      -2.037230      2.794014      1.379587
  C      -2.168041      3.606001      0.247391
  C      -2.222337      3.025333     -1.025227
  C      -2.138526      1.636968     -1.169759
  C       0.343425     -3.747665     -0.437236
  N       1.340037     -4.340734     -0.369836
  H      -2.273309     -2.312564     -2.122002
  H      -1.502555     -3.887027     -2.449441
  H      -0.578744     -2.382723     -2.669056
  H      -1.663914     -3.417791      0.041266
  H       0.794264      1.931083     -0.350202
  H       2.874012      3.078283      0.439694
  H       4.913596      1.739714      0.945335
  H       4.875888     -0.735471      0.663319
  H       2.790175     -1.870446     -0.126375
  H      -1.842692      0.757162      2.116824
  H      -1.992757      3.241105      2.370857
  H      -2.228668      4.687064      0.355880
  H      -2.322832      3.652132     -1.909319
  H      -2.161571      1.163972     -2.148421
>
34
-1201.81503430; 31P isotropic shielding: 260.407186 ppm
  C      -0.274260     -3.294971     -1.388122
  C      -1.065037     -2.125493     -0.742994
  P      -0.028332     -1.275135      0.536906
  O       0.519426     -2.142944      1.596174
  O       1.021522     -0.581277     -0.490934
  C       2.125843      0.210029     -0.126966
  C       2.624129      1.046378     -1.128392
  C       3.722514      1.863300     -0.848928
  C       4.311631      1.844544      0.420683
  C       3.798580      0.998168      1.408430
  C       2.702427      0.168367      1.145246
  O      -0.914394     -0.070860      1.151566
  C      -1.547133      0.919073      0.365521
  C      -0.822167      2.035059     -0.053193
  C      -1.478474      3.025479     -0.790847
  C      -2.838418      2.897910     -1.095856
  C      -3.549550      1.777494     -0.652377
  C      -2.906913      0.778061      0.086291
  C      -2.314514     -2.579207     -0.138662
  N      -3.312352     -2.943569      0.331417
  H       0.629659     -2.908440     -1.869176
  H      -0.895257     -3.790653     -2.142219
  H       0.012889     -4.026191     -0.626456
  H      -1.311964     -1.368635     -1.501746
  H       2.145533      1.051534     -2.104918
  H       4.115545      2.516165     -1.626185
  H       5.165703      2.483113      0.636620
  H       4.254306      0.972994      2.396561
  H       2.312222     -0.504146      1.903716
  H       0.229907      2.128127      0.199871
  H      -0.922976      3.900990     -1.122061
  H      -3.343855      3.672980     -1.668538
  H      -4.610216      1.677947     -0.875150
  H      -3.446023     -0.092890      0.449417
>
34
-1201.81404800; 31P isotropic shielding: 262.534718 ppm
  C      -0.253330     -3.442193     -1.034391
  C      -1.057003     -2.197116     -0.572564
  P      -0.078612     -1.223724      0.664567
  O       0.397412     -1.977705      1.839272
  O       1.034775     -0.653725     -0.372412
  C       2.125179      0.167946     -0.036022
  C       2.615636      0.282300      1.267465
  C       3.703460      1.132249      1.499048
  C       4.292556      1.845803      0.450703
  C       3.788988      1.709358     -0.848241
  C       2.700154      0.870222     -1.097507
  O      -0.976237      0.048410      1.098636
  C      -1.540980      0.964645      0.182256
  C      -0.772247      2.028097     -0.291503
  C      -1.363082      2.949658     -1.161832
  C      -2.702162      2.806971     -1.542841
  C      -3.458845      1.741526     -1.042984
  C      -2.881942      0.811138     -0.171709
  C      -2.349298     -2.561839      0.000463
  N      -3.380872     -2.855324      0.446752
  H      -0.026321     -4.087598     -0.180430
  H       0.685347     -3.123713     -1.498537
  H      -0.837512     -4.011004     -1.766034
  H      -1.241179     -1.526657     -1.424698
  H       2.166759     -0.287936      2.075708
  H       4.092045      1.228233      2.511222
  H       5.139213      2.501591      0.642968
  H       4.241249      2.258555     -1.672062
  H       2.286365      0.757153     -2.096812
  H       0.262707      2.134293      0.020204
  H      -0.773160      3.783726     -1.537522
  H      -3.156616      3.528495     -2.218906
  H      -4.504335      1.631858     -1.324931
  H      -3.457815     -0.015193      0.236475
>
34
-1201.81412877; 31P isotropic shielding: 262.713158 ppm
  C      -0.264566     -3.454674     -1.007537
  C      -1.064757     -2.205075     -0.551576
  P      -0.080035     -1.223737      0.674177
  O       0.402119     -1.970226      1.851133
  O       1.027630     -0.660185     -0.372380
  C       2.120117      0.163204     -0.047299
  C       2.619154      0.284399      1.252256
  C       3.708496      1.135642      1.472158
  C       4.290645      1.843728      0.416223
  C       3.778383      1.700523     -0.878676
  C       2.687962      0.860068     -1.116249
  O      -0.975149      0.051184      1.105012
  C      -1.540199      0.964369      0.185576
  C      -0.771859      2.027365     -0.289815
  C      -1.362482      2.946272     -1.163128
  C      -2.700990      2.801363     -1.545445
  C      -3.457359      1.736432     -1.043877
  C      -2.880622      0.808739     -0.169554
  C      -2.355568     -2.563570      0.028715
  N      -3.385944     -2.851956      0.481130
  H      -0.851927     -4.027275     -1.733654
  H      -0.036157     -4.094725     -0.149935
  H       0.673311     -3.140956     -1.476525
  H      -1.250985     -1.540528     -1.407917
  H       2.175814     -0.281438      2.066614
  H       4.103705      1.236960      2.481244
  H       5.138483      2.500558      0.599504
  H       4.225128      2.245384     -1.708365
  H       2.267414      0.741866     -2.112132
  H       0.262674      2.135052      0.022824
  H      -0.772912      3.779979     -1.540164
  H      -3.155266      3.520836     -2.223814
  H      -4.502431      1.625193     -1.326746
  H      -3.456427     -0.016772      0.240421
>
34
-1201.81411057; 31P isotropic shielding: 262.721788 ppm
  C      -0.288496     -3.377023     -1.205152
  C      -1.072018     -2.188526     -0.586290
  P       0.000757     -1.259651      0.605971
  O       0.605583     -2.064054      1.684019
  O       0.995507     -0.602843     -0.497932
  C       2.104797      0.216005     -0.221890
  C       2.557616      0.995988     -1.288376
  C       3.657682      1.836068     -1.098523
  C       4.293683      1.896203      0.147017
  C       3.825709      1.105480      1.201037
  C       2.728530      0.253562      1.028069
  O      -0.879390     -0.039027      1.195854
  C      -1.546915      0.909941      0.388407
  C      -2.910435      0.738273      0.147147
  C      -3.585585      1.699685     -0.612815
  C      -2.902541      2.813021     -1.114500
  C      -1.538006      2.972115     -0.846969
  C      -0.849385      2.019872     -0.088819
  C      -2.289590     -2.627923      0.089195
  N      -3.262121     -2.980719      0.617601
  H       0.590814     -3.001314     -1.737590
  H      -0.929576     -3.916096     -1.911132
  H       0.038110     -4.067278     -0.421495
  H      -1.360627     -1.474089     -1.371211
  H       2.042951      0.940735     -2.244771
  H       4.015308      2.445322     -1.926637
  H       5.149069      2.552521      0.293347
  H       4.317881      1.141542      2.171179
  H       2.373399     -0.376290      1.838608
  H      -3.427913     -0.125355      0.556471
  H      -4.649554      1.576515     -0.806096
  H      -3.433248      3.558569     -1.703301
  H      -1.004103      3.842567     -1.223847
  H       0.206808      2.137304      0.135623
>
34
-1201.81406663; 31P isotropic shielding: 262.657292 ppm
  C      -0.343727     -3.584311     -0.585557
  C      -1.113025     -2.294476     -0.193372
  P      -0.043177     -1.201160      0.853709
  O       0.532733     -1.833560      2.055162
  O       0.978003     -0.739022     -0.322698
  C       2.092580      0.102671     -0.156641
  C       2.708788      0.311172      1.079949
  C       3.812639      1.170110      1.138772
  C       4.294373      1.799993     -0.012925
  C       3.665323      1.569849     -1.242199
  C       2.558797      0.720484     -1.319260
  O      -0.912390      0.108808      1.229875
  C      -1.547599      0.931920      0.271785
  C      -2.908698      0.743966      0.029142
  C      -3.551803      1.585025     -0.885565
  C      -2.839816      2.597622     -1.537892
  C      -1.478551      2.777826     -1.266761
  C      -0.821930      1.945336     -0.354919
  C      -2.353005     -2.592981      0.517741
  N      -3.342434     -2.834625      1.076397
  H       0.548973     -3.321546     -1.161861
  H      -0.985677     -4.227829     -1.196981
  H      -0.039168     -4.133495      0.310528
  H      -1.369825     -1.716507     -1.093134
  H       2.342080     -0.193870      1.968893
  H       4.298838      1.339488      2.097756
  H       5.154761      2.463429      0.045408
  H       4.033325      2.053133     -2.145434
  H       2.048380      0.535152     -2.261448
  H      -3.448787     -0.039100      0.554700
  H      -4.613519      1.447886     -1.081805
  H      -3.345488      3.249905     -2.247122
  H      -0.922342      3.572275     -1.760976
  H       0.231365      2.082035     -0.127969
>
34
-1201.81407851; 31P isotropic shielding: 262.455114 ppm
  C      -0.428894     -3.604703     -0.282691
  C      -1.162322     -2.267774      0.006617
  P      -0.056297     -1.120120      0.953082
  O       0.511214     -1.663113      2.201330
  O       0.968831     -0.787798     -0.262726
  C       2.106087      0.034346     -0.177094
  C       2.697616      0.389257      1.038190
  C       3.825250      1.218324      1.014751
  C       4.354178      1.676638     -0.195766
  C       3.749147      1.301909     -1.401214
  C       2.619710      0.479613     -1.397253
  O      -0.887479      0.240287      1.220056
  C      -1.526812      0.983238      0.201105
  C      -0.790313      1.896408     -0.554176
  C      -1.451988      2.653056     -1.526509
  C      -2.827891      2.498008     -1.730484
  C      -3.549459      1.587281     -0.950859
  C      -2.901681      0.822758      0.025512
  C      -2.403551     -2.474971      0.747329
  N      -3.393778     -2.644880      1.330433
  H      -0.135057     -4.088232      0.653902
  H       0.467987     -3.412482     -0.879913
  H      -1.090010     -4.277830     -0.839374
  H      -1.411641     -1.758912     -0.936041
  H       2.296248      0.015215      1.975645
  H       4.292701      1.499984      1.956496
  H       5.232672      2.318517     -0.201014
  H       4.154314      1.650295     -2.349530
  H       2.129048      0.183252     -2.321418
  H       0.274882      2.015839     -0.378826
  H      -0.887874      3.369201     -2.121248
  H      -3.336911      3.091125     -2.487653
  H      -4.621786      1.470625     -1.095887
  H      -3.447541      0.118740      0.647930
>
34
-1201.81409762; 31P isotropic shielding: 262.642894 ppm
  C      -0.330038     -2.438402     -1.900596
  C      -0.428783     -2.291375     -0.360746
  P      -0.499249     -0.532830      0.224163
  O      -0.679517     -0.369613      1.681060
  O       0.787308      0.193011     -0.445507
  C       2.108755      0.002519      0.031364
  C       2.424929      0.129832      1.384302
  C       3.753661     -0.059720      1.776646
  C       4.742646     -0.354493      0.832518
  C       4.403133     -0.459974     -0.520533
  C       3.078410     -0.282542     -0.928740
  O      -1.672180      0.014089     -0.741079
  C      -2.375128      1.217405     -0.534721
  C      -1.756699      2.361404     -0.028037
  C      -2.517734      3.525694      0.119346
  C      -3.868632      3.545699     -0.242572
  C      -4.466301      2.388709     -0.754916
  C      -3.721091      1.215302     -0.900491
  C       0.672121     -2.975513      0.318170
  N       1.563211     -3.528583      0.817276
  H       0.592891     -1.984951     -2.274075
  H      -1.182955     -1.946424     -2.376722
  H      -0.330997     -3.499977     -2.171763
  H      -1.371182     -2.730177      0.001212
  H       1.644717      0.343421      2.108468
  H       4.012171      0.022545      2.830644
  H       5.772874     -0.503047      1.149494
  H       5.167001     -0.687836     -1.261548
  H       2.790976     -0.361939     -1.974571
  H      -0.706039      2.346835      0.246583
  H      -2.045381      4.421224      0.518646
  H      -4.452175      4.456515     -0.125742
  H      -5.517148      2.394126     -1.038336
  H      -4.167977      0.303164     -1.289096
>
34
-1201.81325444; 31P isotropic shielding: 264.121750 ppm
  C      -1.067218     -2.912429     -0.685626
  C      -0.141929     -1.669226     -0.708505
  P       0.058212     -0.955831      0.998655
  O       0.618488     -1.950578      1.934324
  O       0.900171      0.410661      0.767455
  C       2.214186      0.369654      0.243979
  C       2.443038      1.025400     -0.965619
  C       3.740600      1.037650     -1.487685
  C       4.782691      0.397664     -0.806988
  C       4.527552     -0.255277      0.404484
  C       3.237121     -0.272139      0.944532
  O      -1.364624     -0.387182      1.479051
  C      -2.192813      0.490838      0.737734
  C      -1.825418      1.821193      0.543202
  C      -2.684500      2.652018     -0.181278
  C      -3.892710      2.159389     -0.686031
  C      -4.253459      0.828313     -0.453874
  C      -3.402211     -0.015303      0.265236
  C      -0.542801     -0.678379     -1.702590
  N      -0.855880      0.106369     -2.500385
  H      -1.048831     -3.409547     -1.661754
  H      -2.099438     -2.627999     -0.461671
  H      -0.716877     -3.610675      0.080967
  H       0.882359     -1.988171     -0.958229
  H       1.615863      1.504228     -1.483138
  H       3.932873      1.546075     -2.430597
  H       5.790031      0.408538     -1.218534
  H       5.335266     -0.752999      0.937983
  H       3.016748     -0.777205      1.880829
  H      -0.881379      2.186284      0.934790
  H      -2.404366      3.689713     -0.351980
  H      -4.552578      2.811770     -1.254107
  H      -5.196616      0.441413     -0.834829
  H      -3.666852     -1.050828      0.464598
