20
-1546.81533089; 31P isotropic shielding: 185.933127 ppm
  C       2.136690      2.557270     -0.369133
  C       1.490787      1.277595      0.138867
  C       2.212781      0.000117     -0.300782
  C       1.490940     -1.277428      0.138926
  C       2.137003     -2.557049     -0.369005
  O       0.109322     -1.277581     -0.399196
  P      -0.842939     -0.000064     -0.167283
  S      -2.472798     -0.000189     -1.159129
  O       0.109165      1.277558     -0.399255
  Cl     -1.069309     -0.000026      1.928657
  H       3.150588      2.653968      0.040389
  H       1.550920      3.429487     -0.058173
  H       2.199069      2.549819     -1.464247
  H       1.401671      1.302231      1.234682
  H       2.323165      0.000098     -1.394886
  H       3.221082      0.000187      0.136511
  H       1.401831     -1.302021      1.234743
  H       3.150871     -2.653652      0.040613
  H       1.551279     -3.429311     -0.058085
  H       2.199482     -2.549611     -1.464114
>
20
-1546.82952414; 31P isotropic shielding: 193.912617 ppm
  C       1.528005      2.414338     -1.097445
  C       1.650153      1.292527     -0.074527
  C       2.168216     -0.034100     -0.672730
  C       1.532381     -1.263240     -0.020641
  C       2.050875     -2.590156     -0.551555
  O       0.089907     -1.216156     -0.350067
  P      -0.765924      0.046791      0.175004
  S      -2.185909      0.582062     -0.997105
  O       0.350161      1.120257      0.619043
  Cl     -1.384147     -0.541971      2.074338
  H       0.823419      2.135760     -1.890389
  H       2.508383      2.611032     -1.553000
  H       1.173374      3.334930     -0.620916
  H       2.302771      1.599471      0.752024
  H       1.950003     -0.079659     -1.748803
  H       3.259665     -0.068885     -0.556227
  H       1.629691     -1.224394      1.074447
  H       3.114932     -2.702424     -0.306611
  H       1.499976     -3.422532     -0.099470
  H       1.932667     -2.643950     -1.640769
>
20
-1546.82202654; 31P isotropic shielding: 184.740521 ppm
  C       1.802716      2.543474     -0.834683
  C       1.637137      1.273830     -0.011357
  C       1.957218     -0.006406     -0.789724
  C       1.614689     -1.282169     -0.014723
  C       1.850512     -2.557631     -0.811076
  O       0.190456     -1.289450      0.399242
  P      -0.732416      0.017304      0.188064
  S      -1.762540      0.103110     -1.437601
  O       0.247965      1.257398      0.509488
  Cl     -1.846210     -0.020464      1.923751
  H       1.526230      3.421204     -0.239794
  H       1.163030      2.509102     -1.724751
  H       2.848310      2.653224     -1.152835
  H       2.260198      1.317900      0.893648
  H       1.420902     -0.005085     -1.749115
  H       3.032776     -0.012622     -1.013094
  H       2.181664     -1.306856      0.927753
  H       1.541736     -3.432559     -0.228060
  H       1.273984     -2.538709     -1.743823
  H       2.916742     -2.659195     -1.054111
>
20
-1546.81915549; 31P isotropic shielding: 184.633712 ppm
  C       2.215498      2.564468     -0.067081
  C       1.515999      1.247424      0.231399
  C       2.104083      0.047821     -0.517979
  C       1.327143     -1.249947     -0.275154
  C       1.834660     -2.433068     -1.084633
  O      -0.089058     -1.061995     -0.671783
  P      -0.922825      0.194679     -0.107945
  S      -2.619335      0.489735     -0.929666
  O       0.100603      1.436654     -0.167658
  Cl     -0.986286     -0.217920      1.958824
  H       2.192261      2.779890     -1.142405
  H       3.262369      2.513868      0.259334
  H       1.724131      3.386748      0.464930
  H       1.514667      1.052268      1.313686
  H       2.125100      0.264966     -1.595790
  H       3.141731     -0.097654     -0.186151
  H       1.324458     -1.493059      0.797424
  H       1.804627     -2.207972     -2.157802
  H       2.870186     -2.662857     -0.801961
  H       1.217089     -3.318248     -0.895690
>
20
-1546.82953078; 31P isotropic shielding: 193.865064 ppm
  C       1.553004      2.330229     -1.213507
  C       1.570776      1.317710     -0.075912
  C       2.221305     -0.029273     -0.459469
  C       1.555037     -1.222506      0.227529
  C       2.200093     -2.563259     -0.085028
  O       0.172191     -1.290902     -0.296488
  P      -0.802953     -0.034399     -0.023755
  S      -2.075799      0.296124     -1.419129
  O       0.191825      1.143458      0.442492
  Cl     -1.642805     -0.467626      1.832736
  H       1.097220      3.271337     -0.886697
  H       0.981906      1.940267     -2.064747
  H       2.580232      2.535422     -1.545349
  H       2.085244      1.734608      0.798720
  H       2.153742     -0.191299     -1.544317
  H       3.287268      0.009771     -0.198299
  H       1.495619     -1.070234      1.315480
  H       2.240120     -2.730000     -1.168414
  H       3.222471     -2.589139      0.313470
  H       1.627205     -3.377490      0.372684
>
20
-1546.82208256; 31P isotropic shielding: 184.794560 ppm
  C       2.402069      2.008915     -0.727231
  C       1.482300      1.254574      0.224324
  C       2.051845     -0.080106      0.763126
  C       1.556738     -1.332596      0.023111
  C       1.982137     -1.469050     -1.437894
  O       0.077923     -1.423912      0.108765
  P      -0.825520     -0.104416     -0.078482
  S      -2.368510     -0.278237     -1.192538
  O       0.217126      1.037258     -0.523641
  Cl     -1.246397      0.412373      1.917771
  H       1.904633      2.912320     -1.098064
  H       2.689863      1.390747     -1.584933
  H       3.313445      2.308900     -0.193581
  H       1.217000      1.900381      1.070691
  H       3.148119     -0.054807      0.709977
  H       1.781464     -0.190318      1.819624
  H       1.887838     -2.215129      0.582995
  H       1.596281     -2.408419     -1.849642
  H       1.601843     -0.644995     -2.049401
  H       3.078001     -1.484885     -1.507976
>
20
-1546.82059851; 31P isotropic shielding: 193.345032 ppm
  C       1.689788      1.732078     -1.438915
  C       1.630609      1.310249      0.028741
  C       2.339637      0.000206      0.417514
  C       1.630929     -1.310132      0.029148
  C       1.690210     -1.732390     -1.438380
  O       0.228008     -1.278517      0.506118
  P      -0.710505     -0.000197      0.204091
  S      -1.705814     -0.000570     -1.445041
  O       0.227701      1.278437      0.505734
  Cl     -1.865641     -0.000079      1.912190
  H       1.202553      2.706059     -1.560803
  H       1.188165      1.022910     -2.101352
  H       2.738542      1.826503     -1.750921
  H       2.063766      2.113200      0.637473
  H       3.349207      0.000259     -0.014944
  H       2.454461      0.000389      1.509376
  H       2.064279     -2.112788      0.638130
  H       1.188366     -1.023563     -2.101014
  H       2.738985     -1.826606     -1.750378
  H       1.203251     -2.706547     -1.559967
