20
-2408.03012154; 31P isotropic shielding: 253.044790 ppm
  C      -4.801576     -1.568129     -0.441537
  C      -3.970833     -0.278512     -0.364742
  C      -2.951974     -0.300358      0.788739
  C      -2.147216      0.990602      0.940957
  S      -1.138074      1.484050     -0.553478
  O      -0.218956      2.549938     -0.046501
  N      -0.317770     -0.018223     -0.768194
  P       1.039025     -0.433248     -0.149263
  Cl      2.670017      0.712256     -0.602817
  Cl      1.198562     -0.600652      1.916912
  Cl      1.541097     -2.288638     -0.820097
  H      -5.523061     -1.530432     -1.267782
  H      -4.156585     -2.443444     -0.600136
  H      -5.364523     -1.732963      0.488004
  H      -4.639764      0.587863     -0.242370
  H      -3.443296     -0.126570     -1.317660
  H      -2.260384     -1.143065      0.654230
  H      -3.481843     -0.480865      1.737997
  H      -2.793996      1.866306      1.092662
  H      -1.419552      0.951183      1.760280
>
20
-2408.03075201; 31P isotropic shielding: 248.470760 ppm
  C      -4.844691     -0.398817     -0.478009
  C      -3.745343     -0.670891      0.561321
  C      -2.839971      0.542096      0.863432
  C      -2.117477      1.136354     -0.348913
  S      -1.120438     -0.077851     -1.356799
  O      -0.287127      0.777365     -2.258316
  N      -0.193215     -0.730828     -0.057692
  P       1.180732     -0.229801      0.448837
  Cl      1.324416      1.680106      1.257450
  Cl      1.817985     -1.438729      1.957611
  Cl      2.734235     -0.238842     -0.879413
  H      -5.503764     -1.269535     -0.586873
  H      -5.468456      0.457509     -0.183899
  H      -4.427003     -0.182337     -1.469863
  H      -3.124268     -1.515244      0.228930
  H      -4.209030     -0.990565      1.505731
  H      -2.093619      0.256306      1.615427
  H      -3.447162      1.344780      1.312315
  H      -2.809989      1.550535     -1.093129
  H      -1.403215      1.921189     -0.073549
>
20
-2408.02966834; 31P isotropic shielding: 248.521654 ppm
  C      -3.970142     -1.287229     -0.244211
  C      -4.189413      0.038407      0.504787
  C      -2.902087      0.799646      0.877437
  C      -2.151573      1.465388     -0.279956
  S      -1.260722      0.369397     -1.512067
  O      -0.296869      1.297241     -2.180958
  N      -0.471336     -0.658331     -0.375505
  P       0.915162     -0.441599      0.276372
  Cl      1.200278      1.202866      1.515305
  Cl      1.343994     -2.027470      1.479469
  Cl      2.533352     -0.314845     -0.966042
  H      -3.295596     -1.948961      0.314738
  H      -4.922918     -1.814177     -0.385968
  H      -3.528936     -1.132987     -1.236735
  H      -4.738850     -0.167973      1.435189
  H      -4.839682      0.698751     -0.090946
  H      -2.216288      0.133162      1.418118
  H      -3.164705      1.605229      1.580864
  H      -2.824683      2.050119     -0.923131
  H      -1.352686      2.129665      0.072040
>
20
-2408.02897341; 31P isotropic shielding: 249.139757 ppm
  C      -3.987875     -0.595811     -1.242805
  C      -4.202651     -0.608254      0.280265
  C      -2.914712     -0.523788      1.122903
  C      -2.207633      0.835172      1.142550
  S      -1.349337      1.413389     -0.418707
  O      -0.435946      2.498370      0.056649
  N      -0.489123     -0.042803     -0.754061
  P       0.929494     -0.418779     -0.263733
  Cl      2.471688      0.809373     -0.804066
  Cl      1.263043     -0.648521      1.774709
  Cl      1.448306     -2.227693     -1.041630
  H      -3.291998     -1.387889     -1.548937
  H      -4.937841     -0.755503     -1.769594
  H      -3.572893      0.357372     -1.593156
  H      -4.724405     -1.536610      0.556072
  H      -4.876554      0.214522      0.567705
  H      -2.204502     -1.297716      0.800657
  H      -3.167045     -0.756086      2.169391
  H      -2.906228      1.658373      1.350195
  H      -1.404390      0.873084      1.888794
>
20
-2408.02895378; 31P isotropic shielding: 249.209097 ppm
  C      -5.680454     -0.253797     -0.884129
  C      -4.387028     -0.369770     -0.063676
  C      -3.363745      0.725396     -0.413594
  C      -2.068167      0.658205      0.399210
  S      -1.112748     -0.889820     -0.023936
  O      -0.780663     -0.762065     -1.478508
  N       0.243665     -0.533325      0.981974
  P       1.585627      0.080636      0.516196
  Cl      1.603205      2.004356     -0.263590
  Cl      2.856140      0.188843      2.100989
  Cl      2.648527     -0.944694     -0.900216
  H      -6.395460     -1.042237     -0.616237
  H      -6.171471      0.715218     -0.716272
  H      -5.473391     -0.340221     -1.959583
  H      -3.939670     -1.361236     -0.230249
  H      -4.621350     -0.317118      1.011181
  H      -3.817374      1.715275     -0.247801
  H      -3.112019      0.676315     -1.482932
  H      -1.391609      1.489286      0.170068
  H      -2.242816      0.618251      1.482404
>
20
-2408.03066943; 31P isotropic shielding: 248.356864 ppm
  C      -4.632270      0.792318      0.215605
  C      -4.552774     -0.693272     -0.176588
  C      -3.234967     -1.401065      0.194469
  C      -1.987199     -0.952448     -0.577490
  S      -1.277540      0.654678      0.070583
  O      -0.987146      0.401489      1.517477
  N       0.154941      0.595861     -0.894414
  P       1.553534      0.143426     -0.411100
  Cl      2.886917      0.341877     -1.934545
  Cl      2.402467      1.194245      1.127166
  Cl      1.818399     -1.812149      0.228349
  H      -3.923432      1.408606     -0.351943
  H      -5.637148      1.190847      0.023793
  H      -4.411347      0.932082      1.282390
  H      -4.725889     -0.799234     -1.259449
  H      -5.374058     -1.234234      0.316257
  H      -3.353333     -2.479069      0.007309
  H      -3.037580     -1.300696      1.272238
  H      -1.169566     -1.673304     -0.466888
  H      -2.177909     -0.788859     -1.646619
>
20
-2408.02884544; 31P isotropic shielding: 249.525811 ppm
  C      -4.942243     -0.039182     -1.007293
  C      -4.430763     -0.079634      0.442154
  C      -3.317013     -1.117018      0.696029
  C      -2.046444     -0.930712     -0.141062
  S      -1.259805      0.721288      0.220827
  O      -0.873889      0.668912      1.666790
  N       0.098825      0.496602     -0.819677
  P       1.511253      0.035902     -0.385760
  Cl      2.741713      0.040335     -2.005613
  Cl      2.496878      1.189166      0.986941
  Cl      1.757155     -1.864397      0.415334
  H      -4.167185      0.298649     -1.707556
  H      -5.280111     -1.032314     -1.336515
  H      -5.790182      0.650801     -1.104377
  H      -5.267892     -0.309899      1.116696
  H      -4.077266      0.920306      0.735120
  H      -3.705522     -2.126720      0.488605
  H      -3.037313     -1.101579      1.758135
  H      -1.284217     -1.678820      0.104299
  H      -2.229179     -0.945685     -1.221877
>
20
-2408.02967754; 31P isotropic shielding: 247.867032 ppm
  C      -4.443981     -1.297331      1.482014
  C      -4.134933     -0.485535      0.213947
  C      -2.673233     -0.001509      0.167277
  C      -2.367318      0.803441     -1.093108
  S      -0.678820      1.587684     -1.077081
  O      -0.533954      2.238584      0.263238
  N       0.177962      0.076383     -1.139775
  P       1.336805     -0.325382     -0.203712
  Cl      2.933918      0.961294     -0.037624
  Cl      0.907966     -0.705573      1.773670
  Cl      2.167597     -2.059754     -0.864155
  H      -5.488703     -1.634171      1.495624
  H      -3.803326     -2.187698      1.547200
  H      -4.272378     -0.697277      2.386211
  H      -4.808561      0.383578      0.158843
  H      -4.347622     -1.097302     -0.676572
  H      -1.998593     -0.866658      0.217692
  H      -2.460153      0.621589      1.046852
  H      -2.410878      0.204488     -2.011848
  H      -3.040195      1.666448     -1.201394
>
20
-2408.03150384; 31P isotropic shielding: 253.591634 ppm
  C      -4.394775      0.468736     -1.155325
  C      -4.430781     -0.747402     -0.214028
  C      -3.287471     -0.816051      0.817169
  C      -1.884533     -1.079148      0.255254
  S      -1.101913      0.458404     -0.473309
  O      -1.095578      1.460067      0.639702
  N       0.455467     -0.253570     -0.710607
  P       1.689943     -0.045156      0.198944
  Cl      3.283330     -1.025667     -0.597815
  Cl      2.360697      1.872094      0.448025
  Cl      1.625347     -0.719640      2.160343
  H      -5.299983      0.505415     -1.775688
  H      -4.336228      1.407302     -0.587859
  H      -3.534961      0.441247     -1.836979
  H      -4.436447     -1.674834     -0.808747
  H      -5.380857     -0.737143      0.340374
  H      -3.504492     -1.631239      1.523877
  H      -3.258955      0.105566      1.417455
  H      -1.190021     -1.388009      1.044538
  H      -1.874090     -1.831571     -0.544724
>
20
-2408.02892973; 31P isotropic shielding: 249.796369 ppm
  C      -4.668191     -1.422777      0.179614
  C      -4.083185     -0.269253      1.011660
  C      -2.631268      0.102971      0.644776
  C      -2.491469      0.647856     -0.776232
  S      -0.817514      1.392296     -1.109607
  O      -0.510096      2.275428      0.059266
  N       0.031854     -0.121145     -0.996169
  P       1.298329     -0.363437     -0.148590
  Cl      2.899568      0.899909     -0.421477
  Cl      1.115795     -0.358802      1.901859
  Cl      2.048508     -2.206286     -0.565576
  H      -4.742281     -1.162985     -0.884722
  H      -4.041788     -2.322590      0.259572
  H      -5.676695     -1.685829      0.524167
  H      -4.105575     -0.543986      2.076630
  H      -4.722714      0.621536      0.911761
  H      -1.985733     -0.778494      0.757412
  H      -2.260985      0.864065      1.344400
  H      -2.636364     -0.106765     -1.558225
  H      -3.178196      1.487088     -0.960321
>
20
-2408.03063504; 31P isotropic shielding: 253.367107 ppm
  C      -3.839590      0.213023     -1.418668
  C      -4.081124     -0.744271     -0.239268
  C      -2.811083     -1.197333      0.507595
  C      -2.118872     -0.137191      1.370504
  S      -1.206569      1.252391      0.507049
  O      -0.323976      1.818954      1.573578
  N      -0.317807      0.278133     -0.603201
  P       1.088744     -0.329750     -0.388448
  Cl      1.654344     -1.318191     -2.076164
  Cl      2.631626      0.963760     -0.035591
  Cl      1.360120     -1.736803      1.116689
  H      -3.441711      1.181381     -1.090659
  H      -3.120997     -0.212303     -2.131704
  H      -4.776315      0.407872     -1.957379
  H      -4.589487     -1.645176     -0.613553
  H      -4.776005     -0.280831      0.479101
  H      -2.086570     -1.614880     -0.205166
  H      -3.081966     -2.020829      1.186687
  H      -2.832436      0.404063      2.008231
  H      -1.345126     -0.570618      2.016266
>
20
-2408.02900348; 31P isotropic shielding: 249.609150 ppm
  C      -4.430509     -1.740653     -0.355040
  C      -3.198643     -1.044370      0.242917
  C      -3.397242      0.474900      0.388199
  C      -2.217626      1.225083      1.027689
  S      -0.994286      1.919426     -0.195853
  O       0.088360      2.535097      0.632317
  N      -0.476356      0.433142     -0.899327
  P       0.740620     -0.419135     -0.463976
  Cl      2.589102      0.444397     -0.583867
  Cl      0.772561     -1.232485      1.446128
  Cl      0.878512     -2.045989     -1.679712
  H      -5.323451     -1.577713      0.265061
  H      -4.649966     -1.357392     -1.361350
  H      -4.274185     -2.823990     -0.437629
  H      -2.323688     -1.240068     -0.387177
  H      -2.974612     -1.470223      1.233154
  H      -4.291466      0.658111      1.003274
  H      -3.622366      0.914307     -0.597428
  H      -2.545035      2.137044      1.544187
  H      -1.639322      0.618211      1.734234
>
20
-2408.02951182; 31P isotropic shielding: 245.217822 ppm
  C      -4.967091     -1.436799     -1.291282
  C      -4.150038     -1.129286     -0.026459
  C      -3.055042     -0.072914     -0.269709
  C      -2.238211      0.217023      0.988946
  S      -0.988049      1.582291      0.781054
  O      -0.190156      1.581368      2.046069
  N      -0.109390      0.870348     -0.522343
  P       1.140496     -0.035724     -0.410334
  Cl      1.786327     -0.516567     -2.279725
  Cl      2.797088      0.746436      0.496547
  Cl      0.969415     -1.879378      0.536047
  H      -5.739991     -2.190448     -1.092602
  H      -5.467920     -0.534236     -1.668126
  H      -4.323573     -1.820224     -2.095140
  H      -3.682640     -2.054010      0.345617
  H      -4.822585     -0.781734      0.772827
  H      -3.520631      0.856851     -0.632493
  H      -2.382548     -0.415537     -1.067374
  H      -2.865381      0.586663      1.812446
  H      -1.671682     -0.651222      1.347035
>
20
-2408.03067631; 31P isotropic shielding: 249.755485 ppm
  C      -4.247138      0.931114     -0.161325
  C      -4.318315     -0.581849     -0.429919
  C      -2.954943     -1.282642     -0.590726
  C      -2.119482     -1.437361      0.684149
  S      -1.339124      0.096061      1.425003
  O      -0.287191     -0.445089      2.340804
  N      -0.657690      0.724364     -0.029180
  P       0.753829      0.437144     -0.594584
  Cl      1.024784      1.516456     -2.299012
  Cl      2.356503      0.944124      0.568935
  Cl      1.236690     -1.502670     -1.163144
  H      -3.646259      1.439318     -0.926968
  H      -5.251984      1.373588     -0.169043
  H      -3.796172      1.157787      0.812787
  H      -4.892527     -0.750222     -1.352992
  H      -4.885948     -1.076018      0.374591
  H      -2.357032     -0.767358     -1.355001
  H      -3.129617     -2.300635     -0.972575
  H      -2.714129     -1.832535      1.520223
  H      -1.257254     -2.099478      0.536478
>
20
-2408.02901116; 31P isotropic shielding: 249.340993 ppm
  C      -2.920042     -1.664105     -1.130734
  C      -3.394658     -0.221665     -0.899555
  C      -3.554726      0.158365      0.587178
  C      -2.301078      0.056608      1.469008
  S      -1.045220      1.408127      1.188784
  O      -0.026008      1.232007      2.270252
  N      -0.442819      0.847174     -0.328202
  P       0.833540      0.001139     -0.545699
  Cl      1.041276     -0.387741     -2.532073
  Cl      2.623145      0.842348     -0.019016
  Cl      0.973252     -1.866889      0.344732
  H      -3.594876     -2.387663     -0.650844
  H      -2.888981     -1.897685     -2.202695
  H      -1.913297     -1.834062     -0.731186
  H      -4.372845     -0.082605     -1.383460
  H      -2.702925      0.473820     -1.389762
  H      -4.317874     -0.495204      1.039251
  H      -3.956061      1.180962      0.658668
  H      -2.554142      0.207960      2.526701
  H      -1.763861     -0.892991      1.375953
>
20
-2408.02893134; 31P isotropic shielding: 247.830801 ppm
  C      -2.947266     -1.872215      0.526662
  C      -3.391276     -0.763661     -0.439830
  C      -3.531667      0.626763      0.214602
  C      -2.273852      1.215238      0.870628
  S      -0.992781      1.838084     -0.334999
  O       0.030048      2.542456      0.500261
  N      -0.411567      0.299999     -0.863645
  P       0.846007     -0.427250     -0.331871
  Cl      2.656228      0.480137     -0.629017
  Cl      0.952270     -0.920508      1.680183
  Cl      1.034103     -2.215334     -1.283276
  H      -1.942395     -1.691221      0.925665
  H      -3.634311     -1.956250      1.381220
  H      -2.926039     -2.845643      0.020077
  H      -4.370093     -1.028652     -0.866277
  H      -2.689101     -0.709586     -1.280252
  H      -4.306165      0.574965      0.996415
  H      -3.908687      1.341766     -0.532808
  H      -2.515574      2.130688      1.426718
  H      -1.758683      0.527025      1.548746
>
20
-2408.02893252; 31P isotropic shielding: 247.363564 ppm
  C      -3.242846     -2.221699     -0.627929
  C      -2.853111     -0.754492     -0.858914
  C      -2.930469      0.083123      0.430113
  C      -2.517668      1.551544      0.258462
  S      -0.758497      1.906702      0.773077
  O      -0.568486      1.208073      2.083690
  N      -0.009818      1.014845     -0.514750
  P       1.088539     -0.053125     -0.328592
  Cl      1.806677     -0.600386     -2.149825
  Cl      2.769657      0.456041      0.741117
  Cl      0.566939     -1.841605      0.549767
  H      -2.573454     -2.696489      0.102268
  H      -4.268530     -2.306414     -0.241812
  H      -3.187246     -2.800057     -1.559349
  H      -3.518204     -0.310600     -1.616436
  H      -1.839978     -0.699300     -1.273514
  H      -2.308540     -0.365948      1.219296
  H      -3.960949      0.054147      0.814715
  H      -2.616165      1.920057     -0.770333
  H      -3.079852      2.220181      0.924348
>
20
-2408.03007211; 31P isotropic shielding: 251.629503 ppm
  C      -5.550206      0.702527      0.015945
  C      -4.046577      0.558680      0.294086
  C      -3.571007     -0.903076      0.206879
  C      -2.067897     -1.094417      0.457924
  S      -1.087248     -0.739897     -1.084252
  O      -1.219488      0.725762     -1.359910
  N       0.454915     -1.118548     -0.407914
  P       1.478745     -0.094317      0.139086
  Cl      2.200419      1.306477     -1.165996
  Cl      0.958628      1.081375      1.768083
  Cl      3.142377     -1.083625      0.764475
  H      -5.871056      1.749101      0.096272
  H      -5.798726      0.355126     -0.996755
  H      -6.148926      0.113281      0.725496
  H      -3.815565      0.944277      1.299585
  H      -3.470912      1.171742     -0.410221
  H      -3.837082     -1.323154     -0.777584
  H      -4.119692     -1.508762      0.944833
  H      -1.680607     -0.430525      1.240441
  H      -1.814695     -2.132225      0.708126
>
20
-2408.02974022; 31P isotropic shielding: 245.551883 ppm
  C      -3.952760      1.332660      1.016836
  C      -4.243130      0.426140     -0.189895
  C      -3.672733     -1.002901     -0.058831
  C      -2.163309     -1.115080      0.203287
  S      -1.160030     -0.519220     -1.247038
  O      -1.236149      0.976737     -1.234498
  N       0.362728     -1.073098     -0.648827
  P       1.406383     -0.202143      0.092968
  Cl      2.198648      1.389538     -0.919743
  Cl      0.889433      0.670469      1.903166
  Cl      3.025770     -1.345884      0.547980
  H      -2.884188      1.565801      1.092564
  H      -4.488679      2.285845      0.922926
  H      -4.271605      0.862446      1.958970
  H      -3.850809      0.902075     -1.097338
  H      -5.330804      0.335172     -0.327658
  H      -3.923374     -1.580663     -0.961969
  H      -4.178100     -1.514116      0.776090
  H      -1.828965     -0.525052      1.064035
  H      -1.860126     -2.159326      0.346578
>
20
-2408.02916522; 31P isotropic shielding: 244.125005 ppm
  C      -3.613078     -0.914937      1.874674
  C      -3.204792      0.155210      0.851743
  C      -2.790910     -0.462855     -0.495852
  C      -2.405006      0.545226     -1.581107
  S      -0.788570      1.451295     -1.352774
  O      -0.843784      2.171412     -0.041431
  N       0.175710      0.015017     -1.240480
  P       1.153452     -0.316437     -0.093487
  Cl      2.614472      1.059045      0.348541
  Cl      0.382760     -0.710808      1.777768
  Cl      2.188517     -2.003383     -0.558500
  H      -3.912890     -0.460908      2.828056
  H      -4.458282     -1.516840      1.510485
  H      -2.781232     -1.603343      2.080026
  H      -2.381546      0.762007      1.244329
  H      -4.044146      0.848932      0.686784
  H      -3.626192     -1.065019     -0.889616
  H      -1.958408     -1.164984     -0.349341
  H      -2.295094      0.069005     -2.564879
  H      -3.133082      1.364167     -1.670041
