31
-1231.16300587; 31P isotropic shielding: 276.663270 ppm
  C       3.951150      0.015823      1.485552
  C       3.882406      0.384513      0.010050
  O       2.547336      0.925306     -0.316862
  C       1.598149      0.025670     -0.594293
  O       1.734883     -1.177313     -0.714062
  C       0.197001      0.674774     -0.680154
  P      -0.748020      0.261756      0.918263
  O       0.229888      0.219778      2.027331
  O      -1.869629      1.381756      1.034542
  C      -3.249133      1.310298      0.526297
  C      -3.331752      1.693143     -0.943245
  O      -1.580463     -1.062194      0.585588
  C      -1.012200     -2.415900      0.768902
  C      -1.040834     -3.157680     -0.555345
  F      -0.449651      0.168515     -1.799246
  F       0.262090      2.041689     -0.834859
  H       3.242874     -0.784306      1.724436
  H       4.965688     -0.331228      1.724675
  H       3.719763      0.882047      2.115746
  H       4.076183     -0.474429     -0.640672
  H       4.560277      1.204490     -0.245265
  H      -3.793077      2.020105      1.158522
  H      -3.633634      0.301309      0.708976
  H      -2.880933      2.677419     -1.116408
  H      -2.825224      0.958237     -1.578072
  H      -4.387714      1.737683     -1.244126
  H       0.003240     -2.322097      1.166751
  H      -1.646403     -2.894527      1.524164
  H      -2.060779     -3.202064     -0.957082
  H      -0.383933     -2.673589     -1.284556
  H      -0.686949     -4.186285     -0.399547
>
31
-1231.16214207; 31P isotropic shielding: 272.690630 ppm
  C       3.826470     -0.011483      1.580908
  C       3.817843      0.602704      0.187452
  O       2.438589      0.949600     -0.205715
  C       1.698114     -0.041687     -0.719188
  O       2.061647     -1.168182     -0.992319
  C       0.218692      0.393647     -0.838760
  P      -0.727000      0.025055      0.765112
  O      -0.234021      0.847781      1.889447
  O      -2.255281      0.230067      0.323744
  C      -3.046220      1.378978      0.809103
  C      -2.990178      2.538919     -0.171985
  O      -0.536976     -1.536196      0.989614
  C      -0.773660     -2.661513      0.062101
  C      -2.245326     -2.861190     -0.264748
  F      -0.360565     -0.288015     -1.897362
  F       0.107444      1.741495     -1.117065
  H       4.864559     -0.180109      1.897661
  H       3.343122      0.657001      2.302444
  H       3.303850     -0.974373      1.588595
  H       4.234553     -0.073641     -0.566170
  H       4.341173      1.562864      0.155483
  H      -2.669174      1.661966      1.797762
  H      -4.061132      0.979088      0.909553
  H      -3.309612      2.223064     -1.172504
  H      -3.664016      3.335974      0.171706
  H      -1.977028      2.949474     -0.239672
  H      -0.164352     -2.501207     -0.831961
  H      -0.367402     -3.517424      0.610753
  H      -2.350756     -3.780908     -0.856808
  H      -2.841168     -2.970236      0.649658
  H      -2.646691     -2.026812     -0.848138
>
31
-1231.16164890; 31P isotropic shielding: 270.560442 ppm
  C       3.966854     -0.057058      1.463745
  C       3.893278      0.333683     -0.005826
  O       2.559209      0.885512     -0.317961
  C       1.605361     -0.005181     -0.608271
  O       1.736896     -1.206400     -0.749892
  C       0.206601      0.650883     -0.678472
  P      -0.739053      0.206202      0.910730
  O       0.238229      0.141977      2.019295
  O      -1.860372      1.324135      1.047851
  C      -3.240896      1.261277      0.541274
  C      -3.326588      1.676805     -0.919206
  O      -1.571021     -1.110817      0.550689
  C      -1.005115     -2.468220      0.712380
  C      -1.035195     -3.187885     -0.623999
  F      -0.442726      0.172447     -1.808335
  F       0.276825      2.020734     -0.802379
  H       4.979976     -0.414693      1.692950
  H       3.744477      0.801369      2.107696
  H       3.254115     -0.855763      1.694190
  H       4.079783     -0.516431     -0.670065
  H       4.573726      1.154270     -0.252214
  H      -3.785157      1.955472      1.190326
  H      -3.623038      0.247637      0.701754
  H      -2.817300      0.958467     -1.570550
  H      -4.382987      1.723458     -1.218237
  H      -2.880209      2.666674     -1.070636
  H       0.010526     -2.382359      1.111472
  H      -1.639953     -2.958132      1.459845
  H      -2.055333     -3.224515     -1.026015
  H      -0.378237     -2.691863     -1.345097
  H      -0.682175     -4.219287     -0.485840
>
31
-1231.16217209; 31P isotropic shielding: 272.779556 ppm
  C       3.897523     -0.063910      1.756243
  C       3.987602      0.386616      0.304942
  O       2.699138      0.964380     -0.129095
  C       1.775091      0.096723     -0.553606
  O       1.910230     -1.100198     -0.724970
  C       0.397089      0.771583     -0.741742
  P      -0.713806      0.302591      0.732494
  O       0.121513      0.195245      1.947305
  O      -1.825908      1.437604      0.769875
  C      -2.883472      1.587541     -0.248716
  C      -4.202567      1.062298      0.294009
  O      -1.525519     -0.987318      0.247438
  C      -0.976305     -2.356420      0.360748
  C      -0.923375     -2.994041     -1.016213
  F      -0.148092      0.335347     -1.942965
  F       0.492658      2.143980     -0.818253
  H       4.879521     -0.434135      2.081036
  H       3.604382      0.768341      2.406075
  H       3.165273     -0.869536      1.874031
  H       4.241988     -0.437554     -0.369456
  H       4.695241      1.209876      0.168942
  H      -2.586061      1.068282     -1.166271
  H      -2.921481      2.663468     -0.450356
  H      -5.001002      1.247738     -0.437747
  H      -4.144115     -0.015778      0.480309
  H      -4.465710      1.570306      1.229625
  H       0.012164     -2.306098      0.828010
  H      -1.660546     -2.885160      1.034377
  H      -1.914994     -2.992862     -1.485598
  H      -0.216272     -2.464008     -1.661599
  H      -0.588989     -4.036202     -0.919074
>
31
-1231.16257102; 31P isotropic shielding: 270.976068 ppm
  C       3.927531     -0.030554      1.639328
  C       3.945754      0.331668      0.160793
  O       2.644247      0.905214     -0.238672
  C       1.686050      0.030121     -0.559544
  O       1.793126     -1.178032     -0.656581
  C       0.312324      0.718210     -0.729179
  P      -0.742175      0.365209      0.815915
  O       0.139668      0.329998      2.001636
  O      -1.840106      1.514236      0.817999
  C      -2.936370      1.608065     -0.165533
  C      -4.243792      1.180179      0.481021
  O      -1.586119     -0.943918      0.452309
  C      -1.053240     -2.309157      0.654444
  C      -1.063999     -3.055455     -0.667682
  F      -0.291691      0.220539     -1.877075
  F       0.427917      2.081524     -0.894747
  H       4.920730     -0.395317      1.934906
  H       3.678875      0.843173      2.252384
  H       3.192986     -0.816821      1.842695
  H       4.150974     -0.535584     -0.475296
  H       4.656871      1.132640     -0.062170
  H      -2.698375      0.995415     -1.041758
  H      -2.951234      2.661302     -0.466115
  H      -5.069637      1.320444     -0.230104
  H      -4.206717      0.123067      0.767370
  H      -4.449795      1.782449      1.374063
  H      -0.046522     -2.239098      1.078137
  H      -1.717631     -2.770865      1.394087
  H      -2.073378     -3.075500     -1.097214
  H      -0.375760     -2.591073     -1.380697
  H      -0.740610     -4.092077     -0.499422
>
31
-1231.16258207; 31P isotropic shielding: 271.364049 ppm
  C       3.910373     -0.187584      1.724771
  C       3.997353      0.297330      0.284377
  O       2.708438      0.886596     -0.132391
  C       1.782674      0.030321     -0.575582
  O       1.916105     -1.162310     -0.775666
  C       0.404823      0.710789     -0.744586
  P      -0.703022      0.209098      0.720950
  O       0.134567      0.076043      1.931666
  O      -1.816345      1.341767      0.784087
  C      -2.880256      1.507067     -0.225483
  C      -4.195746      0.973334      0.317790
  O      -1.513847     -1.071065      0.209157
  C      -0.964087     -2.441886      0.294561
  C      -0.915425     -3.052533     -1.094726
  F      -0.144006      0.302867     -1.954008
  F       0.501982      2.084412     -0.789902
  H       3.178970     -0.996371      1.824819
  H       4.893295     -0.564325      2.039015
  H       3.617479      0.628804      2.394536
  H       4.249094     -0.510705     -0.410211
  H       4.705558      1.122882      0.166426
  H      -2.588614      1.001758     -1.152576
  H      -2.919718      2.585920     -0.410504
  H      -4.135676     -0.107355      0.487681
  H      -4.452874      1.467305      1.262524
  H      -4.998960      1.169230     -0.405941
  H       0.025919     -2.400177      0.759317
  H      -1.645876     -2.983863      0.960102
  H      -0.210628     -2.509535     -1.731789
  H      -0.580275     -4.096213     -1.019193
  H      -1.908578     -3.042501     -1.560721
>
31
-1231.16256842; 31P isotropic shielding: 271.067594 ppm
  C       3.940065     -0.113995      1.619070
  C       3.952675      0.279659      0.148551
  O       2.651484      0.865611     -0.232932
  C       1.689476     -0.000296     -0.567306
  O       1.793090     -1.206232     -0.690174
  C       0.316399      0.693792     -0.716888
  P      -0.735363      0.303642      0.821457
  O       0.149183      0.238841      2.004144
  O      -1.833280      1.452570      0.855459
  C      -2.919283      1.582654     -0.135157
  C      -4.229531      1.105915      0.470012
  O      -1.580196     -0.995957      0.426541
  C      -1.048913     -2.365990      0.595555
  C      -1.061506     -3.080290     -0.744128
  F      -0.289802      0.225486     -1.876030
  F       0.433323      2.060658     -0.848546
  H       3.202752     -0.900832      1.809658
  H       4.933035     -0.490047      1.900868
  H       3.699551      0.747567      2.252147
  H       4.152808     -0.574372     -0.506674
  H       4.665425      1.083070     -0.060048
  H      -2.662093      1.019963     -1.039131
  H      -2.943736      2.649752     -0.381102
  H      -4.455273      1.657818      1.390393
  H      -5.047152      1.273902     -0.244569
  H      -4.183104      0.035881      0.701004
  H      -0.041692     -2.307313      1.019798
  H      -1.713349     -2.844445      1.324416
  H      -2.071185     -3.088545     -1.173239
  H      -0.373523     -2.599298     -1.446193
  H      -0.739084     -4.120968     -0.601357
>
31
-1231.16258290; 31P isotropic shielding: 271.088878 ppm
  C       4.688966      0.235881     -0.570087
  C       3.781098      0.314575      0.649397
  O       2.457930      0.858054      0.287805
  C       1.553549     -0.026249     -0.146000
  O       1.717069     -1.219770     -0.316849
  C       0.166409      0.623415     -0.360979
  P      -1.007582      0.084271      1.031862
  O      -0.247149      0.050610      2.298588
  O      -2.203297      1.129377      0.983400
  C      -3.338365      1.125645      0.042921
  C      -3.149339      2.190375     -1.026450
  O      -1.678870     -1.266743      0.504215
  C      -1.072173     -2.597488      0.724300
  C      -0.937482     -3.306058     -0.611576
  F      -0.313433      0.221195     -1.603580
  F       0.239741      1.999144     -0.385620
  H       4.784618      1.217488     -1.049982
  H       5.689528     -0.092782     -0.258119
  H       4.304273     -0.483906     -1.301143
  H       4.151319      1.025700      1.393787
  H       3.631186     -0.665453      1.113921
  H      -4.211663      1.335699      0.670542
  H      -3.443308      0.122898     -0.383820
  H      -2.294498      1.960770     -1.670765
  H      -4.051372      2.237139     -1.652413
  H      -2.992478      3.175224     -0.571104
  H      -0.105807     -2.470648      1.221550
  H      -1.755367     -3.121175      1.403054
  H      -0.546164     -4.319358     -0.445977
  H      -1.911313     -3.390595     -1.109762
  H      -0.241526     -2.769435     -1.263816
>
31
-1231.16204228; 31P isotropic shielding: 276.596844 ppm
  C       3.747310     -0.668953      1.415955
  C       3.761809      0.256918      0.206696
  O       2.401683      0.753836     -0.063872
  C       1.620060     -0.021476     -0.833985
  O       1.931765     -1.043096     -1.406709
  C       0.174802      0.539109     -0.824463
  P      -0.697199      0.171027      0.821768
  O      -0.292645      1.122488      1.876339
  O      -2.256315      0.094435      0.447082
  C      -3.153692      1.234909      0.717230
  C      -3.234258      2.163685     -0.484085
  O      -0.280143     -1.349841      1.053522
  C      -1.107159     -2.550788      0.847317
  C      -1.081426     -3.011476     -0.601306
  F      -0.524143     -0.036977     -1.864181
  F       0.176255      1.906344     -1.043671
  H       4.774939     -0.975282      1.653914
  H       3.323334     -0.159483      2.289035
  H       3.157872     -1.570043      1.212432
  H       4.135517     -0.243798     -0.692437
  H       4.338808      1.167802      0.392326
  H      -2.790916      1.751669      1.612778
  H      -4.120081      0.767929      0.936440
  H      -2.269089      2.644213     -0.679811
  H      -3.543948      1.617153     -1.382924
  H      -3.974523      2.950612     -0.283967
  H      -0.657477     -3.291998      1.516533
  H      -2.124043     -2.332241      1.190908
  H      -1.605046     -3.974508     -0.679758
  H      -1.582565     -2.291449     -1.256378
  H      -0.051589     -3.141722     -0.952526
>
31
-1231.16147930; 31P isotropic shielding: 270.834748 ppm
  C       3.875049     -0.172827      1.546680
  C       3.820598      0.516187      0.189875
  O       2.435762      0.917430     -0.123120
  C       1.646941     -0.028981     -0.650222
  O       1.968145     -1.148219     -0.995169
  C       0.177067      0.449794     -0.692048
  P      -0.729717      0.014525      0.913558
  O      -0.043770      0.622618      2.071807
  O      -2.243463      0.446075      0.612377
  C      -2.768520      1.762542      1.027743
  C      -3.144499      2.579368     -0.197362
  O      -0.768258     -1.571484      0.921385
  C      -1.585334     -2.422556      0.028669
  C      -0.685990     -3.484932     -0.577824
  F      -0.449730     -0.146462     -1.774863
  F       0.094453      1.819322     -0.881906
  H       4.922148     -0.376983      1.808473
  H       3.436361      0.464048      2.323170
  H       3.333705     -1.125056      1.526332
  H       4.186250     -0.127755     -0.616905
  H       4.367190      1.463921      0.185499
  H      -2.014100      2.260038      1.647433
  H      -3.642163      1.537879      1.650494
  H      -3.602497      3.525085      0.123829
  H      -2.262039      2.810175     -0.803551
  H      -3.869573      2.040190     -0.819194
  H      -2.367747     -2.852828      0.664688
  H      -2.055830     -1.798716     -0.736800
  H      -1.285287     -4.146667     -1.218415
  H       0.104082     -3.025200     -1.180880
  H      -0.220033     -4.093034      0.207049
>
31
-1231.16310799; 31P isotropic shielding: 275.993809 ppm
  C       3.879290     -0.178570      1.550363
  C       3.826656      0.516935      0.196788
  O       2.442873      0.922540     -0.114830
  C       1.652116     -0.019663     -0.646624
  O       1.971003     -1.138005     -0.996469
  C       0.183274      0.462414     -0.685935
  P      -0.724328      0.022289      0.918079
  O      -0.037039      0.622706      2.079480
  O      -2.236817      0.459694      0.618636
  C      -2.758413      1.774409      1.043257
  C      -3.130099      2.601848     -0.176080
  O      -0.767071     -1.563609      0.918767
  C      -1.587021     -2.408909      0.023387
  C      -0.689909     -3.467222     -0.593518
  F      -0.445326     -0.127605     -1.771060
  F       0.103787      1.833064     -0.869610
  H       3.441307      0.455395      2.329641
  H       3.336330     -1.129786      1.525301
  H       4.925917     -0.385740      1.811661
  H       4.191425     -0.123900     -0.612880
  H       4.375247      1.463541      0.197103
  H      -2.003415      2.265209      1.667553
  H      -3.633485      1.547717      1.663260
  H      -2.245850      2.833806     -0.779200
  H      -3.856180      2.069943     -0.802978
  H      -3.585048      3.546829      0.151503
  H      -2.366966     -2.843472      0.659517
  H      -2.060587     -1.780130     -0.736204
  H      -1.291520     -4.124626     -1.236421
  H       0.097935     -3.003495     -1.196397
  H      -0.221087     -4.080609      0.185511
>
31
-1231.16311088; 31P isotropic shielding: 275.993213 ppm
  C       3.568974      1.346823      1.640700
  C       3.744730      0.902145      0.194571
  O       2.598525      0.074667     -0.226331
  C       1.502704      0.733944     -0.627362
  O       1.380014      1.931287     -0.787200
  C       0.313296     -0.243147     -0.781348
  P      -0.597149     -0.474475      0.864308
  O       0.320044     -0.995742      1.897953
  O      -1.194050      0.963912      1.170174
  C      -2.327515      1.601507      0.466099
  C      -1.915576      3.005653      0.060699
  O      -1.872480     -1.358599      0.463343
  C      -1.882257     -2.825651      0.635534
  C      -1.932276     -3.507622     -0.721524
  F       0.734578     -1.483212     -1.232237
  F      -0.553427      0.262021     -1.736776
  H       4.474894      1.872163      1.972192
  H       2.718658      2.030200      1.740871
  H       3.404488      0.482623      2.294285
  H       4.601474      0.233431      0.069394
  H       3.831724      1.750930     -0.492009
  H      -3.157343      1.603288      1.182582
  H      -2.608787      0.991717     -0.397624
  H      -1.073843      2.977774     -0.639324
  H      -2.764888      3.507794     -0.422993
  H      -1.621959      3.592411      0.939554
  H      -0.998781     -3.113940      1.216095
  H      -2.778890     -3.034584      1.230280
  H      -1.026125     -3.298950     -1.300151
  H      -2.011559     -4.594261     -0.579202
  H      -2.803697     -3.171305     -1.296455
>
31
-1231.16311945; 31P isotropic shielding: 275.947736 ppm
  C       3.225039      1.608111      1.839389
  C       3.565356      1.170096      0.421193
  O       2.538321      0.238611     -0.083215
  C       1.430674      0.793430     -0.594939
  O       1.216857      1.974010     -0.783742
  C       0.347728     -0.284089     -0.836229
  P      -0.696601     -0.549981      0.725317
  O       0.093892     -1.194498      1.793230
  O      -1.219530      0.907868      1.082670
  C      -2.118659      1.728481      0.245533
  C      -2.681405      2.827241      1.128852
  O      -1.996967     -1.313402      0.183027
  C      -2.112846     -2.783500      0.250838
  C      -1.967788     -3.388784     -1.136293
  F       0.903233     -1.493817     -1.212897
  F      -0.461805      0.132269     -1.879168
  H       2.309202      2.209169      1.855693
  H       3.087067      0.737717      2.491080
  H       4.045822      2.219276      2.238468
  H       4.486325      0.581095      0.380385
  H       3.634907      2.017661     -0.268784
  H      -2.905384      1.079174     -0.154973
  H      -1.521613      2.132197     -0.578902
  H      -1.874409      3.444715      1.540941
  H      -3.341018      3.472818      0.533479
  H      -3.261766      2.406624      1.958874
  H      -1.357510     -3.159068      0.950346
  H      -3.107813     -2.965691      0.672420
  H      -2.699036     -2.956263     -1.829865
  H      -0.961756     -3.223008     -1.536619
  H      -2.143917     -4.471861     -1.079509
>
31
-1231.16323079; 31P isotropic shielding: 274.977972 ppm
  C       3.213425      1.558346      1.864252
  C       3.563830      1.143946      0.441429
  O       2.540754      0.220565     -0.085161
  C       1.437752      0.783437     -0.598278
  O       1.225690      1.966808     -0.770179
  C       0.358402     -0.291048     -0.868684
  P      -0.698322     -0.586793      0.679612
  O       0.077147     -1.261161      1.740057
  O      -1.210494      0.867847      1.067373
  C      -2.102211      1.711210      0.245134
  C      -2.640718      2.809681      1.143737
  O      -2.000129     -1.328066      0.109891
  C      -2.154190     -2.793707      0.199577
  C      -1.901002     -3.439506     -1.153391
  F       0.920026     -1.491277     -1.264568
  F      -0.443538      0.144395     -1.909565
  H       3.082427      0.677827      2.503605
  H       4.025694      2.173185      2.274911
  H       2.290992      2.149105      1.884972
  H       4.485360      0.556063      0.397240
  H       3.637509      2.002822     -0.233916
  H      -2.902357      1.078575     -0.155545
  H      -1.505975      2.114294     -0.580049
  H      -1.820972      3.411630      1.553578
  H      -3.296304      3.470131      0.560399
  H      -3.219498      2.390144      1.975455
  H      -1.472030     -3.165916      0.972162
  H      -3.186891     -2.941925      0.534529
  H      -0.860532     -3.303292     -1.467567
  H      -2.103528     -4.517247     -1.084291
  H      -2.559216     -3.013073     -1.920019
>
31
-1231.16329453; 31P isotropic shielding: 274.545393 ppm
  C       3.767360     -0.489900      1.506816
  C       3.803415      0.364914      0.246904
  O       2.449428      0.853428     -0.074733
  C       1.662264      0.015453     -0.765573
  O       1.966355     -1.061513     -1.235757
  C       0.213293      0.559204     -0.810827
  P      -0.738321      0.061529      0.753566
  O      -0.280116      0.813994      1.938234
  O      -2.277477      0.199552      0.324561
  C      -3.087111      1.365202      0.730087
  C      -3.153074      2.395063     -0.386570
  O      -0.488942     -1.507356      0.827991
  C      -1.033391     -2.502226     -0.120362
  C      -1.698643     -3.609752      0.677681
  F      -0.414982      0.032236     -1.925184
  F       0.192132      1.935362     -0.942857
  H       3.171540     -1.395633      1.348566
  H       4.789742     -0.792427      1.770835
  H       3.340306      0.071700      2.345545
  H       4.187742     -0.187946     -0.616626
  H       4.380500      1.283654      0.387321
  H      -2.657699      1.779296      1.649296
  H      -4.073619      0.944214      0.953271
  H      -3.533742      1.945687     -1.311735
  H      -3.831756      3.206847     -0.090468
  H      -2.166478      2.827277     -0.586366
  H      -1.739585     -2.008434     -0.794779
  H      -0.176024     -2.858803     -0.701170
  H      -0.991033     -4.061595      1.383228
  H      -2.557306     -3.223899      1.240328
  H      -2.053779     -4.392827     -0.006123
>
31
-1231.16186352; 31P isotropic shielding: 274.472586 ppm
  C       3.861338     -0.198623      1.566737
  C       3.813099      0.469492      0.199215
  O       2.429046      0.861679     -0.127879
  C       1.646090     -0.094545     -0.646097
  O       1.972452     -1.217821     -0.972498
  C       0.175251      0.379952     -0.702740
  P      -0.738694     -0.030155      0.905600
  O      -0.065094      0.604293      2.056797
  O      -2.253399      0.384605      0.586696
  C      -2.790513      1.704686      0.973835
  C      -3.155344      2.499677     -0.268971
  O      -0.765423     -1.616090      0.942509
  C      -1.573088     -2.489456      0.063057
  C      -0.666232     -3.564740     -0.508444
  F      -0.445561     -0.236496     -1.777707
  F       0.090679      1.745753     -0.916909
  H       4.907471     -0.393718      1.839066
  H       3.414144      0.448033      2.330223
  H       3.324488     -1.153569      1.557047
  H       4.185320     -0.185637     -0.595473
  H       4.357076      1.418615      0.183674
  H      -2.046505      2.216379      1.594580
  H      -3.670622      1.485474      1.589379
  H      -2.266536      2.723955     -0.868289
  H      -3.870852      1.947502     -0.890490
  H      -3.620775      3.448745      0.031009
  H      -2.361473     -2.905515      0.701220
  H      -2.036345     -1.885012     -0.722090
  H      -0.207804     -4.153201      0.295643
  H      -1.257740     -4.242497     -1.139419
  H       0.129647     -3.118167     -1.113880
>
31
-1231.16313886; 31P isotropic shielding: 276.006486 ppm
  C       3.679994      0.368845      1.724998
  C       3.742822      0.606170      0.222550
  O       2.405684      0.965448     -0.291321
  C       1.596729     -0.055910     -0.596713
  O       1.873269     -1.240398     -0.584455
  C       0.158705      0.421643     -0.910385
  P      -0.942247      0.057018      0.597196
  O      -0.153726      0.276921      1.834914
  O      -2.227047      0.966547      0.342961
  C      -2.541132      2.103983      1.230483
  C      -1.913251      3.392310      0.723610
  O      -1.554319     -1.387569      0.328676
  C      -0.835659     -2.630779      0.685707
  C      -0.675624     -3.489144     -0.556221
  F      -0.291621     -0.236448     -2.038158
  F       0.119469      1.774654     -1.181769
  H       4.690288      0.160808      2.102712
  H       3.287871      1.251165      2.243586
  H       3.037236     -0.485674      1.961254
  H       4.096266     -0.275943     -0.320961
  H       4.357884      1.473428     -0.035741
  H      -2.201461      1.858473      2.242730
  H      -3.635208      2.151148      1.218353
  H      -2.215667      3.595924     -0.310190
  H      -2.245861      4.227684      1.355462
  H      -0.819832      3.341561      0.765834
  H       0.128811     -2.373627      1.134778
  H      -1.462001     -3.115531      1.443528
  H      -0.215477     -4.447101     -0.276701
  H      -1.650178     -3.694643     -1.015574
  H      -0.027914     -2.995363     -1.287041
>
31
-1231.16348739; 31P isotropic shielding: 263.406801 ppm
  C       3.712936     -0.427842      1.515538
  C       3.763702      0.370435      0.219499
  O       2.415017      0.851795     -0.134593
  C       1.620780     -0.018583     -0.774311
  O       1.916561     -1.122192     -1.184972
  C       0.173977      0.525553     -0.842936
  P      -0.784235      0.078109      0.731563
  O      -0.273955      0.803760      1.912535
  O      -2.312500      0.313980      0.307442
  C      -3.080654      1.467354      0.816385
  C      -3.040389      2.625994     -0.166882
  O      -0.624170     -1.502731      0.820047
  C      -1.164488     -2.476361     -0.149447
  C      -1.220116     -3.825740      0.544162
  F      -0.452836     -0.030289     -1.943962
  F       0.154082      1.897140     -1.011406
  H       3.262838      0.165874      2.319335
  H       3.130706     -1.346875      1.387184
  H       4.733522     -0.705043      1.812201
  H       4.152349     -0.221096     -0.616126
  H       4.344465      1.291581      0.324256
  H      -2.674488      1.745666      1.795102
  H      -4.096137      1.077073      0.945127
  H      -2.024616      3.023726     -0.267170
  H      -3.395103      2.313371     -1.156435
  H      -3.692672      3.432005      0.196778
  H      -2.157276     -2.136552     -0.465462
  H      -0.490356     -2.487430     -1.012579
  H      -1.889144     -3.794598      1.412528
  H      -1.595001     -4.582257     -0.158324
  H      -0.221900     -4.130926      0.879923
>
31
-1231.16340352; 31P isotropic shielding: 274.012754 ppm
  C       3.311137      1.572580      1.774491
  C       3.625375      1.096932      0.362394
  O       2.578619      0.168622     -0.105367
  C       1.473823      0.726232     -0.620308
  O       1.275242      1.904394     -0.837728
  C       0.374727     -0.343183     -0.824847
  P      -0.656774     -0.557424      0.753655
  O       0.131056     -1.196143      1.827173
  O      -1.143169      0.919669      1.085504
  C      -2.038367      1.738609      0.242922
  C      -2.558365      2.874285      1.105510
  O      -1.979680     -1.305015      0.243784
  C      -2.147210     -2.763910      0.395784
  C      -1.914452     -3.469045     -0.930762
  F       0.913097     -1.566631     -1.179040
  F      -0.440543      0.059251     -1.868713
  H       2.399262      2.179681      1.790212
  H       3.178531      0.719923      2.450222
  H       4.141847      2.188607      2.144420
  H       4.537522      0.494272      0.322731
  H       3.696776      1.927388     -0.347878
  H      -2.847988      1.097782     -0.124382
  H      -1.448684      2.105456     -0.603766
  H      -3.128376      2.489978      1.959912
  H      -1.730230      3.486724      1.481542
  H      -3.218100      3.515699      0.505791
  H      -1.461376     -3.110672      1.176924
  H      -3.178061     -2.886715      0.746347
  H      -0.876232     -3.357046     -1.261399
  H      -2.126635     -4.540771     -0.813570
  H      -2.576670     -3.068929     -1.708060
>
31
-1231.16332743; 31P isotropic shielding: 274.508378 ppm
  C       3.522457      1.446878      1.703499
  C       3.701446      1.013905      0.254326
  O       2.560167      0.183527     -0.174352
  C       1.460156      0.840613     -0.567329
  O       1.330313      2.038968     -0.714150
  C       0.275103     -0.138938     -0.730524
  P      -0.650692     -0.371710      0.905755
  O       0.267226     -0.873191      1.948381
  O      -1.279734      1.053976      1.201789
  C      -2.406629      1.676764      0.474636
  C      -1.999272      3.079616      0.060106
  O      -1.908191     -1.276234      0.494979
  C      -1.855657     -2.750384      0.568807
  C      -2.056855     -3.339247     -0.817461
  F       0.701125     -1.381700     -1.171972
  F      -0.582268      0.360410     -1.697788
  H       3.365695      0.577052      2.351443
  H       4.423998      1.977921      2.037873
  H       2.666420      2.122241      1.808902
  H       4.561813      0.350665      0.124758
  H       3.784807      1.868230     -0.425842
  H      -3.246127      1.680222      1.179706
  H      -2.671720      1.055418     -0.385959
  H      -1.146298      3.051275     -0.626095
  H      -2.844786      3.569220     -0.442820
  H      -1.724850      3.678747      0.936773
  H      -0.899761     -3.046992      1.014844
  H      -2.663853     -3.033274      1.253176
  H      -1.237433     -3.057105     -1.487168
  H      -2.086277     -4.435251     -0.746449
  H      -3.003621     -2.997121     -1.252942
