39
-1163.32685531; 31P isotropic shielding: 63.596990 ppm
  C      -0.506439      0.803481      2.431313
  N      -0.072832      0.631999      1.047964
  C      -1.003472      1.109452      0.007658
  O      -0.227451      1.034938     -1.189926
  C       1.158654      1.380553     -0.838011
  C       1.188977      1.282572      0.723970
  O       2.331816      0.543332      1.132318
  P       3.070990     -0.393320     -0.091404
  N       2.085983      0.379437     -1.299770
  N       2.407408     -1.954190     -0.041116
  C       0.995731     -2.282558     -0.244580
  C       3.183012     -2.977145      0.666027
  C       1.458005      2.772865     -1.392632
  C      -2.272040      0.294740     -0.096300
  C      -3.417162      0.715791      0.592324
  C      -4.591575     -0.042991      0.554198
  C      -4.632909     -1.225046     -0.191721
  C      -3.497372     -1.639405     -0.898378
  C      -2.321983     -0.885872     -0.848560
  H       0.281446      0.430535      3.094387
  H      -0.710842      1.863533      2.689917
  H      -1.415795      0.220038      2.610241
  H      -1.289348      2.171816      0.203098
  H       1.275397      2.280338      1.195917
  H       2.537748      0.574535     -2.187381
  H       0.568357     -1.577904     -0.959699
  H       0.913796     -3.301610     -0.651560
  H       0.414051     -2.222742      0.688354
  H       3.158491     -3.925653      0.107833
  H       4.226698     -2.651243      0.756769
  H       2.792302     -3.167266      1.680460
  H       1.430351      2.751333     -2.489676
  H       0.708363      3.495565     -1.048762
  H       2.450361      3.110797     -1.067429
  H      -3.390219      1.646635      1.158665
  H      -5.473681      0.293548      1.096554
  H      -5.547376     -1.814717     -0.231185
  H      -3.529130     -2.551585     -1.492412
  H      -1.445511     -1.194586     -1.408970
>
39
-1163.33138384; 31P isotropic shielding: 93.432999 ppm
  C      -0.510218      0.838547      2.427120
  N      -0.113060      0.708583      1.030125
  C      -1.063872      1.227339      0.032832
  O      -0.308732      1.253284     -1.183615
  C       1.108816      1.422086     -0.856814
  C       1.158270      1.335853      0.696915
  O       2.285531      0.568879      1.094746
  P       2.971564     -0.411891     -0.126534
  N       1.896338      0.296091     -1.307090
  N       2.350824     -1.979168      0.047520
  C       3.255913     -3.007633      0.564365
  C       0.934893     -2.348009      0.063773
  C       1.572301      2.755784     -1.440700
  C      -2.299702      0.367969     -0.111292
  C      -3.453136      0.682171      0.617718
  C      -4.586451     -0.134418      0.541220
  C      -4.576471     -1.265095     -0.280667
  C      -3.432207     -1.571129     -1.026961
  C      -2.298839     -0.760249     -0.941797
  H      -1.414241      0.248968      2.614832
  H       0.294528      0.446311      3.058080
  H      -0.708479      1.890375      2.721884
  H      -1.376887      2.266573      0.295014
  H       1.274287      2.331900      1.167165
  H       2.285201      0.394087     -2.240880
  H       3.026471     -3.265609      1.612542
  H       3.175578     -3.926314     -0.037722
  H       4.290814     -2.647770      0.516581
  H       0.343258     -1.540089     -0.361363
  H       0.777930     -3.264732     -0.525660
  H       0.580202     -2.531372      1.091293
  H       2.611070      2.961786     -1.152589
  H       1.510214      2.726410     -2.536302
  H       0.936639      3.576611     -1.087244
  H      -3.467165      1.572967      1.245638
  H      -5.477147      0.116572      1.115064
  H      -5.459670     -1.898419     -0.348107
  H      -3.422974     -2.441396     -1.681664
  H      -1.414089     -0.976251     -1.533623
>
39
-1163.33055982; 31P isotropic shielding: 85.752212 ppm
  C      -0.492780      0.790260      2.423140
  N      -0.102254      0.692653      1.021026
  C      -1.064801      1.224855      0.042597
  O      -0.319726      1.288296     -1.180219
  C       1.099220      1.435494     -0.861540
  C       1.158106      1.345268      0.691102
  O       2.300778      0.598997      1.079723
  P       2.965311     -0.397521     -0.143159
  N       1.872214      0.295031     -1.314008
  N       2.345959     -1.962538      0.052172
  C       0.932373     -2.339287      0.052279
  C       3.249329     -2.973403      0.608159
  C       1.582775      2.760894     -1.447971
  C      -2.296738      0.361156     -0.110088
  C      -3.449769      0.659250      0.626404
  C      -4.578689     -0.163098      0.543876
  C      -4.564359     -1.284158     -0.291823
  C      -3.420327     -1.573788     -1.046242
  C      -2.291718     -0.756209     -0.955182
  H       0.314438      0.382578      3.040928
  H      -0.687290      1.835526      2.742817
  H      -1.397593      0.198512      2.598600
  H      -1.386893      2.254683      0.329874
  H       1.252881      2.342319      1.163985
  H       2.250409      0.383512     -2.253285
  H       0.536690     -2.439739      1.075904
  H       0.353993     -1.575271     -0.463641
  H       0.803953     -3.301982     -0.466656
  H       3.013625     -3.200806      1.661868
  H       3.174459     -3.909606      0.033171
  H       4.283727     -2.612609      0.556976
  H       1.519695      2.730345     -2.543400
  H       0.959842      3.590992     -1.093946
  H       2.624872      2.946986     -1.158679
  H      -3.465444      1.542246      1.265286
  H      -5.468914      0.076227      1.123342
  H      -5.443236     -1.922807     -0.364368
  H      -3.409385     -2.437454     -1.709494
  H      -1.408333     -0.961005     -1.553029
>
39
-1163.33202211; 31P isotropic shielding: 88.826198 ppm
  C      -0.518761      0.852431      2.417306
  N      -0.118365      0.718713      1.021720
  C      -1.067494      1.229833      0.018755
  O      -0.307927      1.258228     -1.194068
  C       1.108629      1.421026     -0.864666
  C       1.153235      1.345083      0.689656
  O       2.279517      0.581423      1.095694
  P       2.967597     -0.410153     -0.114160
  N       1.894500      0.288218     -1.303650
  N       2.351501     -1.976448      0.078768
  C       0.936629     -2.348321      0.116354
  C       3.263517     -3.000845      0.591572
  C       1.580721      2.747494     -1.457933
  C      -2.298012      0.362566     -0.128156
  C      -2.296103     -0.755097     -0.972647
  C      -3.424899     -1.572736     -1.058412
  C      -4.564631     -1.284436     -0.297877
  C      -4.575367     -0.163999      0.537938
  C      -3.447368      0.659863      0.614234
  H      -1.419963      0.258993      2.605910
  H       0.287258      0.466646      3.050629
  H      -0.722370      1.904098      2.708762
  H      -1.390781      2.266809      0.277541
  H       1.266975      2.345406      1.151256
  H       2.284968      0.376567     -2.237593
  H       0.776901     -3.275477     -0.455687
  H       0.593394     -2.514850      1.150513
  H       0.336795     -1.550050     -0.315316
  H       3.177684     -3.922435     -0.005171
  H       4.297136     -2.639387      0.531650
  H       3.044487     -3.253500      1.643171
  H       2.621151      2.946555     -1.171210
  H       1.516719      2.712563     -2.553039
  H       0.951117      3.574046     -1.106954
  H      -1.415290     -0.958349     -1.575125
  H      -3.416992     -2.434235     -1.724533
  H      -5.443870     -1.923142     -0.365385
  H      -5.462908      0.073874      1.122095
  H      -3.462631      1.544022      1.251359
>
39
-1163.33060329; 31P isotropic shielding: 85.663889 ppm
  C      -0.227197      0.556947      2.528393
  N       0.053664      0.534179      1.095696
  C      -0.976465      1.126438      0.221030
  O      -0.336653      1.172963     -1.055705
  C       1.081155      1.492296     -0.819488
  C       1.282224      1.212322      0.708208
  O       2.451583      0.426264      0.898326
  P       3.051556     -0.345555     -0.502395
  N       1.950641      0.565585     -1.495547
  N       2.385498     -1.904634     -0.577597
  C       3.221984     -3.002800     -0.085347
  C       0.957656     -2.210983     -0.672516
  C       1.317247      2.944524     -1.233631
  C      -2.264410      0.338409      0.176911
  C      -2.406149     -0.783266     -0.650350
  C      -3.595060     -1.516719     -0.643818
  C      -4.652160     -1.141736      0.194464
  C      -4.519206     -0.018916      1.017071
  C      -3.331904      0.720509      0.999617
  H       0.623934      0.118406      3.060001
  H      -0.394085      1.583243      2.916972
  H      -1.117533     -0.044267      2.741390
  H      -1.217002      2.164335      0.557551
  H       1.438541      2.148088      1.278768
  H       2.306034      0.871266     -2.395632
  H       2.941218     -3.314345      0.935471
  H       3.127416     -3.877337     -0.747098
  H       4.272600     -2.686988     -0.069957
  H       0.466803     -1.425781     -1.250249
  H       0.824963     -3.173398     -1.189147
  H       0.474793     -2.266992      0.315605
  H       1.167641      3.052416     -2.315606
  H       0.610163      3.610934     -0.725261
  H       2.339429      3.254754     -0.981505
  H      -1.591998     -1.062263     -1.311017
  H      -3.699344     -2.382388     -1.296273
  H      -5.577230     -1.715985      0.198607
  H      -5.340322      0.287059      1.663320
  H      -3.233626      1.605716      1.627837
>
39
-1163.33144872; 31P isotropic shielding: 93.091568 ppm
  C      -0.611583      2.024090      2.341711
  N      -0.051700      1.271350      1.226827
  C      -0.849776      1.231826      0.001439
  O       0.083104      0.971304     -1.053911
  C       1.415348      1.414726     -0.651612
  C       1.333662      1.436167      0.916032
  O       2.190986      0.374297      1.431323
  P       2.730355     -0.699401      0.249856
  N       2.369996      0.400215     -1.045133
  N       1.404338     -1.793594      0.070231
  C       1.392823     -2.889604      1.039504
  C       0.763330     -2.133376     -1.201672
  C       1.713685      2.778776     -1.273706
  C      -1.904551      0.139241     -0.011829
  C      -2.936118      0.191991     -0.957554
  C      -3.876946     -0.838854     -1.036844
  C      -3.798788     -1.924936     -0.157101
  C      -2.773375     -1.975583      0.794113
  C      -1.826348     -0.949721      0.862826
  H      -0.000814      1.860564      3.236359
  H      -0.668879      3.113723      2.144972
  H      -1.624573      1.661909      2.555157
  H      -1.344059      2.215651     -0.171457
  H       1.749498      2.360343      1.344987
  H       3.177093      0.747484     -1.553600
  H       0.358515     -3.121743      1.336665
  H       1.845884     -3.815342      0.636588
  H       1.940605     -2.603183      1.946211
  H      -0.304466     -2.338143     -1.037583
  H       0.843032     -1.298902     -1.897818
  H       1.217309     -3.034699     -1.656222
  H       2.696674      3.151378     -0.956835
  H       1.691202      2.698374     -2.367012
  H       0.953065      3.507089     -0.968670
  H      -2.995566      1.040271     -1.639698
  H      -4.671733     -0.794035     -1.779879
  H      -4.535311     -2.725168     -0.211128
  H      -2.710528     -2.817704      1.482065
  H      -1.009590     -0.982579      1.579000
>
39
-1163.32552833; 31P isotropic shielding: 82.333280 ppm
  C      -0.347588      0.639805      2.504645
  N      -0.002435      0.567218      1.087995
  C      -0.989764      1.129554      0.146902
  O      -0.291730      1.132225     -1.099959
  C       1.115594      1.452347     -0.810935
  C       1.244375      1.230578      0.733840
  O       2.401611      0.452570      1.008102
  P       3.057811     -0.380144     -0.332014
  N       2.008880      0.495103     -1.409850
  N       2.384962     -1.937547     -0.374423
  C       3.189693     -3.017900      0.203002
  C       0.961252     -2.242220     -0.523330
  C       1.381526      2.885872     -1.269600
  C      -2.275850      0.340700      0.068725
  C      -2.386781     -0.797864     -0.739819
  C      -3.576272     -1.530076     -0.764621
  C      -4.664898     -1.136837      0.023393
  C      -4.562733      0.003156      0.826629
  C      -3.374592      0.741150      0.840163
  H       0.473594      0.211288      3.089054
  H      -0.520381      1.679828      2.852290
  H      -1.252955      0.054141      2.696264
  H      -1.244227      2.178588      0.435442
  H       1.374221      2.187530      1.275182
  H       2.409032      0.765396     -2.302489
  H       2.857762     -3.284193      1.221242
  H       3.120997     -3.919338     -0.425016
  H       4.240507     -2.706859      0.255943
  H       0.847576     -3.220439     -1.014341
  H       0.435470     -2.265689      0.443982
  H       0.499362     -1.474549     -1.146405
  H       2.393625      3.199718     -0.983399
  H       1.281874      2.953242     -2.360599
  H       0.657511      3.575861     -0.819937
  H      -1.547598     -1.090914     -1.362189
  H      -3.656315     -2.409153     -1.402400
  H      -5.590328     -1.710155      0.003249
  H      -5.408169      0.323406      1.433414
  H      -3.299818      1.639500      1.452769
>
39
-1163.33134108; 31P isotropic shielding: 93.193007 ppm
  C      -0.667110      1.494460      2.336654
  N      -0.153046      0.928001      1.091281
  C      -0.997092      1.121790     -0.093646
  O      -0.136730      0.776109     -1.186960
  C       1.210698      1.276430     -0.840699
  C       1.186830      1.343700      0.723454
  O       2.208905      0.488417      1.250298
  P       3.069425     -0.450375      0.122604
  N       2.213717      0.319282     -1.176523
  N       2.404242     -2.011125      0.133522
  C       3.177601     -3.063664      0.797450
  C       0.994715     -2.337318     -0.087985
  C       1.413147      2.630481     -1.524623
  C      -2.242095      0.263270     -0.128928
  C      -2.306866     -0.959436      0.550446
  C      -3.454962     -1.752181      0.466614
  C      -4.546452     -1.331164     -0.301972
  C      -4.487886     -0.108515     -0.980228
  C      -3.341648      0.686073     -0.886979
  H      -1.644908      1.055895      2.564813
  H       0.020018      1.247487      3.153125
  H      -0.781388      2.596578      2.291746
  H      -1.306817      2.190231     -0.190979
  H       1.417365      2.359958      1.089726
  H       2.674959      0.418587     -2.073332
  H       3.165719     -3.983951      0.192920
  H       4.217840     -2.737461      0.917488
  H       2.773633     -3.306445      1.795568
  H       0.455425     -2.453244      0.866063
  H       0.514058     -1.548009     -0.670203
  H       0.916001     -3.285609     -0.641797
  H       2.368014      3.075304     -1.217851
  H       1.410930      2.500755     -2.614313
  H       0.603933      3.323492     -1.264080
  H      -1.455087     -1.273790      1.146635
  H      -3.498986     -2.699932      1.001363
  H      -5.440348     -1.949500     -0.367295
  H      -5.335369      0.227047     -1.575853
  H      -3.294484      1.640973     -1.410323
>
39
-1163.33248752; 31P isotropic shielding: 91.460441 ppm
  C      -0.571526      1.146849      2.560739
  N      -0.116063      0.763684      1.226639
  C      -1.021665      1.102391      0.121633
  O      -0.214471      0.921457     -1.048444
  C       1.140365      1.402712     -0.704008
  C       1.199888      1.243182      0.852503
  O       2.251424      0.330946      1.194497
  P       3.078945     -0.397403     -0.099224
  N       2.140941      0.531890     -1.227925
  N       2.451841     -1.961803     -0.291410
  C       1.040351     -2.295682     -0.485692
  C       3.290239     -3.080402      0.146813
  C       1.278848      2.846559     -1.192392
  C      -2.258345      0.236454      0.033208
  C      -3.418041      0.755905     -0.555836
  C      -4.559637     -0.038460     -0.697648
  C      -4.551208     -1.360094     -0.238317
  C      -3.398277     -1.879909      0.361911
  C      -2.256387     -1.085590      0.495146
  H       0.157658      0.802115      3.301858
  H      -0.698073      2.242950      2.673168
  H      -1.532736      0.665951      2.774724
  H      -1.345023      2.169146      0.185993
  H       1.447441      2.198445      1.348814
  H       2.560133      0.783306     -2.115704
  H       0.561737     -2.581547      0.465544
  H       0.506816     -1.440544     -0.906659
  H       0.952138     -3.145507     -1.180095
  H       3.265332     -3.889887     -0.599328
  H       4.327102     -2.741922      0.261486
  H       2.952923     -3.496260      1.112023
  H       1.215322      2.876360     -2.287497
  H       0.474454      3.473800     -0.789217
  H       2.241679      3.267578     -0.876840
  H      -3.422601      1.787083     -0.908895
  H      -5.454863      0.373270     -1.160935
  H      -5.440573     -1.979778     -0.341900
  H      -3.389884     -2.905977      0.726883
  H      -1.357503     -1.475570      0.963883
>
39
-1163.33259073; 31P isotropic shielding: 90.454572 ppm
  C      -0.663834      1.533156      2.315757
  N      -0.150786      0.946775      1.079283
  C      -0.990787      1.131017     -0.109975
  O      -0.131023      0.763232     -1.196392
  C       1.219541      1.257422     -0.854207
  C       1.192591      1.348249      0.708797
  O       2.207737      0.494654      1.250598
  P       3.064148     -0.467440      0.139446
  N       2.215337      0.286983     -1.173550
  N       2.388685     -2.023309      0.173315
  C       0.977809     -2.343997     -0.047263
  C       3.154379     -3.071510      0.852513
  C       1.435133      2.599504     -1.557530
  C      -2.242721      0.282277     -0.135176
  C      -2.316674     -0.932461      0.557301
  C      -3.471314     -1.716460      0.483320
  C      -4.560308     -1.294753     -0.288385
  C      -4.492596     -0.080021     -0.979835
  C      -3.339649      0.705959     -0.896516
  H      -0.768218      2.635618      2.256919
  H      -1.646244      1.106103      2.545809
  H       0.018226      1.290323      3.137714
  H      -1.291870      2.200403     -0.223017
  H       1.428928      2.368463      1.060350
  H       2.681564      0.372171     -2.069284
  H       0.435877     -2.444403      0.907079
  H       0.503390     -1.559800     -0.641375
  H       0.894878     -3.299148     -0.588586
  H       3.138716     -3.999407      0.259774
  H       4.196192     -2.749797      0.970990
  H       2.746707     -3.299298      1.852671
  H       1.433472      2.454236     -2.645250
  H       0.631805      3.303345     -1.308129
  H       2.393415      3.040246     -1.255533
  H      -1.466948     -1.247153      1.156256
  H      -3.522491     -2.658050      1.028235
  H      -5.459362     -1.906346     -0.345960
  H      -5.338098      0.256218     -1.577883
  H      -3.285308      1.654800     -1.430081
>
39
-1163.33248093; 31P isotropic shielding: 91.234762 ppm
  C      -0.718997      1.573579      2.276881
  N      -0.178510      0.967662      1.061783
  C      -0.994588      1.125794     -0.147659
  O      -0.111273      0.740328     -1.208699
  C       1.229909      1.247915     -0.848651
  C       1.170898      1.366251      0.711544
  O       2.177016      0.525125      1.288929
  P       3.062536     -0.449775      0.212178
  N       2.236956      0.277642     -1.130382
  N       2.395821     -2.009100      0.257375
  C       3.154403     -3.043025      0.965616
  C       0.992096     -2.342505      0.011663
  C       1.452634      2.578306     -1.571674
  C      -2.242876      0.272030     -0.181370
  C      -2.321425     -0.935068      0.523981
  C      -3.471679     -1.724674      0.443028
  C      -4.551776     -1.316262     -0.348241
  C      -4.479551     -0.109114     -1.052398
  C      -3.330857      0.682510     -0.962399
  H      -0.825811      2.674488      2.196823
  H      -1.704561      1.146859      2.493819
  H      -0.053346      1.347412      3.116839
  H      -1.297106      2.191562     -0.287522
  H       1.397553      2.393235      1.049548
  H       2.719067      0.347341     -2.019010
  H       2.728474     -3.260521      1.960440
  H       3.156420     -3.978761      0.385070
  H       4.191589     -2.712886      1.100369
  H       0.926577     -3.304139     -0.520648
  H       0.431337     -2.437106      0.955811
  H       0.524332     -1.568411     -0.600612
  H       2.402972      3.029001     -1.259472
  H       1.472344      2.413384     -2.656403
  H       0.641483      3.282490     -1.350219
  H      -1.479031     -1.238976      1.138681
  H      -3.526512     -2.660191      0.997951
  H      -5.447501     -1.932204     -0.411054
  H      -5.318185      0.216981     -1.665531
  H      -3.273133      1.625623     -1.505690
>
39
-1163.33248569; 31P isotropic shielding: 91.202362 ppm
  C      -0.581043      1.201313      2.540428
  N      -0.120099      0.791697      1.216149
  C      -1.018567      1.112568      0.100320
  O      -0.206223      0.906024     -1.062028
  C       1.149411      1.386649     -0.719476
  C       1.199786      1.258092      0.840098
  O       2.245721      0.349021      1.206467
  P       3.075430     -0.410908     -0.068072
  N       2.147870      0.499706     -1.220376
  N       2.441380     -1.975542     -0.232067
  C       1.029547     -2.306817     -0.428469
  C       3.273182     -3.090147      0.227813
  C       1.298851      2.819302     -1.236604
  C      -2.258336      0.249849      0.022306
  C      -3.411528      0.761897     -0.585770
  C      -4.555872     -0.030027     -0.718695
  C      -4.556871     -1.341626     -0.231290
  C      -3.410597     -1.853717      0.387978
  C      -2.265812     -1.062039      0.512247
  H      -1.545419      0.728336      2.757634
  H       0.142539      0.867089      3.291780
  H      -0.703343      2.299809      2.632093
  H      -1.338433      2.181511      0.142393
  H       1.448306      2.222190      1.318577
  H       2.573627      0.731374     -2.110394
  H       0.546994     -2.582628      0.523764
  H       0.499983     -1.454312     -0.859449
  H       0.940927     -3.162973     -1.115089
  H       4.310977     -2.754142      0.341249
  H       2.930321     -3.488989      1.198252
  H       3.248107     -3.911744     -0.505013
  H       2.261833      3.241536     -0.923143
  H       1.242968      2.826675     -2.332469
  H       0.495083      3.459013     -0.852137
  H      -3.408836      1.785340     -0.960656
  H      -5.445907      0.375913     -1.196835
  H      -5.448399     -1.959293     -0.327970
  H      -3.409576     -2.871776      0.774824
  H      -1.372180     -1.446324      0.995528
>
39
-1163.33259381; 31P isotropic shielding: 90.331139 ppm
  C      -0.682547      1.571833      2.287434
  N      -0.159560      0.965619      1.064719
  C      -0.987375      1.134193     -0.135260
  O      -0.118503      0.746156     -1.207268
  C       1.230487      1.241016     -0.859784
  C       1.189033      1.355310      0.701355
  O       2.195044      0.505173      1.265643
  P       3.060296     -0.474540      0.176569
  N       2.225992      0.262643     -1.155126
  N       2.381171     -2.028305      0.226028
  C       0.971791     -2.348959     -0.004021
  C       3.137960     -3.068975      0.926392
  C       1.457442      2.571579     -1.581187
  C      -2.242143      0.289445     -0.158927
  C      -2.323487     -0.917863      0.545718
  C      -3.480038     -1.699099      0.473570
  C      -4.563713     -1.282110     -0.308277
  C      -4.488665     -0.074703     -1.011745
  C      -3.333632      0.708602     -0.930415
  H      -0.781382      2.673785      2.211882
  H      -1.669204      1.152232      2.512999
  H      -0.010079      1.337549      3.119689
  H      -1.283801      2.202591     -0.267941
  H       1.426904      2.379628      1.039735
  H       2.700719      0.332539     -2.047727
  H       0.504705     -1.571457     -0.612505
  H       0.891754     -3.310724     -0.534055
  H       0.420490     -2.436794      0.946277
  H       2.720504     -3.282865      1.925581
  H       3.125720     -4.004610      0.345829
  H       4.179346     -2.747961      1.050384
  H       2.414680      3.013193     -1.277207
  H       1.464951      2.409634     -2.666526
  H       0.654528      3.281937     -1.349668
  H      -1.478050     -1.228576      1.152786
  H      -3.536951     -2.634843      1.027909
  H      -5.464305     -1.891568     -0.364340
  H      -5.329972      0.258036     -1.617603
  H      -3.273710      1.651859     -1.473219
>
39
-1163.33247262; 31P isotropic shielding: 91.109861 ppm
  C      -0.584820      1.376105      2.460153
  N      -0.056867      0.934024      1.175911
  C      -0.929244      1.145243      0.009704
  O      -0.063370      0.962339     -1.114761
  C       1.268260      1.418613     -0.743224
  C       1.266126      1.362169      0.829105
  O       2.314907      0.452602      1.272259
  P       2.869147     -0.540496      0.044493
  N       2.264636      0.477079     -1.213608
  N       1.596386     -1.754567      0.040128
  C       1.607337     -2.591221      1.249029
  C       1.528962     -2.548315     -1.194864
  C       1.501442      2.824080     -1.303192
  C      -2.074415      0.162194     -0.050223
  C      -3.394717      0.604304     -0.172097
  C      -4.446713     -0.319000     -0.224799
  C      -4.173608     -1.688101     -0.157360
  C      -2.848574     -2.131973     -0.036015
  C      -1.801697     -1.211250      0.019948
  H       0.106662      1.081084      3.256911
  H      -0.734452      2.474362      2.511787
  H      -1.548738      0.888219      2.646067
  H      -1.339981      2.182362      0.005231
  H       1.540824      2.330985      1.279641
  H       2.966794      0.869992     -1.832992
  H       0.679683     -3.179851      1.289217
  H       2.458364     -3.299813      1.286005
  H       1.640082     -1.953415      2.138593
  H       0.615860     -3.159950     -1.177622
  H       1.472141     -1.877611     -2.057657
  H       2.390014     -3.234070     -1.325506
  H       0.711784      3.505218     -0.965225
  H       2.469370      3.222072     -0.972091
  H       1.476826      2.792568     -2.399321
  H      -3.601152      1.673336     -0.227561
  H      -5.473729      0.030258     -0.318999
  H      -4.988894     -2.408979     -0.198469
  H      -2.637884     -3.199455      0.015802
  H      -0.763753     -1.523141      0.113799
>
39
-1163.32683426; 31P isotropic shielding: 63.877053 ppm
  C      -0.432245      1.287875      2.533042
  N       0.020669      0.890941      1.206121
  C      -0.912253      1.151781      0.098230
  O      -0.111150      1.004959     -1.078171
  C       1.244073      1.433025     -0.764048
  C       1.326841      1.320805      0.803137
  O       2.389691      0.387514      1.156040
  P       2.863103     -0.567565     -0.133951
  N       2.201940      0.498341     -1.321078
  N       1.577608     -1.768097     -0.107056
  C       1.440013     -2.525050     -1.359425
  C       1.640200     -2.640543      1.074690
  C       1.464504      2.855133     -1.285957
  C      -2.067987      0.179636      0.064371
  C      -3.388949      0.634843      0.028348
  C      -4.450153     -0.278918     -0.002631
  C      -4.185653     -1.651397      0.000080
  C      -2.859958     -2.108283      0.035227
  C      -1.803794     -1.197288      0.069675
  H       0.298142      0.956549      3.279179
  H      -0.567204      2.384567      2.634133
  H      -1.389846      0.801334      2.751913
  H      -1.313564      2.191045      0.154935
  H       1.635569      2.270469      1.272084
  H       2.874340      0.906804     -1.963024
  H       2.284716     -3.216628     -1.551542
  H       0.521035     -3.126371     -1.314517
  H       1.349974     -1.829446     -2.199426
  H       1.729900     -2.030583      1.979672
  H       0.707433     -3.217947      1.146908
  H       2.481416     -3.361183      1.045749
  H       1.375685      2.864625     -2.379158
  H       0.705678      3.532564     -0.877373
  H       2.455552      3.228756     -0.997637
  H      -3.588993      1.706519      0.023122
  H      -5.477628      0.080468     -0.029703
  H      -5.008127     -2.364819     -0.024455
  H      -2.656067     -3.178341      0.036418
  H      -0.764911     -1.518895      0.097278
>
39
-1163.32682308; 31P isotropic shielding: 64.004654 ppm
  C      -0.549271      1.365583      2.495069
  N      -0.049413      0.937877      1.194988
  C      -0.938732      1.179507      0.047627
  O      -0.095299      1.001412     -1.094364
  C       1.249316      1.431470     -0.739479
  C       1.273483      1.351512      0.831812
  O       2.316002      0.419318      1.243162
  P       2.833421     -0.562969     -0.008864
  N       2.222645      0.481944     -1.241645
  N       1.541845     -1.757696     -0.007155
  C       1.556707     -2.605513      1.194190
  C       1.453212     -2.540481     -1.248055
  C       1.494299      2.841453     -1.282603
  C      -2.098998      0.214254     -0.007956
  C      -3.415352      0.676253     -0.091505
  C      -4.480634     -0.231980     -0.140658
  C      -4.224577     -1.605681     -0.108484
  C      -2.903360     -2.069377     -0.025636
  C      -1.843275     -1.163871      0.027144
  H      -0.683757      2.464657      2.567081
  H      -1.516164      0.887055      2.689558
  H       0.151684      1.048911      3.275038
  H      -1.333791      2.222571      0.065939
  H       1.571448      2.308856      1.291978
  H       2.921814      0.875371     -1.864205
  H       1.601467     -1.975939      2.088926
  H       0.625124     -3.187676      1.236047
  H       2.402625     -3.320771      1.217688
  H       1.396499     -1.862237     -2.105043
  H       2.304584     -3.235402     -1.392746
  H       0.532933     -3.141141     -1.226889
  H       2.474709      3.219235     -0.964641
  H       1.447919      2.827363     -2.378367
  H       0.722587      3.529794     -0.918844
  H      -3.608461      1.748819     -0.120082
  H      -5.504642      0.132504     -0.204910
  H      -5.050244     -2.314758     -0.147407
  H      -2.705979     -3.140379     -0.001688
  H      -0.807673     -1.490648      0.091783
>
39
-1163.32682236; 31P isotropic shielding: 63.657850 ppm
  C      -0.702229      1.617227      2.261951
  N      -0.106969      1.049446      1.059488
  C      -0.908771      1.145528     -0.170691
  O       0.017057      0.839503     -1.217647
  C       1.331691      1.320347     -0.818519
  C       1.238106      1.431441      0.748331
  O       2.248506      0.566286      1.345969
  P       2.856711     -0.556154      0.264700
  N       2.339644      0.325314     -1.128424
  N       1.566849     -1.751379      0.316371
  C       1.476699     -2.436408      1.613996
  C       1.580042     -2.688335     -0.815907
  C       1.617809      2.656915     -1.508129
  C      -2.063353      0.172182     -0.194904
  C      -1.812868     -1.191668      0.012640
  C      -2.868800     -2.103329     -0.005463
  C      -4.181182     -1.659649     -0.225306
  C      -4.432262     -0.299962     -0.429259
  C      -3.370880      0.614071     -0.414741
  H      -0.057208      1.402540      3.120910
  H      -0.848428      2.715181      2.196326
  H      -1.677483      1.150072      2.441732
  H      -1.303096      2.180185     -0.306002
  H       1.499440      2.440344      1.110278
  H       3.083775      0.648427     -1.739292
  H       2.312205     -3.140252      1.799555
  H       1.453663     -1.696308      2.420625
  H       0.539914     -3.010344      1.654377
  H       2.435759     -3.392644     -0.795539
  H       0.657187     -3.285230     -0.797208
  H       1.601786     -2.127221     -1.755294
  H       1.652608      2.511497     -2.594713
  H       0.822053      3.377600     -1.286824
  H       2.572288      3.077330     -1.165978
  H      -0.784554     -1.503760      0.181670
  H      -2.674701     -3.163481      0.152639
  H      -5.003661     -2.373386     -0.236793
  H      -5.449404      0.049048     -0.600116
  H      -3.560146      1.675525     -0.575908
>
39
-1163.32682386; 31P isotropic shielding: 63.707016 ppm
  C      -0.696825      1.589284      2.292045
  N      -0.107518      1.036468      1.079522
  C      -0.916177      1.148463     -0.144695
  O       0.004290      0.858297     -1.201206
  C       1.320013      1.337436     -0.802581
  C       1.235683      1.424097      0.766235
  O       2.250240      0.551380      1.344351
  P       2.854774     -0.552681      0.241868
  N       2.328892      0.350768     -1.133125
  N       1.567930     -1.751292      0.280644
  C       1.498385     -2.467276      1.562942
  C       1.566390     -2.660865     -0.873906
  C       1.597759      2.685297     -1.473406
  C      -2.069247      0.173424     -0.176040
  C      -1.817280     -1.191383      0.022405
  C      -2.871958     -2.104377     -0.003470
  C      -4.184590     -1.661101     -0.222415
  C      -4.437221     -0.300381     -0.417666
  C      -3.377157      0.614901     -0.395027
  H      -0.843016      2.687965      2.240628
  H      -1.671373      1.120178      2.470614
  H      -0.047813      1.363678      3.145170
  H      -1.312999      2.184127     -0.263719
  H       1.497689      2.427744      1.141968
  H       3.067173      0.682728     -1.746161
  H       1.478712     -1.746216      2.386838
  H       0.566907     -3.049872      1.600519
  H       2.341600     -3.168256      1.722627
  H       1.568571     -2.076943     -1.799416
  H       2.426023     -3.360596     -0.885357
  H       0.647248     -3.263350     -0.853282
  H       0.800702      3.399738     -1.237027
  H       2.552650      3.103928     -1.130222
  H       1.627174      2.556409     -2.562255
  H      -0.788794     -1.503509      0.190252
  H      -2.676860     -3.165338      0.147900
  H      -5.006036     -2.375907     -0.239867
  H      -5.454544      0.048451     -0.587826
  H      -3.567598      1.677181     -0.549259
>
39
-1163.32683631; 31P isotropic shielding: 63.932757 ppm
  C      -0.574631      1.221093      2.529689
  N      -0.115034      0.800097      1.208373
  C      -1.012827      1.115147      0.090379
  O      -0.201658      0.895639     -1.070515
  C       1.155649      1.374656     -0.732561
  C       1.205899      1.260899      0.828270
  O       2.250143      0.353740      1.203488
  P       3.076372     -0.422256     -0.063901
  N       2.151108      0.479232     -1.224633
  N       2.437330     -1.986354     -0.211929
  C       1.024461     -2.315246     -0.404938
  C       3.265718     -3.098890      0.259063
  C       1.310560      2.801497     -1.263885
  C      -2.256109      0.256797      0.020041
  C      -3.408143      0.769276     -0.589908
  C      -4.555913     -0.018924     -0.715815
  C      -4.561476     -1.327195     -0.219458
  C      -3.416343     -1.839562      0.401818
  C      -2.268219     -1.051653      0.519092
  H      -0.694650      2.320521      2.612649
  H      -1.539794      0.751592      2.750769
  H       0.148728      0.891352      3.283228
  H      -1.328662      2.185593      0.123676
  H       1.455405      2.229240      1.297558
  H       2.576313      0.699245     -2.117863
  H       0.932953     -3.177047     -1.084118
  H       0.541558     -2.581691      0.549789
  H       0.497049     -1.465010     -0.842946
  H       2.922584     -3.486541      1.233936
  H       3.237146     -3.928073     -0.465051
  H       4.304768     -2.765268      0.367981
  H       2.274368      3.223614     -0.952830
  H       1.256913      2.797599     -2.359884
  H       0.508055      3.447733     -0.887747
  H      -3.401922      1.790149     -0.971715
  H      -5.444989      0.387362     -1.195441
  H      -5.455583     -1.941948     -0.310700
  H      -3.418820     -2.854911      0.795727
  H      -1.375709     -1.436206      1.004214
>
39
-1163.33258044; 31P isotropic shielding: 90.406239 ppm
  C      -0.526692      1.457959      2.426215
  N      -0.024980      0.972484      1.147260
  C      -0.910701      1.163386     -0.012095
  O      -0.065335      0.927093     -1.142059
  C       1.279194      1.371797     -0.804762
  C       1.299689      1.365601      0.768666
  O       2.338717      0.451253      1.225777
  P       2.856083     -0.590253      0.022128
  N       2.252072      0.398374     -1.259542
  N       1.560602     -1.779031      0.074579
  C       1.461759     -2.610381     -1.133468
  C       1.574431     -2.577045      1.309339
  C       1.527757      2.754562     -1.412852
  C      -2.075755      0.202158     -0.023387
  C      -1.828590     -1.173357      0.088985
  C      -2.893759     -2.074434      0.079738
  C      -4.211661     -1.608583     -0.036932
  C      -4.459226     -0.237350     -0.146569
  C      -3.388890      0.666182     -0.140516
  H      -1.494571      0.989414      2.639020
  H       0.172377      1.174433      3.220493
  H      -0.659539      2.559290      2.449535
  H      -1.300954      2.207916     -0.044474
  H       1.598799      2.342900      1.184172
  H       2.954405      0.761349     -1.896827
  H       0.539262     -3.205781     -1.082610
  H       1.402254     -1.966448     -2.016208
  H       2.309597     -3.314006     -1.254912
  H       0.639342     -3.150987      1.378312
  H       2.416145     -3.295879      1.359325
  H       1.626075     -1.911673      2.177526
  H       2.506739      3.146121     -1.107726
  H       1.486889      2.688573     -2.506921
  H       0.754577      3.459519     -1.085853
  H      -0.795471     -1.502046      0.178316
  H      -2.702864     -3.143520      0.164571
  H      -5.041268     -2.314106     -0.041509
  H      -5.480637      0.128856     -0.237113
  H      -3.575372      1.736659     -0.228721
