16
-943.79571242; 31P isotropic shielding: 313.469919 ppm
  C      -0.407714     -2.596137     -0.000411
  N      -0.430703     -1.140513     -0.000468
  C      -1.587813     -0.265230     -0.000190
  O      -2.765558     -0.545114     -0.000799
  N      -0.878238      0.918964      0.000768
  P       0.683326      0.107255      0.000299
  F       1.246694      0.876112      1.271849
  F       1.246780      0.878013     -1.270091
  F       1.962240     -0.892466     -0.000450
  C      -1.362875      2.284162     -0.000242
  H       0.632660     -2.929022     -0.002201
  H      -0.913191     -2.985676     -0.892536
  H      -0.910158     -2.985828      0.893378
  H      -2.458256      2.257140     -0.003113
  H      -1.023046      2.824257      0.893917
  H      -1.018348      2.824384     -0.892509
>
16
-943.79451168; 31P isotropic shielding: 316.772053 ppm
  C      -0.511738     -2.601095      0.048327
  N      -0.509635     -1.159845     -0.117939
  C      -1.573207     -0.281114     -0.029813
  O      -2.776100     -0.411943      0.006572
  N      -0.776034      0.928707      0.019926
  P       0.691066      0.128687     -0.025222
  F       1.500590     -0.338939     -1.308908
  F       1.460830     -0.471170      1.229196
  F       1.550005      1.503696      0.053730
  C      -1.232417      2.310652     -0.026695
  H      -0.103086     -2.896217      1.025365
  H       0.080161     -3.079275     -0.742320
  H      -1.547172     -2.951476     -0.024470
  H      -0.784598      2.893560      0.785027
  H      -0.990365      2.785044     -0.985823
  H      -2.320598      2.291228      0.099844
>
16
-943.79636180; 31P isotropic shielding: 313.337064 ppm
  C      -0.431838     -2.542516     -0.666005
  N      -0.481011     -1.148462     -0.273816
  C      -1.576511     -0.348054     -0.022157
  O      -2.773833     -0.525295     -0.024452
  N      -0.823384      0.859451      0.266477
  P       0.670062      0.152986      0.021361
  F       1.477686      1.519519      0.359990
  F       1.421251      0.008007     -1.371018
  F       1.534380     -0.658556      1.080253
  C      -1.330074      2.168763      0.650351
  H       0.045634     -2.660333     -1.648331
  H      -1.459931     -2.916829     -0.724629
  H       0.122073     -3.139874      0.070798
  H      -2.423456      2.097467      0.652712
  H      -0.985602      2.451723      1.651906
  H      -1.020748      2.938302     -0.066140
