32
-1804.18314985; 31P isotropic shielding: 296.378061 ppm
  C       1.348433     -3.184463      0.009901
  C      -0.046170     -2.557805     -0.134620
  P      -0.023049     -0.700360     -0.048336
  C      -1.620331      0.166413     -0.052655
  C      -1.711855      1.457286     -0.591698
  C      -2.939413      2.122610     -0.588241
  C      -4.080632      1.493138     -0.079593
  C      -3.989026      0.197805      0.440112
  C      -2.758542     -0.462281      0.469586
  C       1.472486      0.344935      0.080880
  C       2.655016      0.008466     -0.591666
  C       3.783332      0.821874     -0.463303
  C       3.725559      1.993131      0.297881
  C       2.536746      2.340887      0.947710
  C       1.417183      1.511587      0.858923
  Cl     -0.061868     -0.880400      2.267103
  Cl      0.094470     -0.603714     -2.344854
  H       1.845574     -2.843584      0.924477
  H       1.242589     -4.275131      0.065983
  H       1.982629     -2.954041     -0.852278
  H      -0.499727     -2.812913     -1.095668
  H      -0.692601     -2.880127      0.686170
  H      -0.836421      1.931111     -1.026447
  H      -3.005037      3.129226     -0.997051
  H      -5.038533      2.010165     -0.089138
  H      -4.873376     -0.297266      0.836926
  H      -2.686153     -1.449857      0.916294
  H       2.692407     -0.864955     -1.232935
  H       4.703084      0.545305     -0.975445
  H       4.601923      2.633326      0.382826
  H       2.481270      3.252486      1.539839
  H       0.512432      1.762543      1.403619
>
32
-1804.18310586; 31P isotropic shielding: 296.190929 ppm
  C       0.161760     -3.556547     -0.082911
  C       0.290798     -2.303766     -0.951111
  P       0.083855     -0.600185     -0.225641
  C      -1.583630      0.103603     -0.028098
  C      -2.638171     -0.379486     -0.813743
  C      -3.923177      0.140090     -0.643668
  C      -4.152328      1.162558      0.282763
  C      -3.094069      1.651704      1.055499
  C      -1.812970      1.113354      0.916525
  C       1.549216      0.424588      0.120827
  C       2.744377     -0.198767      0.502327
  C       3.882031      0.574694      0.743761
  C       3.820084      1.968075      0.640654
  C       2.619904      2.586712      0.274879
  C       1.487261      1.818633     -0.003244
  Cl      0.061496     -1.287381      1.947078
  Cl      0.135332      0.194616     -2.419278
  H       0.935166     -3.612846      0.687079
  H      -0.810931     -3.609439      0.415593
  H       0.260308     -4.431570     -0.741051
  H       1.273363     -2.238575     -1.436162
  H      -0.433811     -2.315535     -1.771667
  H      -2.461146     -1.140426     -1.568700
  H      -4.742287     -0.246559     -1.247185
  H      -5.152371      1.575164      0.403254
  H      -3.266260      2.444895      1.780746
  H      -1.005004      1.461682      1.553137
  H       2.787800     -1.277328      0.629794
  H       4.813067      0.086591      1.026015
  H       4.704657      2.569524      0.842248
  H       2.566811      3.670414      0.187937
  H       0.572771      2.298312     -0.339158
>
32
-1804.18082602; 31P isotropic shielding: 292.293837 ppm
  C      -0.720620     -3.415591     -0.230182
  C       0.515720     -2.548933      0.049617
  P       0.156201     -0.724951      0.013618
  C      -1.501323      0.027574     -0.162827
  C      -2.625649     -0.544873      0.447466
  C      -3.881432      0.044531      0.283298
  C      -4.014968      1.226906     -0.450741
  C      -2.887413      1.811304     -1.037031
  C      -1.635575      1.205808     -0.913035
  C       1.567181      0.417621      0.106108
  C       1.399050      1.688461      0.673367
  C       2.483417      2.565759      0.738209
  C       3.740516      2.168201      0.270304
  C       3.908591      0.892367     -0.277895
  C       2.821735      0.020893     -0.375922
  Cl     -0.066509     -0.718822      2.300199
  Cl      0.325498     -0.817351     -2.305927
  H      -1.200289     -3.132631     -1.173126
  H      -0.406897     -4.464142     -0.308662
  H      -1.452588     -3.346904      0.581265
  H       0.935352     -2.759715      1.036395
  H       1.271931     -2.710362     -0.723738
  H      -2.522947     -1.427571      1.068795
  H      -4.752731     -0.415044      0.746236
  H      -4.992537      1.692392     -0.563521
  H      -2.981366      2.733808     -1.607029
  H      -0.773088      1.637883     -1.410708
  H       0.434606      1.983607      1.076800
  H       2.346958      3.556329      1.168170
  H       4.586578      2.850220      0.333345
  H       4.884083      0.577066     -0.643405
  H       2.949417     -0.950437     -0.845244
>
32
-1804.18311375; 31P isotropic shielding: 295.869953 ppm
  C       0.298717     -3.537329      0.553135
  C       0.097704     -2.484991     -0.538631
  P      -0.023720     -0.672138     -0.122463
  C      -1.649932      0.148579     -0.095406
  C      -1.773400      1.495692     -0.459989
  C      -3.028048      2.107789     -0.422866
  C      -4.161819      1.373402     -0.058949
  C      -4.036129      0.023400      0.284345
  C      -2.779921     -0.587120      0.284538
  C       1.493816      0.313646      0.080061
  C       1.470251      1.493918      0.835646
  C       2.637475      2.247510      0.977147
  C       3.833888      1.810387      0.399185
  C       3.857602      0.620560     -0.335882
  C       2.687201     -0.120692     -0.511397
  Cl     -0.145165     -0.969954      2.131935
  Cl      0.054121     -0.276352     -2.422029
  H       1.205110     -3.352652      1.137692
  H      -0.543345     -3.583274      1.248211
  H       0.398838     -4.515153      0.060788
  H       0.907345     -2.518323     -1.274867
  H      -0.820522     -2.659653     -1.114099
  H      -0.904329      2.054428     -0.794430
  H      -3.120212      3.157362     -0.696176
  H      -5.139947      1.850780     -0.045087
  H      -4.914057     -0.554836      0.566510
  H      -2.684074     -1.623905      0.596616
  H       0.555288      1.811630      1.326927
  H       2.612574      3.170585      1.553412
  H       4.744663      2.393524      0.522735
  H       4.785256      0.273375     -0.787055
  H       2.705773     -1.018292     -1.123260
>
32
-1804.18081748; 31P isotropic shielding: 292.563630 ppm
  C      -0.626192     -3.435030     -0.289195
  C       0.617451     -2.534043     -0.288386
  P       0.210737     -0.725615     -0.139976
  C      -1.468943     -0.002589     -0.082453
  C      -2.518301     -0.539003     -0.840434
  C      -3.792457      0.028397     -0.762593
  C      -4.015477      1.155058      0.034592
  C      -2.960430      1.704607      0.770565
  C      -1.694041      1.118524      0.730909
  C       1.601002      0.437148      0.001233
  C       2.802783      0.020406      0.589200
  C       3.878599      0.907419      0.669647
  C       3.748415      2.216402      0.194242
  C       2.542313      2.632989     -0.379551
  C       1.472748      1.742642     -0.492777
  Cl      0.130342     -1.004377      2.164976
  Cl      0.219832     -0.544491     -2.433482
  H      -1.252231     -3.251564      0.590741
  H      -1.224659     -3.291656     -1.194658
  H      -0.303500     -4.483455     -0.264054
  H       1.249960     -2.763613      0.573268
  H       1.186990     -2.641193     -1.215161
  H      -2.342481     -1.376486     -1.506131
  H      -4.606541     -0.403688     -1.341632
  H      -5.005945      1.604346      0.080670
  H      -3.123976      2.583396      1.391639
  H      -0.891230      1.520916      1.340797
  H       2.896079     -0.980203      1.001689
  H       4.814234      0.577362      1.117158
  H       4.584370      2.909496      0.270039
  H       2.436069      3.649637     -0.753556
  H       0.552480      2.055261     -0.977826
