28
-1912.57284218; 31P isotropic shielding: 269.156643 ppm
  F       0.371747      0.232686     -2.041297
  C       1.428605      0.194259     -1.181898
  C       2.468241      1.092971     -1.407563
  F       2.426609      1.957401     -2.442415
  C       3.566691      1.087783     -0.542486
  F       4.582416      1.945658     -0.741686
  C       3.606888      0.188721      0.525466
  C       2.546892     -0.702065      0.728169
  C       1.429556     -0.718521     -0.119844
  P      -0.004138     -1.855051      0.152357
  O       0.060883     -2.664758      1.398993
  C      -1.414034     -0.663686      0.171185
  C      -1.384556      0.364333      1.125860
  F      -0.312347      0.500351      1.941712
  C      -2.424924      1.280207      1.273946
  F      -2.355130      2.260415      2.196175
  C      -3.550088      1.175161      0.450702
  C      -3.617588      0.160241     -0.506563
  C      -2.557125     -0.739837     -0.631566
  F      -2.681367     -1.702733     -1.579610
  F      -4.702346      0.059096     -1.301241
  F      -4.564004      2.047644      0.581499
  C      -0.072728     -2.828759     -1.381589
  F       2.643589     -1.539484      1.775295
  F       4.669759      0.185877      1.354102
  H       0.867664     -3.391371     -1.427647
  H      -0.907028     -3.533759     -1.318554
  H      -0.177840     -2.203882     -2.272702
>
28
-1912.57684833; 31P isotropic shielding: 268.230219 ppm
  F       1.666751     -0.488513      2.471531
  C       2.150837     -0.227024      1.244497
  C       3.343934      0.497502      1.177918
  F       3.981353      0.869761      2.305369
  C       3.869633      0.857774     -0.064768
  F       5.012661      1.561087     -0.135937
  C       3.190144      0.504926     -1.233387
  C       2.004309     -0.221023     -1.137245
  C       1.462609     -0.630695      0.087395
  P      -0.051059     -1.674828      0.230671
  O      -0.126629     -2.419127      1.518479
  C      -1.475951     -0.512710      0.002585
  C      -1.419052      0.883540      0.112140
  F      -0.244410      1.529742      0.318248
  C      -2.557743      1.688147      0.022365
  F      -2.458889      3.028483      0.128991
  C      -3.807426      1.097690     -0.174625
  C      -3.906312     -0.292293     -0.283590
  C      -2.751506     -1.067056     -0.187498
  F      -2.898293     -2.411010     -0.288975
  F      -5.109634     -0.867889     -0.475026
  F      -4.909922      1.861344     -0.257038
  C      -0.060299     -2.751118     -1.241860
  F       1.352523     -0.486005     -2.301672
  F       3.677007      0.876700     -2.435311
  H      -0.297979     -2.212460     -2.162287
  H       0.924775     -3.222097     -1.334358
  H      -0.809834     -3.525847     -1.055413
