27
-860.05116796; 31P isotropic shielding: 263.701289 ppm
  C       3.441630     -0.576657      0.292731
  C       2.699985      0.679114     -0.186954
  N       1.315203      0.801391      0.320687
  P       0.066110     -0.018573     -0.414838
  O       0.147570     -0.012906     -1.896475
  O       0.053328     -1.474937      0.280614
  C      -0.830301     -2.524121     -0.245928
  C      -2.142689     -2.577071      0.526230
  O      -1.271277      0.629269      0.221754
  C      -1.818315      1.858408     -0.368087
  C      -1.319019      3.093240      0.371515
  H       2.926889     -1.485754     -0.040177
  H       3.503101     -0.604156      1.389712
  H       4.466322     -0.591696     -0.103665
  H       3.244878      1.583942      0.117326
  H       2.635195      0.692463     -1.280753
  H       1.245052      0.866109      1.334973
  H      -0.989133     -2.345880     -1.316978
  H      -0.261145     -3.453829     -0.129175
  H      -1.957373     -2.732261      1.596437
  H      -2.708880     -1.647524      0.402917
  H      -2.754452     -3.412012      0.156687
  H      -2.905714      1.751792     -0.277617
  H      -1.555241      1.883971     -1.432671
  H      -1.799715      3.991112     -0.041286
  H      -0.233622      3.200110      0.265038
  H      -1.564586      3.032457      1.439481
>
27
-860.05101520; 31P isotropic shielding: 257.278066 ppm
  C       3.120951     -0.437236      1.006859
  C       2.120540      0.711952      0.820042
  N       1.461374      0.721075     -0.499740
  P       0.014461     -0.024981     -0.824446
  O      -0.380699      0.068755     -2.251045
  O       0.179948     -1.504406     -0.204329
  C      -0.948977     -2.441537     -0.260951
  C      -1.609069     -2.564171      1.105702
  O      -1.048983      0.595814      0.229916
  C      -1.746029      1.840403     -0.112352
  C      -0.957583      3.066499      0.334460
  H       3.921371     -0.383799      0.255826
  H       2.619293     -1.406165      0.906956
  H       3.588527     -0.382181      1.999792
  H       1.329892      0.657072      1.577586
  H       2.624292      1.680175      0.958764
  H       2.085643      0.760641     -1.301565
  H      -1.656330     -2.107983     -1.030958
  H      -0.515857     -3.395044     -0.585925
  H      -2.033366     -1.603931      1.418624
  H      -2.416017     -3.309008      1.063543
  H      -0.880413     -2.888132      1.859356
  H      -2.706556      1.772340      0.411644
  H      -1.932681      1.849950     -1.193300
  H      -0.747938      3.024032      1.410703
  H      -1.543195      3.974084      0.132605
  H      -0.007097      3.139380     -0.205467
>
27
-860.05121150; 31P isotropic shielding: 260.622464 ppm
  C       3.281049     -0.795713      0.063910
  C       2.589766      0.505373     -0.368093
  N       1.314139      0.779287      0.329591
  P      -0.096144      0.038529     -0.150592
  O      -0.223567     -0.086242     -1.624336
  O      -0.143128     -1.337302      0.692855
  C      -1.261289     -2.266801      0.485920
  C      -0.959726     -3.246554     -0.641097
  O      -1.274992      0.862332      0.587178
  C      -1.863738      2.028296     -0.081933
  C      -1.108335      3.307981      0.256423
  H       3.502392     -0.787463      1.140266
  H       4.229245     -0.923537     -0.476467
  H       2.643268     -1.662996     -0.143925
  H       3.251444      1.365763     -0.195229
  H       2.363102      0.480296     -1.439881
  H       1.405451      0.923637      1.333565
  H      -1.379720     -2.778875      1.448009
  H      -2.175449     -1.691775      0.287522
  H      -0.044957     -3.813328     -0.426527
  H      -1.790487     -3.958875     -0.743667
  H      -0.831731     -2.713314     -1.589365
  H      -2.895802      2.065184      0.285764
  H      -1.878239      1.839566     -1.162395
  H      -1.072056      3.462927      1.342313
  H      -1.619345      4.168131     -0.198054
  H      -0.082251      3.270672     -0.126154
>
27
-860.05124281; 31P isotropic shielding: 258.771905 ppm
  C       3.386908      1.249330     -0.004078
  C       2.896597     -0.194842     -0.177292
  N       1.618614     -0.488661      0.506515
  P       0.162967     -0.074318     -0.184218
  O       0.136529     -0.263262     -1.656536
  O      -0.920681     -0.915954      0.671102
  C      -1.078425     -2.346093      0.379217
  C      -2.121536     -2.573101     -0.707094
  O      -0.152132      1.421288      0.333619
  C      -1.246031      2.190513     -0.272421
  C      -2.553745      1.992380      0.484033
  H       4.346703      1.392917     -0.519383
  H       3.532382      1.493215      1.057496
  H       2.661473      1.959354     -0.418721
  H       2.744986     -0.422791     -1.238280
  H       3.646143     -0.902580      0.204087
  H       1.653598     -0.405822      1.520972
  H      -0.103398     -2.764570      0.095611
  H      -1.382780     -2.792923      1.333191
  H      -3.088277     -2.146059     -0.411763
  H      -1.800502     -2.112515     -1.647551
  H      -2.257319     -3.651548     -0.869898
  H      -1.334320      1.900827     -1.327144
  H      -0.911086      3.233114     -0.222439
  H      -2.891184      0.952168      0.422630
  H      -3.330182      2.638480      0.051010
  H      -2.434201      2.256352      1.542134
>
27
-860.05155142; 31P isotropic shielding: 256.720669 ppm
  C       3.500557     -0.795941      0.145115
  C       2.834357      0.572084     -0.059860
  N       1.511087      0.707571      0.587217
  P       0.142134      0.091523     -0.132839
  O       0.117135      0.279007     -1.605271
  O       0.027977     -1.437756      0.370698
  C      -0.848772     -2.377523     -0.339104
  C      -2.294871     -2.274213      0.130652
  O      -1.059936      0.769938      0.707196
  C      -1.398085      2.171440      0.427656
  C      -2.451916      2.272890     -0.667501
  H       2.885019     -1.597199     -0.280888
  H       3.643877     -1.009811      1.213444
  H       4.485917     -0.819370     -0.340551
  H       3.477322      1.373310      0.330876
  H       2.684193      0.768180     -1.127487
  H       1.530106      0.638629      1.603243
  H      -0.758129     -2.188359     -1.415990
  H      -0.426866     -3.363815     -0.114750
  H      -2.362823     -2.411718      1.216846
  H      -2.724432     -1.298912     -0.122580
  H      -2.894819     -3.055110     -0.357320
  H      -0.483068      2.715176      0.157306
  H      -1.766640      2.565258      1.382325
  H      -3.359851      1.725591     -0.384219
  H      -2.066495      1.863531     -1.607561
  H      -2.720879      3.326898     -0.824852
>
27
-860.05129875; 31P isotropic shielding: 257.087700 ppm
  C       3.171573      0.714107      0.830264
  C       2.366464     -0.549044      0.494123
  N       1.430222     -0.380492     -0.633465
  P      -0.153404      0.088587     -0.471651
  O      -0.851494      0.229710     -1.773278
  O      -0.821537     -0.961969      0.563429
  C      -1.415582     -2.197810      0.043451
  C      -0.374894     -3.299831     -0.121668
  O      -0.088737      1.391935      0.477028
  C      -1.332585      2.067135      0.867191
  C      -1.741089      3.106905     -0.168799
  H       2.501300      1.537472      1.100905
  H       3.778249      1.031751     -0.029295
  H       3.853865      0.522879      1.670155
  H       3.045861     -1.380088      0.253162
  H       1.775332     -0.866883      1.361073
  H       1.849965     -0.095385     -1.514686
  H      -2.171777     -2.472909      0.787893
  H      -1.916763     -1.970951     -0.905634
  H      -0.870510     -4.229789     -0.433048
  H       0.365386     -3.029731     -0.882809
  H       0.147597     -3.487805      0.824737
  H      -1.106829      2.527334      1.836286
  H      -2.117108      1.314133      1.018385
  H      -2.643766      3.633226      0.172145
  H      -1.951959      2.629257     -1.131873
  H      -0.942782      3.846355     -0.309622
>
27
-860.05147309; 31P isotropic shielding: 262.332846 ppm
  C       3.308763     -0.807023      0.073650
  C       2.664817      0.549062     -0.247785
  N       1.324674      0.745200      0.348261
  P      -0.027824      0.083888     -0.362334
  O      -0.003831      0.148004     -1.844466
  O      -0.154128     -1.392120      0.281725
  C      -1.246984     -2.264071     -0.160632
  C      -1.004107     -3.647993      0.418994
  O      -1.275214      0.813877      0.360100
  C      -1.777904      2.081120     -0.183544
  C      -1.113174      3.274704      0.491313
  H       3.420179     -0.945104      1.158176
  H       4.306794     -0.874857     -0.381019
  H       2.695282     -1.630309     -0.311231
  H       3.305310      1.369948      0.104217
  H       2.547720      0.669686     -1.330533
  H       1.314617      0.752520      1.366746
  H      -2.194127     -1.837345      0.197041
  H      -1.258343     -2.278960     -1.258221
  H      -1.813852     -4.325542      0.116471
  H      -0.054340     -4.060546      0.057084
  H      -0.973782     -3.612308      1.515074
  H      -2.856304      2.060386      0.012806
  H      -1.616909      2.084572     -1.268612
  H      -1.557031      4.206645      0.114474
  H      -0.037453      3.292627      0.282997
  H      -1.259948      3.238440      1.578348
>
27
-860.05150597; 31P isotropic shielding: 260.448806 ppm
  C       3.096644      1.271142      0.305949
  C       2.655142     -0.100804     -0.223504
  N       1.383986     -0.594572      0.350066
  P      -0.080263     -0.078798     -0.249179
  O      -0.113297      0.021768     -1.729660
  O      -1.169620     -1.069818      0.416490
  C      -1.497534     -2.333606     -0.253000
  C      -0.608793     -3.470848      0.236270
  O      -0.400265      1.283849      0.554377
  C      -1.600869      2.052221      0.206332
  C      -1.203062      3.498199     -0.049047
  H       3.233929      1.248357      1.396027
  H       2.347480      2.037615      0.075299
  H       4.051390      1.568190     -0.149677
  H       2.517461     -0.066148     -1.310129
  H       3.426689     -0.856107     -0.017741
  H       1.407076     -0.749021      1.356403
  H      -2.549538     -2.514535     -0.003240
  H      -1.411799     -2.188262     -1.336980
  H       0.439563     -3.290672     -0.026921
  H      -0.683501     -3.582494      1.325558
  H      -0.927948     -4.413662     -0.229350
  H      -2.290835      1.962552      1.055244
  H      -2.072014      1.611631     -0.681142
  H      -0.535664      3.565930     -0.916506
  H      -0.689825      3.920577      0.823890
  H      -2.098033      4.102815     -0.250729
>
27
-860.04999236; 31P isotropic shielding: 258.785442 ppm
  C       3.162129      1.233325      0.130568
  C       2.708221     -0.190360     -0.220153
  N       1.403874     -0.575398      0.362967
  P      -0.021841     -0.096100     -0.349640
  O       0.011115     -0.156140     -1.831821
  O      -1.164885     -0.981490      0.371506
  C      -1.516596     -2.292562     -0.185493
  C      -0.683098     -3.404483      0.439380
  O      -0.338442      1.351739      0.293669
  C      -1.538467      2.072757     -0.140799
  C      -1.457232      3.488555      0.406174
  H       2.445291      1.973997     -0.243070
  H       4.144110      1.443900     -0.315374
  H       3.249205      1.364252      1.218203
  H       2.613230     -0.305849     -1.305709
  H       3.451765     -0.924361      0.121105
  H       1.388311     -0.595567      1.381228
  H      -2.581591     -2.415048      0.044031
  H      -1.392012     -2.253679     -1.274662
  H      -0.795053     -3.408434      1.531149
  H      -1.019664     -4.377477      0.055221
  H       0.378565     -3.283540      0.196317
  H      -2.417969      1.540258      0.246524
  H      -1.573902      2.062809     -1.238017
  H      -0.575147      4.008205      0.012539
  H      -1.397990      3.480975      1.501641
  H      -2.352029      4.053215      0.111615
>
27
-860.05144466; 31P isotropic shielding: 260.481530 ppm
  C       3.323867     -0.790098     -0.008474
  C       2.668893      0.567396     -0.300056
  N       1.336776      0.747925      0.318240
  P      -0.023078      0.091207     -0.382023
  O      -0.022143      0.177733     -1.863260
  O      -0.132417     -1.395256      0.241273
  C      -1.228478     -2.265525     -0.195631
  C      -0.975933     -3.653900      0.369077
  O      -1.262877      0.803987      0.370263
  C      -1.781329      2.075674     -0.147189
  C      -1.108560      3.264251      0.528497
  H       2.708860     -1.610601     -0.396805
  H       3.451734     -0.943829      1.072099
  H       4.315435     -0.845798     -0.478662
  H       3.310591      1.386098      0.054824
  H       2.535498      0.703636     -1.379089
  H       1.341246      0.742444      1.336717
  H      -2.172373     -1.844181      0.176701
  H      -1.252612     -2.271013     -1.293128
  H      -0.934160     -3.627949      1.465041
  H      -1.787049     -4.330869      0.068952
  H      -0.028988     -4.060728     -0.006461
  H      -2.855384      2.047742      0.070902
  H      -1.642405      2.093142     -1.235176
  H      -1.234779      3.215360      1.617622
  H      -1.563509      4.198211      0.170351
  H      -0.037026      3.289442      0.300398
>
27
-860.05149555; 31P isotropic shielding: 260.506000 ppm
  C       3.247739     -0.810835      0.933071
  C       2.402808      0.470617      0.909990
  N       1.695070      0.697349     -0.364073
  P       0.163303      0.156205     -0.696800
  O      -0.263596      0.450748     -2.086380
  O       0.163683     -1.390800     -0.244009
  C      -1.073159     -2.175086     -0.346262
  C      -1.704198     -2.360847      1.026960
  O      -0.770075      0.780047      0.472534
  C      -1.177697      2.183933      0.352628
  C      -2.500408      2.308890     -0.392042
  H       2.616420     -1.691550      0.771133
  H       3.760422     -0.916456      1.899318
  H       4.014853     -0.786550      0.146683
  H       1.644321      0.443007      1.701551
  H       3.036452      1.347460      1.109236
  H       2.284379      0.791483     -1.186911
  H      -1.756917     -1.680472     -1.047991
  H      -0.770167     -3.134018     -0.783265
  H      -2.599517     -2.992439      0.941026
  H      -1.002554     -2.851033      1.713549
  H      -1.995845     -1.394912      1.453406
  H      -0.380267      2.749455     -0.148205
  H      -1.258923      2.541937      1.386023
  H      -3.285919      1.734434      0.115283
  H      -2.396088      1.941609     -1.418689
  H      -2.810620      3.362826     -0.423464
>
27
-860.05168007; 31P isotropic shielding: 259.064401 ppm
  C       3.194284      1.158281      0.731334
  C       2.524494     -0.222178      0.682485
  N       1.727248     -0.458866     -0.536225
  P       0.117593     -0.089462     -0.691078
  O      -0.402831     -0.340891     -2.057259
  O      -0.617470     -0.899576      0.504730
  C      -0.854454     -2.335836      0.321913
  C      -2.196987     -2.591369     -0.350968
  O      -0.021375      1.413872     -0.125400
  C      -1.337642      2.064262     -0.115983
  C      -1.932930      2.055288      1.285661
  H       2.441331      1.953617      0.701849
  H       3.872578      1.293748     -0.122565
  H       3.786319      1.266208      1.650835
  H       3.283357     -1.015427      0.751799
  H       1.852790     -0.351975      1.539646
  H       2.240535     -0.415750     -1.412747
  H      -0.026411     -2.765714     -0.258006
  H      -0.822292     -2.755589      1.334460
  H      -2.207305     -2.157854     -1.356588
  H      -2.371945     -3.673598     -0.429940
  H      -3.014128     -2.153294      0.236169
  H      -1.990224      1.563929     -0.842836
  H      -1.153896      3.086220     -0.468292
  H      -2.105072      1.029170      1.628193
  H      -2.892593      2.591018      1.284091
  H      -1.261774      2.554464      1.995822
>
27
-860.05166076; 31P isotropic shielding: 258.734523 ppm
  C       3.285513      1.233767      0.995218
  C       2.160257      0.209665      0.824370
  N       1.529543      0.334493     -0.504980
  P      -0.006959     -0.211568     -0.832931
  O      -0.385232     -0.067791     -2.259451
  O      -0.035799     -1.697199     -0.211248
  C      -1.274746     -2.482630     -0.263423
  C      -1.934858     -2.524841      1.108182
  O      -0.973962      0.553213      0.218008
  C      -1.504304      1.874934     -0.135304
  C      -0.573204      2.991340      0.323287
  H       4.072618      1.085135      0.242420
  H       3.748853      1.133859      1.985617
  H       2.903207      2.256568      0.889446
  H       2.543644     -0.810566      0.988119
  H       1.377062      0.379941      1.572563
  H       2.165520      0.222250     -1.291878
  H      -1.940544     -2.058050     -1.025722
  H      -0.969891     -3.482538     -0.594466
  H      -2.229960     -1.519184      1.427441
  H      -2.831647     -3.159051      1.070067
  H      -1.248980     -2.943359      1.855432
  H      -2.473098      1.930210      0.374869
  H      -1.672596      1.905541     -1.218716
  H      -1.032408      3.966011      0.107293
  H       0.388659      2.938300     -0.198722
  H      -0.391690      2.929148      1.403809
>
27
-860.05089974; 31P isotropic shielding: 262.110987 ppm
  C       3.867222     -0.638279      0.125619
  C       2.689139      0.311326     -0.107618
  N       1.422253     -0.294909      0.355022
  P      -0.032573      0.199774     -0.288911
  O      -0.053207      0.246911     -1.772283
  O      -1.108439     -0.782770      0.408899
  C      -1.410597     -2.077449     -0.212860
  C      -0.530779     -3.185194      0.353114
  O      -0.357810      1.598673      0.448540
  C      -1.363769      2.506991     -0.113356
  C      -2.778788      2.115443      0.296220
  H       4.802381     -0.181520     -0.224272
  H       3.715991     -1.582431     -0.411866
  H       3.987139     -0.867506      1.194108
  H       2.873425      1.277129      0.391991
  H       2.570695      0.515318     -1.178021
  H       1.397209     -0.495023      1.353625
  H      -2.468490     -2.254157      0.014072
  H      -1.294500     -1.980331     -1.299367
  H      -0.830046     -4.150095     -0.079278
  H       0.523771     -3.009495      0.112742
  H      -0.638164     -3.249382      1.443506
  H      -1.247759      2.519469     -1.204270
  H      -1.092687      3.491629      0.284490
  H      -2.866184      2.054387      1.387944
  H      -3.060089      1.145626     -0.128779
  H      -3.487645      2.871864     -0.068512
>
27
-860.05062678; 31P isotropic shielding: 259.731410 ppm
  C       3.115731     -0.607151      0.715707
  C       2.220310      0.633953      0.598976
  N       1.387218      0.657822     -0.618018
  P      -0.152501      0.046346     -0.712004
  O      -0.727469      0.135145     -2.076241
  O      -0.042899     -1.425964     -0.059404
  C      -1.256780     -2.234789      0.077679
  C      -0.840122     -3.637932      0.486729
  O      -0.994602      0.788440      0.454322
  C      -1.621633      2.082002      0.169267
  C      -0.689782      3.240618      0.503873
  H       3.804885     -0.672942     -0.137701
  H       2.509776     -1.519539      0.739770
  H       3.720334     -0.560571      1.632150
  H       1.541463      0.698229      1.457569
  H       2.833252      1.547451      0.611761
  H       1.894631      0.619166     -1.498283
  H      -1.898875     -1.765539      0.835137
  H      -1.786440     -2.234693     -0.884124
  H      -0.299129     -3.622676      1.441136
  H      -1.730100     -4.270657      0.604464
  H      -0.192869     -4.089433     -0.274969
  H      -2.520089      2.100757      0.797448
  H      -1.927791      2.098009     -0.884147
  H      -0.374239      3.197610      1.553976
  H      -1.213905      4.192731      0.341341
  H       0.202826      3.224606     -0.131512
>
27
-860.05169027; 31P isotropic shielding: 264.078086 ppm
  C       3.262288     -0.413471      0.905478
  C       2.310616      0.757423      0.622847
  N       1.438900      0.549957     -0.549293
  P      -0.070745     -0.137173     -0.481073
  O      -0.691965     -0.301049     -1.818722
  O       0.135345     -1.467727      0.407567
  C      -1.020030     -2.320306      0.713525
  C      -1.241403     -3.354787     -0.382833
  O      -0.916805      0.755271      0.572276
  C      -1.628117      1.943629      0.090869
  C      -0.740190      3.182356      0.130173
  H       2.696889     -1.331986      1.097778
  H       3.891117     -0.195266      1.779839
  H       3.928101     -0.590931      0.049334
  H       1.657191      0.935754      1.484974
  H       2.883613      1.682827      0.463101
  H       1.920215      0.382051     -1.429234
  H      -0.772395     -2.791293      1.672007
  H      -1.904755     -1.687041      0.859319
  H      -2.079230     -4.011239     -0.108520
  H      -1.473351     -2.863483     -1.334085
  H      -0.345972     -3.974840     -0.515027
  H      -2.484794      2.046339      0.767250
  H      -1.998390      1.742569     -0.922005
  H      -1.323709      4.062872     -0.172579
  H       0.109476      3.077201     -0.553552
  H      -0.356500      3.355642      1.143487
>
27
-860.05152121; 31P isotropic shielding: 262.064299 ppm
  C       3.501318     -0.801551      0.342389
  C       2.848302      0.545709      0.003656
  N       1.450759      0.679201      0.470673
  P       0.197281     -0.004994     -0.383620
  O       0.394698      0.029533     -1.853452
  O      -0.010266     -1.464633      0.270878
  C      -0.968808     -2.401551     -0.330107
  C      -2.295411     -2.379492      0.417762
  O      -1.121822      0.752839      0.168330
  C      -1.403430      2.098135     -0.340454
  C      -2.737586      2.545921      0.233912
  H       4.540991     -0.824287     -0.012536
  H       2.956394     -1.627494     -0.130320
  H       3.509673     -0.976311      1.427336
  H       3.423418      1.372385      0.443964
  H       2.833914      0.700456     -1.080885
  H       1.343200      0.656509      1.483385
  H      -1.089852     -2.151963     -1.391899
  H      -0.486131     -3.383449     -0.259094
  H      -2.772969     -1.396536      0.341442
  H      -2.972429     -3.132402     -0.009806
  H      -2.146585     -2.613290      1.479364
  H      -1.422720      2.058021     -1.436823
  H      -0.586235      2.764432     -0.030068
  H      -3.544073      1.872381     -0.081252
  H      -2.973612      3.557736     -0.121958
  H      -2.706619      2.563194      1.330482
>
27
-860.05151410; 31P isotropic shielding: 259.176311 ppm
  C       3.150790      1.488181      0.074589
  C       2.767371      0.047097     -0.290261
  N       1.607704     -0.479375      0.461609
  P       0.051719     -0.134374     -0.012190
  O      -0.115998     -0.098646     -1.487001
  O      -0.855670     -1.208487      0.784400
  C      -0.968935     -2.566292      0.237748
  C      -2.139755     -2.671390     -0.730585
  O      -0.349073      1.211115      0.782751
  C      -1.654641      1.831377      0.517309
  C      -1.554309      2.847050     -0.613183
  H       4.027879      1.810642     -0.503477
  H       3.398992      1.573176      1.141779
  H       2.323859      2.176753     -0.136598
  H       2.511131     -0.023678     -1.353154
  H       3.613955     -0.631216     -0.113059
  H       1.749950     -0.543840      1.467946
  H      -0.021483     -2.840507     -0.245268
  H      -1.109808     -3.208661      1.115123
  H      -1.976357     -2.023556     -1.598522
  H      -2.241094     -3.709157     -1.078086
  H      -3.076196     -2.380759     -0.237710
  H      -1.937649      2.303429      1.465382
  H      -2.388478      1.046859      0.290588
  H      -2.529435      3.331279     -0.764161
  H      -1.256679      2.353783     -1.544891
  H      -0.818288      3.623895     -0.370776
>
27
-860.05155273; 31P isotropic shielding: 257.338937 ppm
  C       3.080246      1.216800      0.295832
  C       2.647400     -0.201167     -0.102275
  N       1.333780     -0.612841      0.440668
  P      -0.079956     -0.127045     -0.291036
  O      -0.013154     -0.146895     -1.773026
  O      -1.230403     -1.041811      0.379857
  C      -1.555358     -2.341369     -0.219310
  C      -0.730477     -3.461820      0.402037
  O      -0.424416      1.300282      0.382991
  C      -1.621195      2.022037     -0.060035
  C      -1.565934      3.423328      0.526486
  H       3.141595      1.319493      1.388244
  H       2.364976      1.960729     -0.074390
  H       4.069910      1.447462     -0.122259
  H       2.578371     -0.288664     -1.192377
  H       3.389881     -0.937226      0.236824
  H       1.295844     -0.661273      1.457384
  H      -2.625359     -2.477852     -0.023415
  H      -1.400217     -2.274798     -1.303177
  H       0.336485     -3.326679      0.191807
  H      -0.872997     -3.493140      1.489810
  H      -1.047904     -4.427870     -0.014601
  H      -2.504274      1.471707      0.292578
  H      -1.631004      2.041297     -1.157605
  H      -2.459320      3.987744      0.227175
  H      -0.680294      3.961260      0.166813
  H      -1.531024      3.386310      1.622401
>
27
-860.05142780; 31P isotropic shielding: 260.500300 ppm
  C       3.587413     -0.859210      0.484990
  C       2.306209     -0.058625      0.734421
  N       1.456714     -0.032149     -0.472380
  P      -0.182808      0.237894     -0.426735
  O      -0.801847      0.293974     -1.773975
  O      -0.782514     -0.891928      0.565155
  C      -1.173848     -2.193132      0.013972
  C       0.000339     -3.165114     -0.018549
  O      -0.337624      1.537316      0.514199
  C      -1.674735      2.065908      0.808415
  C      -2.123162      3.053315     -0.261813
  H       4.179840     -0.412627     -0.326067
  H       3.353334     -1.893769      0.205333
  H       4.213835     -0.872867      1.386622
  H       1.718438     -0.523925      1.534392
  H       2.551947      0.962298      1.069249
  H       1.901581      0.353104     -1.302708
  H      -1.966552     -2.548856      0.682485
  H      -1.596499     -2.036214     -0.986046
  H      -0.346265     -4.149816     -0.361559
  H       0.780887     -2.814311     -0.702619
  H       0.436378     -3.283089      0.981544
  H      -1.574256      2.547596      1.788092
  H      -2.377605      1.228179      0.907124
  H      -3.104078      3.469691      0.007524
  H      -2.203969      2.556385     -1.234731
  H      -1.408553      3.881571     -0.347233
