38
-1660.18414329; 31P isotropic shielding: 204.293810 ppm
  S      -0.005334      0.009257      1.841500
  P      -0.003006      0.003948     -0.076795
  O      -1.350026      0.474526     -0.848187
  C      -2.649785      0.121393     -0.448846
  C      -3.622108      1.115240     -0.565134
  C      -4.944393      0.817970     -0.223759
  C      -5.284526     -0.459554      0.235339
  C      -4.295307     -1.442467      0.345322
  C      -2.969495     -1.161305      0.000437
  O       1.080537      0.932026     -0.847958
  C       1.431075      2.232964     -0.450823
  C       0.487008      3.152582      0.009990
  C       0.912764      4.440392      0.350826
  C       2.257892      4.803205      0.225341
  C       3.187091      3.868411     -0.245061
  C       2.777173      2.575558     -0.582458
  O       0.261625     -1.401225     -0.842492
  C       1.215477     -2.351961     -0.443756
  C       2.478720     -1.990792      0.028690
  C       3.383082     -3.001073      0.371293
  C       3.032107     -4.348385      0.236281
  C       1.763271     -4.689188     -0.245844
  C       0.846685     -3.690238     -0.585254
  H      -3.335198      2.101474     -0.922581
  H      -5.707356      1.589134     -0.313014
  H      -6.313825     -0.687668      0.504593
  H      -4.552096     -2.438558      0.701266
  H      -2.200832     -1.923587      0.081878
  H      -0.556945      2.869863      0.103871
  H       0.184052      5.161945      0.715745
  H       2.580011      5.807831      0.491695
  H       4.235793      4.141792     -0.346374
  H       3.482091      1.832926     -0.948953
  H       2.750526     -0.944772      0.130482
  H       4.368296     -2.728008      0.744958
  H       3.742781     -5.127673      0.503917
  H       1.481339     -5.734838     -0.354979
  H      -0.144863     -3.932244     -0.960752
>
38
-1660.18402255; 31P isotropic shielding: 205.288095 ppm
  S       0.203105      0.165012      1.721850
  P       0.029314      0.013650     -0.184987
  O      -1.362529      0.500520     -0.861108
  C      -2.599710      0.168714     -0.266972
  C      -3.198033     -1.051686     -0.578209
  C      -4.446477     -1.349247     -0.022145
  C      -5.075983     -0.434553      0.829835
  C      -4.455509      0.784152      1.127966
  C      -3.206973      1.093486      0.579918
  O       1.085636      0.824135     -1.111644
  C       1.422845      2.160874     -0.806069
  C       0.621527      3.192458     -1.293759
  C       0.990496      4.514637     -1.025056
  C       2.142929      4.788775     -0.279729
  C       2.931725      3.736513      0.199321
  C       2.573549      2.410218     -0.060904
  O       0.158821     -1.462956     -0.843249
  C       1.168717     -2.350563     -0.412145
  C       0.858263     -3.299855      0.559431
  C       1.845902     -4.208577      0.951560
  C       3.121216     -4.157576      0.377069
  C       3.410918     -3.194577     -0.596335
  C       2.431645     -2.280458     -0.998645
  H      -2.688142     -1.745132     -1.242089
  H      -4.926375     -2.297549     -0.257363
  H      -6.047385     -0.670724      1.260011
  H      -4.940847      1.495873      1.793305
  H      -2.698025      2.025920      0.808732
  H      -0.269506      2.954083     -1.868846
  H       0.375199      5.330346     -1.400549
  H       2.425677      5.819192     -0.073055
  H       3.826633      3.945959      0.782468
  H       3.161785      1.576749      0.313444
  H      -0.134174     -3.309199      1.001949
  H       1.618137     -4.953636      1.711679
  H       3.886887     -4.866109      0.687164
  H       4.401339     -3.152726     -1.046063
  H       2.633002     -1.522741     -1.751580
>
38
-1660.18576957; 31P isotropic shielding: 196.485572 ppm
  S       0.164241     -0.041770      1.733905
  P       0.026159     -0.011636     -0.181251
  O      -1.307940     -0.642079     -0.855121
  C      -2.580580     -0.380221     -0.303164
  C      -3.266902      0.769731     -0.691397
  C      -4.546998      0.995138     -0.174749
  C      -5.120853      0.079786      0.715051
  C      -4.412413     -1.067532      1.090562
  C      -3.131567     -1.304254      0.582366
  O       0.058274      1.430913     -0.922817
  C       1.001359      2.409205     -0.538694
  C       0.619889      3.388034      0.376760
  C       1.539474      4.384376      0.718348
  C       2.818582      4.390341      0.149865
  C       3.180440      3.396075     -0.766316
  C       2.269703      2.394287     -1.117596
  O       1.164727     -0.788448     -1.037333
  C       1.598286     -2.073985     -0.646386
  C       0.894365     -3.192942     -1.089740
  C       1.360488     -4.463576     -0.736402
  C       2.511498     -4.600693      0.047963
  C       3.201178     -3.462500      0.481699
  C       2.745312     -2.186523      0.136734
  H      -2.799025      1.466484     -1.382265
  H      -5.095230      1.887978     -0.470071
  H      -6.117008      0.259990      1.114589
  H      -4.854159     -1.779502      1.785360
  H      -2.556017     -2.179586      0.871298
  H      -0.373467      3.353333      0.815926
  H       1.255893      5.153679      1.434251
  H       3.531080      5.167403      0.419950
  H       4.173831      3.398377     -1.211447
  H       2.527647      1.610659     -1.825324
  H       0.002230     -3.060558     -1.696474
  H       0.822110     -5.346445     -1.076468
  H       2.870131     -5.591471      0.320296
  H       4.094592     -3.565427      1.094901
  H       3.254667     -1.287640      0.473489
>
38
-1660.18575862; 31P isotropic shielding: 196.577190 ppm
  S       0.081952      0.175193      1.743115
  P       0.005984      0.037584     -0.170690
  O      -1.309131     -0.644878     -0.830155
  C      -2.597545     -0.334405     -0.343703
  C      -3.182662     -1.183292      0.593582
  C      -4.477972     -0.902337      1.038705
  C      -5.166332      0.214165      0.550108
  C      -4.558075      1.053890     -0.389967
  C      -3.263214      0.783502     -0.844621
  O       0.070221      1.409197     -1.035229
  C       1.008503      2.413211     -0.709853
  C       0.604753      3.472588      0.100311
  C       1.520291      4.491443      0.380820
  C       2.817211      4.439998     -0.143055
  C       3.201251      3.365326     -0.953247
  C       2.294875      2.340091     -1.242710
  O       1.167416     -0.814450     -0.917251
  C       1.580681     -2.061906     -0.401107
  C       0.876302     -3.212101     -0.754841
  C       1.323531     -4.447725     -0.275763
  C       2.456477     -4.519806      0.542859
  C       3.147055     -3.351362      0.884854
  C       2.709789     -2.109568      0.413903
  H      -2.621647     -2.034894      0.968956
  H      -4.946700     -1.554998      1.772940
  H      -6.173743      0.429410      0.901115
  H      -5.090934      1.922459     -0.772830
  H      -2.768679      1.420872     -1.573174
  H      -0.402749      3.482248      0.507382
  H       1.219269      5.323732      1.014417
  H       3.526328      5.235073      0.079302
  H       4.208610      3.322772     -1.363569
  H       2.570148      1.494713     -1.867986
  H      -0.001415     -3.129472     -1.390669
  H       0.784749     -5.354571     -0.544667
  H       2.800191     -5.483696      0.913248
  H       4.026143     -3.403449      1.524575
  H       3.219667     -1.186857      0.677595
>
38
-1660.18585318; 31P isotropic shielding: 196.661717 ppm
  S       0.054649     -0.179582      1.742144
  P       0.021420     -0.003175     -0.169852
  O      -1.317533      0.607310     -0.852949
  C      -2.594201      0.184182     -0.422687
  C      -3.157410     -0.960033     -0.986230
  C      -4.442072     -1.343065     -0.586933
  C      -5.141925     -0.587581      0.360911
  C      -4.555632      0.557345      0.912761
  C      -3.271570      0.950665      0.523372
  O       1.143240      0.940009     -0.864838
  C       1.461209      2.198597     -0.309344
  C       0.702715      3.311718     -0.669572
  C       1.055971      4.561891     -0.151265
  C       2.150414      4.684822      0.712513
  C       2.896550      3.552763      1.060313
  C       2.553469      2.296949      0.550122
  O       0.197976     -1.348872     -1.058430
  C       1.175140     -2.308465     -0.715362
  C       2.476543     -2.155255     -1.191674
  C       3.424171     -3.137398     -0.885142
  C       3.065422     -4.249079     -0.114187
  C       1.752604     -4.381000      0.353135
  C       0.795958     -3.405883      0.055097
  H      -2.593925     -1.531133     -1.719635
  H      -4.895305     -2.233380     -1.019221
  H      -6.141125     -0.889872      0.668509
  H      -5.095515      1.145314      1.652770
  H      -2.789273      1.826633      0.948706
  H      -0.144023      3.190157     -1.340281
  H       0.473999      5.440183     -0.424876
  H       2.421102      5.659674      1.113502
  H       3.745840      3.643990      1.734972
  H       3.107720      1.401193      0.817068
  H       2.731513     -1.282406     -1.787220
  H       4.443854     -3.031940     -1.251280
  H       3.806554     -5.010269      0.121914
  H       1.471020     -5.242185      0.956322
  H      -0.225445     -3.477623      0.419046
>
38
-1660.18571871; 31P isotropic shielding: 196.563337 ppm
  S       0.094604     -1.380255      2.443828
  P       0.407894     -0.386984      0.833715
  O      -0.733130     -0.402352     -0.333336
  C      -1.908872      0.372042     -0.285303
  C      -2.663195      0.513334      0.879952
  C      -3.801479      1.326867      0.845348
  C      -4.180584      1.974205     -0.334658
  C      -3.418626      1.801147     -1.496422
  C      -2.277326      0.998161     -1.476690
  O       0.708673      1.182971      1.079985
  C       0.527949      2.186389      0.102693
  C      -0.331032      3.233753      0.433593
  C      -0.554881      4.245963     -0.501457
  C       0.075815      4.204176     -1.750330
  C       0.945030      3.151785     -2.056000
  C       1.182946      2.132954     -1.126999
  O       1.686831     -0.835569     -0.059865
  C       2.037539     -2.195237     -0.207203
  C       3.165807     -2.657502      0.466014
  C       3.553196     -3.990152      0.295043
  C       2.812981     -4.839395     -0.535187
  C       1.681332     -4.353536     -1.199806
  C       1.285384     -3.021743     -1.041036
  H      -2.360017      0.006774      1.791852
  H      -4.394038      1.449500      1.750368
  H      -5.066263      2.606337     -0.351120
  H      -3.704957      2.302260     -2.419180
  H      -1.653640      0.873345     -2.357869
  H      -0.829018      3.228486      1.399423
  H      -1.233341      5.060909     -0.256919
  H      -0.105787      4.990971     -2.479921
  H       1.444992      3.119407     -3.022520
  H       1.849852      1.306390     -1.353411
  H       3.714858     -1.982007      1.116978
  H       4.430853     -4.365278      0.818255
  H       3.115460     -5.877067     -0.661956
  H       1.101605     -5.011728     -1.844430
  H       0.406586     -2.626523     -1.544029
>
38
-1660.18375048; 31P isotropic shielding: 207.681368 ppm
  S       0.258704     -0.843169      2.662925
  P       0.500661      0.049862      0.985390
  O      -0.761275      0.058662     -0.048738
  C      -2.102361      0.210082      0.325679
  C      -3.035712     -0.510550     -0.420926
  C      -4.395865     -0.365169     -0.135758
  C      -4.815378      0.488267      0.891352
  C      -3.865512      1.198358      1.632563
  C      -2.500764      1.067569      1.354390
  O       0.936320      1.599634      1.135386
  C       1.145483      2.439683      0.014957
  C       2.436503      2.569721     -0.494352
  C       2.654921      3.447510     -1.560423
  C       1.591764      4.178350     -2.103529
  C       0.304149      4.032708     -1.575766
  C       0.072169      3.158948     -0.508228
  O       1.645424     -0.470474     -0.036003
  C       1.632557     -1.794283     -0.527355
  C       1.059790     -2.037720     -1.774829
  C       1.092731     -3.338657     -2.287084
  C       1.686864     -4.371792     -1.552990
  C       2.254647     -4.103191     -0.302385
  C       2.232212     -2.806220      0.220635
  H      -2.686602     -1.174250     -1.208343
  H      -5.127560     -0.925785     -0.714751
  H      -5.874874      0.596135      1.114620
  H      -4.182573      1.859837      2.436779
  H      -1.763661      1.610924      1.938424
  H       3.245396      1.988174     -0.060367
  H       3.658846      3.558530     -1.966166
  H       1.767100      4.860976     -2.932741
  H      -0.525729      4.600381     -1.992766
  H      -0.922082      3.035895     -0.087496
  H       0.600876     -1.218891     -2.322459
  H       0.652631     -3.543493     -3.261453
  H       1.708474     -5.382896     -1.954999
  H       2.716517     -4.904285      0.271758
  H       2.658012     -2.575282      1.192947
>
38
-1660.18420403; 31P isotropic shielding: 211.169122 ppm
  S       0.148515     -0.689491      2.718160
  P       0.451726      0.115536      1.006502
  O      -0.751605      0.020158     -0.091140
  C      -2.115209      0.148315      0.201535
  C      -2.595188      1.046797      1.158015
  C      -3.976479      1.148606      1.354358
  C      -4.862356      0.369474      0.603339
  C      -4.361678     -0.524323     -0.350497
  C      -2.984096     -0.641311     -0.553138
  O       0.827382      1.686311      1.088113
  C       1.069086      2.466450     -0.068667
  C       2.381396      2.617335     -0.513580
  C       2.628053      3.438425     -1.618007
  C       1.571487      4.092701     -2.262258
  C       0.262059      3.927290     -1.797771
  C       0.001688      3.109825     -0.692836
  O       1.667080     -0.419712      0.078705
  C       1.719014     -1.766587     -0.342438
  C       2.301483     -2.720865      0.490149
  C       2.388159     -4.041650      0.038257
  C       1.900344     -4.390585     -1.226168
  C       1.322449     -3.414233     -2.045995
  C       1.225781     -2.090369     -1.605582
  H      -1.907267      1.643957      1.749394
  H      -4.357206      1.841843      2.102203
  H      -5.935362      0.455208      0.762517
  H      -5.043377     -1.138563     -0.936087
  H      -2.572191     -1.335439     -1.281745
  H       3.184764      2.095090     -0.001021
  H       3.648682      3.565288     -1.974420
  H       1.768669      4.731422     -3.121016
  H      -0.562936      4.435482     -2.293705
  H      -1.009706      2.971873     -0.320436
  H       2.664545     -2.428266      1.471264
  H       2.837471     -4.798338      0.678784
  H       1.971766     -5.419889     -1.572348
  H       0.944552     -3.681382     -3.031298
  H       0.777704     -1.314583     -2.220741
>
38
-1660.18411615; 31P isotropic shielding: 211.286341 ppm
  S      -0.677212      0.377977      2.683761
  P      -0.119647     -0.384392      1.017283
  O      -1.178816     -1.238978      0.138291
  C      -2.391222     -0.661306     -0.297938
  C      -2.449197     -0.115312     -1.579399
  C      -3.663834      0.410260     -2.031708
  C      -4.793806      0.388683     -1.205945
  C      -4.711044     -0.164431      0.076921
  C      -3.503817     -0.696478      0.541136
  O       0.389225      0.642560     -0.143746
  C       1.156061      1.791917      0.088197
  C       0.874938      2.894809     -0.719244
  C       1.638501      4.056421     -0.576596
  C       2.667911      4.113769      0.370054
  C       2.931724      3.000433      1.174478
  C       2.179733      1.828841      1.038488
  O       1.066255     -1.473308      1.168265
  C       1.638784     -2.127954      0.050827
  C       2.729968     -1.547555     -0.593630
  C       3.324891     -2.232347     -1.658551
  C       2.830285     -3.476840     -2.063709
  C       1.735365     -4.041985     -1.399546
  C       1.130378     -3.367283     -0.334826
  H      -1.556505     -0.107306     -2.199106
  H      -3.725332      0.836876     -3.031335
  H      -5.736301      0.800400     -1.561742
  H      -5.587373     -0.181826      0.722266
  H      -3.413340     -1.122094      1.536525
  H       0.064434      2.831278     -1.441368
  H       1.422664      4.919885     -1.203271
  H       3.257757      5.021215      0.482515
  H       3.726450      3.038388      1.917299
  H       2.376984      0.968573      1.671414
  H       3.104380     -0.581068     -0.267508
  H       4.177504     -1.789562     -2.170264
  H       3.297889     -4.006051     -2.891716
  H       1.348188     -5.010992     -1.709275
  H       0.276280     -3.783817      0.192304
>
38
-1660.18432650; 31P isotropic shielding: 210.803621 ppm
  S      -0.624636     -0.298081      2.688453
  P      -0.154310      0.427382      0.979049
  O      -1.299544      1.127283      0.070599
  C      -2.461908      0.415127     -0.298994
  C      -3.564643      0.424905      0.553560
  C      -4.726641     -0.243702      0.155412
  C      -4.774856     -0.906053     -1.076504
  C      -3.655698     -0.900095     -1.917141
  C      -2.485995     -0.237822     -1.530531
  O       0.920412      1.633199      1.060285
  C       1.433173      2.270073     -0.095511
  C       0.800638      3.419097     -0.567600
  C       1.344668      4.082155     -1.671907
  C       2.502531      3.594638     -2.289259
  C       3.121284      2.439885     -1.797706
  C       2.588245      1.768007     -0.692736
  O       0.446619     -0.602432     -0.134592
  C       1.315241     -1.665019      0.146882
  C       2.339652     -1.563281      1.091493
  C       3.195879     -2.653657      1.277952
  C       3.033442     -3.823493      0.528777
  C       2.001025     -3.905516     -0.412783
  C       1.134269     -2.826424     -0.605354
  H      -3.500178      0.936709      1.509626
  H      -5.594376     -0.247573      0.812470
  H      -5.682051     -1.424299     -1.381170
  H      -3.690312     -1.411874     -2.877301
  H      -1.602442     -0.221768     -2.162930
  H      -0.100384      3.775401     -0.075776
  H       0.860398      4.981089     -2.049022
  H       2.922072      4.114803     -3.148164
  H       4.022631      2.057671     -2.273443
  H       3.057804      0.870395     -0.299656
  H       2.458804     -0.660052      1.682827
  H       3.992519     -2.583747      2.016423
  H       3.704183     -4.666846      0.679935
  H       1.863445     -4.813872     -0.996607
  H       0.319641     -2.871513     -1.324155
>
38
-1660.18415192; 31P isotropic shielding: 210.390784 ppm
  S       0.046585     -0.960072      2.627180
  P       0.403802      0.007227      1.012794
  O      -0.756435      0.005830     -0.135076
  C      -2.130544      0.103093      0.120619
  C      -2.968231     -0.621257     -0.728707
  C      -4.352603     -0.528223     -0.562996
  C      -4.890951      0.276814      0.447647
  C      -4.035914      0.991607      1.292612
  C      -2.648203      0.913300      1.134546
  O       0.755246      1.566493      1.257406
  C       1.042256      2.454411      0.192253
  C      -0.001556      3.145278     -0.421191
  C       0.301744      4.064221     -1.431409
  C       1.629823      4.282287     -1.813871
  C       2.661999      3.579135     -1.181655
  C       2.372534      2.656844     -0.171631
  O       1.660336     -0.426757      0.087034
  C       1.761160     -1.737103     -0.429569
  C       2.374037     -2.726161      0.337913
  C       2.510181     -4.007972     -0.204812
  C       2.039730     -4.284453     -1.493526
  C       1.429872     -3.274223     -2.246344
  C       1.284417     -1.988565     -1.715248
  H      -2.527969     -1.247675     -1.500807
  H      -5.010147     -1.092234     -1.222111
  H      -5.969212      0.343483      0.577713
  H      -4.445822      1.615966      2.084434
  H      -1.984283      1.460273      1.797469
  H      -1.028156      2.966379     -0.113421
  H      -0.504690      4.610130     -1.917708
  H       1.860137      4.999509     -2.599274
  H       3.697027      3.746387     -1.474156
  H       3.156731      2.095380      0.329073
  H       2.722208     -2.490499      1.339609
  H       2.983889     -4.791308      0.384012
  H       2.149422     -5.283752     -1.910361
  H       1.065230     -3.484853     -3.250182
  H       0.811153     -1.188039     -2.277461
>
38
-1660.18414809; 31P isotropic shielding: 211.044839 ppm
  S      -0.720163      0.476506      2.513233
  P      -0.267932     -0.416159      0.880575
  O      -1.429028     -1.229998      0.087055
  C      -2.645804     -0.592090     -0.242852
  C      -3.703129     -0.638652      0.663957
  C      -4.919889     -0.049303      0.306991
  C      -5.066231      0.573667     -0.937789
  C      -3.990616      0.608483     -1.832477
  C      -2.767090      0.024856     -1.487400
  O       0.280820      0.500216     -0.351174
  C       1.088501      1.633483     -0.152916
  C       0.630070      2.842208     -0.673991
  C       1.429809      3.981822     -0.546533
  C       2.667418      3.906577      0.102474
  C       3.106465      2.684572      0.623588
  C       2.319139      1.536196      0.497026
  O       0.831451     -1.586020      1.067640
  C       1.641378     -2.139157      0.056742
  C       2.989587     -2.305879      0.378539
  C       3.848911     -2.882431     -0.560839
  C       3.361129     -3.283109     -1.809628
  C       2.005753     -3.112737     -2.110915
  C       1.132122     -2.542673     -1.178779
  H      -3.562686     -1.120100      1.627567
  H      -5.753675     -0.076317      1.006100
  H      -6.016054      1.029864     -1.210016
  H      -4.101006      1.090960     -2.802023
  H      -1.914901      0.046751     -2.161530
  H      -0.341274      2.878175     -1.161223
  H       1.079697      4.930934     -0.948280
  H       3.285303      4.796513      0.204524
  H       4.066771      2.620568      1.132035
  H       2.653140      0.582782      0.895905
  H       3.344457     -1.994598      1.358367
  H       4.900744     -3.015855     -0.314510
  H       4.031868     -3.729462     -2.540993
  H       1.617992     -3.429325     -3.077608
  H       0.077453     -2.419370     -1.401743
>
38
-1660.18248217; 31P isotropic shielding: 204.531755 ppm
  S       0.136771      0.939993      2.624524
  P       0.487451      0.030638      0.975728
  O      -0.737348     -0.078071     -0.096628
  C      -2.079719     -0.287627      0.245866
  C      -2.463144     -1.154403      1.272263
  C      -3.826740     -1.345381      1.519083
  C      -4.789642     -0.685074      0.749159
  C      -4.384937      0.178735     -0.275066
  C      -3.026257      0.383892     -0.529055
  O       1.631420      0.600068     -0.019855
  C       1.572848      1.922398     -0.511037
  C       1.001261      2.147332     -1.762375
  C       0.990770      3.449844     -2.272014
  C       1.541648      4.502264     -1.531881
  C       2.109306      4.252002     -0.277362
  C       2.129484      2.954218      0.243122
  O       1.012655     -1.486121      1.171919
  C       1.309397     -2.332548      0.076333
  C       0.299518     -3.125390     -0.466491
  C       0.618876     -4.001090     -1.509497
  C       1.929295     -4.076021     -1.993959
  C       2.927900     -3.272507     -1.431480
  C       2.621901     -2.391894     -0.389612
  H      -1.716141     -1.658211      1.878870
  H      -4.132884     -2.014144      2.321483
  H      -5.848232     -0.839258      0.948266
  H      -5.127302      0.700824     -0.876056
  H      -2.688742      1.057486     -1.313092
  H       0.576696      1.313950     -2.315716
  H       0.550800      3.640382     -3.249319
  H       1.529784      5.514250     -1.932069
  H       2.537387      5.068179      0.301682
  H       2.555144      2.736697      1.218625
  H      -0.713594     -3.057307     -0.079645
  H      -0.160990     -4.625505     -1.941648
  H       2.172376     -4.760090     -2.804696
  H       3.949264     -3.328722     -1.803570
  H       3.378921     -1.754190      0.058696
>
38
-1660.18423500; 31P isotropic shielding: 210.696747 ppm
  S       0.087688      0.762410      2.709450
  P       0.475468     -0.033449      1.010442
  O      -0.714716     -0.037403     -0.105665
  C      -2.069314     -0.264485      0.169483
  C      -2.495078     -1.183898      1.131595
  C      -3.867718     -1.386058      1.310468
  C      -4.798299     -0.685101      0.536742
  C      -4.351454      0.231030     -0.422655
  C      -2.983535      0.447903     -0.608052
  O       1.662058      0.583204      0.095921
  C       1.629565      1.932464     -0.320111
  C       1.106170      2.233067     -1.576784
  C       1.120833      3.562691     -2.010456
  C       1.648360      4.567216     -1.190765
  C       2.167940      4.241069      0.067180
  C       2.162820      2.915207      0.512311
  O       0.964205     -1.571385      1.112274
  C       1.275236     -2.344425     -0.032715
  C       2.595991     -2.386713     -0.476670
  C       2.914043     -3.199546     -1.568831
  C       1.919102     -3.953642     -2.202171
  C       0.600137     -3.896785     -1.738714
  C       0.268711     -3.088524     -0.646091
  H      -1.773832     -1.720449      1.741064
  H      -4.206249     -2.096207      2.062741
  H      -5.864171     -0.848454      0.682513
  H      -5.068242      0.784945     -1.026241
  H      -2.614526      1.161176     -1.341191
  H       0.698769      1.435700     -2.192570
  H       0.718620      3.812073     -2.990799
  H       1.655881      5.600685     -1.531753
  H       2.578168      5.019442      0.707947
  H       2.551653      2.639842      1.488573
  H       3.350478     -1.788761      0.027297
  H       3.942007     -3.241923     -1.924217
  H       2.171496     -4.585445     -3.051549
  H      -0.176963     -4.483049     -2.225801
  H      -0.750904     -3.035424     -0.274100
>
38
-1660.18415574; 31P isotropic shielding: 211.109431 ppm
  S      -0.507884      1.068161      2.453936
  P      -0.132622      0.056660      0.873200
  O      -1.260533     -0.910080      0.235428
  C      -2.588077     -0.567251     -0.058809
  C      -3.459693     -1.645324     -0.226895
  C      -4.796513     -1.397929     -0.547251
  C      -5.257048     -0.083954     -0.692210
  C      -4.369459      0.982079     -0.517209
  C      -3.025865      0.751348     -0.201677
  O       0.255447      0.900702     -0.470747
  C       1.120614      2.009082     -0.450791
  C       0.690819      3.155064     -1.118730
  C       1.534244      4.268886     -1.168281
  C       2.788770      4.231676     -0.549421
  C       3.200909      3.072333      0.116501
  C       2.370459      1.948523      0.167939
  O       1.058973     -1.010628      1.084483
  C       1.547080     -1.982299      0.190269
  C       2.318910     -2.985614      0.781537
  C       2.874046     -3.984361     -0.021503
  C       2.657850     -3.979655     -1.404436
  C       1.883490     -2.966676     -1.977793
  C       1.321299     -1.956796     -1.188242
  H      -3.080844     -2.657245     -0.104284
  H      -5.478997     -2.235574     -0.679058
  H      -6.299775      0.106925     -0.937559
  H      -4.719082      2.007373     -0.624328
  H      -2.342747      1.582059     -0.058632
  H      -0.290072      3.162302     -1.588113
  H       1.205992      5.167698     -1.687071
  H       3.441414      5.101603     -0.585465
  H       4.175452      3.037116      0.599943
  H       2.685269      1.045627      0.683547
  H       2.469940     -2.970360      1.858337
  H       3.474284     -4.767944      0.437389
  H       3.089625     -4.758955     -2.029090
  H       1.710672     -2.953725     -3.052522
  H       0.725254     -1.172850     -1.641591
>
38
-1660.18182363; 31P isotropic shielding: 216.052539 ppm
  S      -1.068594     -0.833923      2.263038
  P      -0.531949      0.208735      0.747846
  O      -1.678282      1.003464     -0.083790
  C      -2.885506      0.356274     -0.430157
  C      -2.938186     -0.426341     -1.582873
  C      -4.154311     -1.020994     -1.935386
  C      -5.290785     -0.829544     -1.141591
  C      -5.213154     -0.039484      0.011226
  C      -4.003714      0.559499      0.375927
  O       0.461009      1.424652      1.132595
  C       1.314742      2.128600      0.265511
  C       2.574596      2.443125      0.779472
  C       3.475526      3.157993     -0.013889
  C       3.118694      3.548892     -1.309992
  C       1.850268      3.228623     -1.804670
  C       0.934553      2.518966     -1.019819
  O       0.188014     -0.559861     -0.496798
  C       1.202813     -1.519866     -0.289362
  C       2.533779     -1.124621     -0.417312
  C       3.538154     -2.086482     -0.265458
  C       3.206330     -3.417440      0.010680
  C       1.862853     -3.791213      0.130988
  C       0.848265     -2.841106     -0.020257
  H      -2.041120     -0.566226     -2.180194
  H      -4.211180     -1.634818     -2.832522
  H      -6.234325     -1.294844     -1.420172
  H      -6.094214      0.108766      0.632885
  H      -3.913917      1.167218      1.272245
  H       2.831314      2.119095      1.785151
  H       4.458992      3.405119      0.381929
  H       3.822941      4.102489     -1.927700
  H       1.563395      3.534051     -2.809361
  H      -0.052822      2.273825     -1.397151
  H       2.771910     -0.087028     -0.633568
  H       4.581343     -1.791619     -0.364106
  H       3.991631     -4.161398      0.130241
  H       1.600356     -4.825465      0.345932
  H      -0.200121     -3.107011      0.079264
>
38
-1660.18407715; 31P isotropic shielding: 204.173153 ppm
  S      -0.480302     -1.208839      2.416602
  P      -0.132632     -0.101853      0.894180
  O      -1.309873      0.796664      0.246931
  C      -2.566469      0.353747     -0.188900
  C      -2.899037     -0.994695     -0.338380
  C      -4.180383     -1.323307     -0.795055
  C      -5.110067     -0.324853     -1.100670
  C      -4.755357      1.020387     -0.945041
  C      -3.482236      1.365682     -0.486202
  O       0.954654      1.051001      1.198197
  C       1.356151      2.120018      0.373510
  C       1.912147      3.208102      1.050091
  C       2.372388      4.305362      0.318357
  C       2.274849      4.313784     -1.077909
  C       1.716020      3.214595     -1.737010
  C       1.252894      2.105591     -1.019608
  O       0.376546     -0.854041     -0.463642
  C       1.298448     -1.915753     -0.442483
  C       0.948911     -3.070642     -1.140647
  C       1.853821     -4.135391     -1.186820
  C       3.088423     -4.040483     -0.534921
  C       3.419379     -2.872759      0.161203
  C       2.526764     -1.797614      0.209838
  H      -2.186036     -1.774201     -0.091111
  H      -4.448056     -2.372349     -0.908480
  H      -6.103697     -0.591854     -1.454662
  H      -5.471445      1.806498     -1.177572
  H      -3.186061      2.403694     -0.354441
  H       1.973897      3.180201      2.135396
  H       2.805034      5.155195      0.843207
  H       2.632100      5.169730     -1.646845
  H       1.637518      3.211116     -2.822793
  H       0.825123      1.254342     -1.537491
  H      -0.018290     -3.123056     -1.634850
  H       1.589128     -5.041531     -1.728676
  H       3.788832     -4.872561     -0.568414
  H       4.377916     -2.793262      0.670656
  H       2.776097     -0.887966      0.749256
>
38
-1660.18174313; 31P isotropic shielding: 217.048805 ppm
  S      -0.737201      0.996076      2.413086
  P      -0.234713      0.017121      0.847558
  O      -1.331509     -0.871547      0.058296
  C      -2.613518     -0.457328     -0.331880
  C      -3.531587     -1.484381     -0.559940
  C      -4.824095     -1.162328     -0.980550
  C      -5.194681      0.174911     -1.164784
  C      -4.261639      1.189187     -0.928602
  C      -2.961120      0.883136     -0.512914
  O       0.337353      0.879458     -0.416604
  C       1.240658      1.946140     -0.266049
  C       2.412686      1.811161      0.480106
  C       3.290294      2.897149      0.555659
  C       3.001423      4.092927     -0.110736
  C       1.823550      4.204991     -0.857985
  C       0.933849      3.129644     -0.936455
  O       0.877668     -1.112675      1.146719
  C       1.463153     -2.042157      0.267217
  C       1.327646     -1.998642     -1.122713
  C       1.977778     -2.972420     -1.889923
  C       2.749135     -3.968449     -1.284006
  C       2.873296     -3.992466      0.110058
  C       2.230707     -3.029461      0.890935
  H      -3.222990     -2.515497     -0.404680
  H      -5.542926     -1.959910     -1.159247
  H      -6.203374      0.423855     -1.488025
  H      -4.541606      2.232052     -1.066356
  H      -2.241810      1.673421     -0.325401
  H       2.631802      0.880301      0.995504
  H       4.204415      2.803393      1.138943
  H       3.690091      4.933022     -0.047453
  H       1.591282      5.132608     -1.377940
  H       0.010965      3.195348     -1.507832
  H       0.734376     -1.228862     -1.602614
  H       1.875453     -2.944683     -2.973363
  H       3.249325     -4.719673     -1.891770
  H       3.470079     -4.763055      0.594728
  H       2.309889     -3.029866      1.975517
>
38
-1660.18177092; 31P isotropic shielding: 215.123789 ppm
  S      -0.393454      1.537509      2.348117
  P      -0.042299      0.163447      1.060704
  O      -1.181608     -0.943920      0.746646
  C      -2.462834     -0.560101      0.293873
  C      -3.447955     -0.240315      1.226829
  C      -4.726586      0.088948      0.765783
  C      -5.004678      0.093282     -0.605878
  C      -3.999883     -0.233803     -1.523721
  C      -2.715681     -0.562018     -1.077016
  O       0.271047      0.634402     -0.470243
  C       1.033270      1.758308     -0.815381
  C       2.177888      2.131008     -0.106287
  C       2.911260      3.238992     -0.543622
  C       2.509566      3.958116     -1.673879
  C       1.360338      3.568044     -2.371300
  C       0.614402      2.466988     -1.942347
  O       1.189198     -0.803380      1.465198
  C       1.615017     -1.870382      0.636821
  C       1.096933     -3.144459      0.863369
  C       1.562450     -4.208922      0.085496
  C       2.530041     -3.992341     -0.902622
  C       3.037274     -2.705274     -1.111462
  C       2.581261     -1.631740     -0.339161
  H      -3.205549     -0.241691      2.285730
  H      -5.505283      0.343770      1.482289
  H      -6.001878      0.349444     -0.958553
  H      -4.213311     -0.233911     -2.591176
  H      -1.917059     -0.816091     -1.768809
  H       2.483868      1.580330      0.778373
  H       3.800419      3.539352      0.007745
  H       3.085402      4.819162     -2.007121
  H       1.037040      4.124839     -3.248987
  H      -0.286996      2.151170     -2.462081
  H       0.342379     -3.288112      1.632031
  H       1.166310     -5.208800      0.253186
  H       2.889536     -4.824249     -1.505141
  H       3.791639     -2.531462     -1.876683
  H       2.966214     -0.626840     -0.489419
>
38
-1660.18410549; 31P isotropic shielding: 210.778710 ppm
  S      -0.121515      1.305641      2.289051
  P       0.468704      0.331730      0.748571
  O      -0.593041      0.103146     -0.467333
  C      -1.928563     -0.286332     -0.226459
  C      -2.880049      0.687440      0.073876
  C      -4.209156      0.294055      0.257305
  C      -4.571524     -1.052529      0.137712
  C      -3.600334     -2.011636     -0.169700
  C      -2.266256     -1.633140     -0.353954
  O       1.705705      0.934774     -0.114241
  C       1.725313      2.303567     -0.465257
  C       1.034810      2.730678     -1.598804
  C       1.102235      4.081318     -1.956452
  C       1.849753      4.979714     -1.186758
  C       2.534691      4.527098     -0.053226
  C       2.474718      3.180137      0.316595
  O       1.035123     -1.139477      1.103520
  C       1.187492     -2.222771      0.220121
  C       0.821899     -3.472260      0.725044
  C       0.962720     -4.602338     -0.084645
  C       1.459995     -4.479255     -1.387349
  C       1.825416     -3.219369     -1.872717
  C       1.696601     -2.079227     -1.071867
  H      -2.574396      1.724961      0.172914
  H      -4.961392      1.043424      0.496731
  H      -5.607512     -1.352979      0.282363
  H      -3.878054     -3.059632     -0.267390
  H      -1.499285     -2.363789     -0.594569
  H       0.455648      2.016160     -2.177540
  H       0.568775      4.429910     -2.838964
  H       1.898432      6.029551     -1.469296
  H       3.114108      5.223707      0.549838
  H       2.986760      2.806609      1.199260
  H       0.428578     -3.539451      1.736485
  H       0.679095     -5.578845      0.303808
  H       1.565796     -5.359765     -2.017836
  H       2.218315     -3.116788     -2.882725
  H       1.985594     -1.100636     -1.441112
