28
-1204.79903618; 31P isotropic shielding: 160.353243 ppm
  C       1.320668     -0.885496     -2.016778
  C       1.597267     -1.048414     -0.507248
  P       0.762309      0.364710      0.391370
  S       1.415709      2.154459     -0.042270
  C      -1.034443      0.156365      0.156911
  C      -1.673462      0.824736     -0.899492
  C      -3.044201      0.657294     -1.109191
  C      -3.788450     -0.170087     -0.260568
  C      -3.158463     -0.828382      0.800900
  C      -1.785336     -0.670224      1.009076
  O       0.998031     -0.078284      1.964931
  C       1.047364     -2.401672     -0.005167
  C       3.113436     -0.952013     -0.228960
  H       0.250186     -0.958373     -2.244242
  H       1.835121     -1.686930     -2.564869
  H       1.690009      0.077275     -2.388146
  H      -1.096494      1.492334     -1.535703
  H      -3.533322      1.181201     -1.928649
  H      -4.858364     -0.293611     -0.420284
  H      -3.736644     -1.462805      1.470770
  H      -1.299195     -1.173374      1.840873
  H       1.214829      0.720833      2.481783
  H       1.571923     -3.213917     -0.527782
  H       1.211441     -2.530430      1.070452
  H      -0.023547     -2.509320     -0.211518
  H       3.517406      0.012674     -0.554918
  H       3.630225     -1.750118     -0.779944
  H       3.332496     -1.076834      0.837862
>
28
-1204.80708207; 31P isotropic shielding: 153.457778 ppm
  C       3.126783     -0.828302     -0.325635
  C       1.602237     -1.077577     -0.329738
  P       0.752285      0.529058      0.170397
  S       1.191693      2.068517     -0.932505
  C      -1.036589      0.166622      0.243201
  C      -1.637500     -0.328353      1.411898
  C      -3.005441     -0.615983      1.434671
  C      -3.782728     -0.416829      0.289101
  C      -3.190896      0.083365     -0.876557
  C      -1.826159      0.379304     -0.898862
  O       1.183313      0.729789      1.749666
  C       1.132945     -1.442016     -1.754989
  C       1.240393     -2.220258      0.644009
  H       3.498829     -0.569936      0.673970
  H       3.393232     -0.012026     -1.005242
  H       3.643849     -1.741004     -0.653430
  H      -1.045253     -0.464375      2.313465
  H      -3.464463     -0.988130      2.349154
  H      -4.848420     -0.639004      0.308169
  H      -3.795069      0.254017     -1.766009
  H      -1.367585      0.799907     -1.790829
  H       1.470860     -0.097925      2.177515
  H       0.057953     -1.655888     -1.787016
  H       1.346821     -0.630178     -2.458694
  H       1.666598     -2.341675     -2.091934
  H       0.160023     -2.396350      0.690586
  H       1.605153     -2.038606      1.666310
  H       1.719838     -3.149365      0.305829
