30
-3573.02386572; 31P isotropic shielding: 203.827338 ppm
  C      -3.724518      1.776955      0.175631
  Si     -2.951004      0.073430      0.065740
  C      -4.163049     -1.333043      0.006536
  O      -1.993092     -0.024651     -1.308168
  C      -0.767318      0.715434     -1.405910
  P       0.413681      0.497140      0.035822
  Se      1.932414      1.978133      0.085901
  C      -0.745746      0.609904      1.506546
  O      -1.931350     -0.182385      1.370627
  C       0.981100     -1.238424     -0.005660
  C       2.257869     -1.535806      0.497887
  C       2.716958     -2.854887      0.510903
  C       1.910471     -3.884038      0.012327
  C       0.642788     -3.589828     -0.500465
  C       0.172199     -2.273203     -0.508122
  H      -4.319938      1.882567      1.092287
  H      -2.964037      2.569640      0.182867
  H      -4.384448      1.963281     -0.682164
  H      -4.822516     -1.317602      0.883982
  H      -4.790331     -1.268237     -0.892058
  H      -3.637157     -2.295612     -0.008751
  H      -0.948336      1.798717     -1.476524
  H      -0.236528      0.401151     -2.313038
  H      -0.187087      0.267006      2.385956
  H      -0.971711      1.679311      1.640818
  H       2.889119     -0.724934      0.857047
  H       3.708901     -3.077063      0.900921
  H       2.271948     -4.911158      0.016435
  H       0.016258     -4.386649     -0.898014
  H      -0.810139     -2.053351     -0.914861
>
30
-3573.02658729; 31P isotropic shielding: 226.386756 ppm
  C      -3.737010      1.754792      0.381795
  Si     -2.934667      0.066052      0.506177
  C      -4.091376     -1.316417      0.953879
  O      -2.198979     -0.330228     -0.946452
  C      -1.079405      0.439106     -1.401404
  P       0.357943      0.479822     -0.195401
  Se      1.797857      1.951256     -0.708115
  C      -0.508821      0.845242      1.428909
  O      -1.714492      0.100898      1.657638
  C       0.962385     -1.240762     -0.095533
  C       0.274909     -2.227151      0.633960
  C       0.763004     -3.536865      0.663227
  C       1.927223     -3.872638     -0.035783
  C       2.613492     -2.891420     -0.759739
  C       2.137073     -1.578747     -0.786597
  H      -4.509616      1.766810     -0.398435
  H      -4.208970      2.035049      1.332879
  H      -3.005889      2.536391      0.134432
  H      -4.912493     -1.388082      0.228885
  H      -3.559517     -2.275799      0.963329
  H      -4.527708     -1.153866      1.947868
  H      -1.347197      1.489446     -1.595138
  H      -0.705254      0.004163     -2.336146
  H       0.200574      0.623010      2.235515
  H      -0.692917      1.930273      1.426333
  H      -0.624051     -1.973173      1.186894
  H       0.231986     -4.295761      1.235544
  H       2.302548     -4.894461     -0.010480
  H       3.525996     -3.145260     -1.296648
  H       2.677775     -0.802080     -1.324492
>
30
-3573.02655306; 31P isotropic shielding: 226.920884 ppm
  C      -3.766893      1.732685      0.199118
  Si     -2.976978      0.037477      0.081950
  C      -4.175367     -1.379798      0.009314
  O      -2.012380     -0.042140     -1.288596
  C      -0.794314      0.712231     -1.375616
  P       0.382987      0.496578      0.069670
  Se      1.885147      1.993639      0.135924
  C      -0.783765      0.586914      1.536238
  O      -1.960585     -0.216649      1.389714
  C       0.969440     -1.232284      0.018648
  C       2.243541     -1.520727      0.534085
  C       2.716797     -2.834780      0.539617
  C       1.927448     -3.867626      0.021574
  C       0.662605     -3.582162     -0.502995
  C       0.177747     -2.270709     -0.503137
  H      -3.013772      2.532241      0.214517
  H      -4.424704      1.917963     -0.660510
  H      -4.367252      1.826927      1.113756
  H      -4.803342     -1.313359     -0.888619
  H      -3.639556     -2.336718     -0.014395
  H      -4.834761     -1.378528      0.886910
  H      -0.987082      1.793935     -1.438653
  H      -0.256585      0.410845     -2.282999
  H      -0.225721      0.243740      2.415905
  H      -1.021536      1.652962      1.676638
  H       2.861911     -0.706624      0.908032
  H       3.706546     -3.050092      0.938918
  H       2.300107     -4.890737      0.019798
  H       0.049523     -4.381766     -0.915603
  H      -0.802406     -2.057336     -0.918601
>
30
-3573.02658668; 31P isotropic shielding: 226.297170 ppm
  C      -3.620488      1.857996      0.327583
  Si     -2.890470      0.131822      0.336132
  C      -4.118643     -1.231772      0.625097
  O      -2.131587     -0.169246     -1.129714
  C      -0.930686      0.530135     -1.488600
  P       0.438713      0.473914     -0.206720
  Se      1.948034      1.924352     -0.556061
  C      -0.504719      0.789584      1.384585
  O      -1.702778      0.014382      1.512314
  C       0.998427     -1.261839     -0.107850
  C       0.121618     -2.338915     -0.328753
  C       0.591827     -3.651295     -0.221758
  C       1.927641     -3.898215      0.111845
  C       2.801401     -2.827234      0.329846
  C       2.341526     -1.513340      0.215903
  H      -4.081386      2.096210      1.295429
  H      -2.857349      2.622580      0.128213
  H      -4.391349      1.952927     -0.448781
  H      -4.640978     -1.090306      1.580129
  H      -4.870343     -1.253403     -0.174563
  H      -3.615769     -2.206335      0.651708
  H      -1.119513      1.598949     -1.670636
  H      -0.530939      0.094179     -2.412410
  H       0.168673      0.542938      2.214401
  H      -0.704260      1.872030      1.414918
  H      -0.914478     -2.156535     -0.596630
  H      -0.088472     -4.482154     -0.401556
  H       2.288542     -4.922227      0.194292
  H       3.844658     -3.013933      0.579192
  H       3.019547     -0.673453      0.356546
>
30
-3573.02651822; 31P isotropic shielding: 226.742394 ppm
  C      -3.586578      1.885521      0.375696
  Si     -2.865745      0.155483      0.380845
  C      -4.095079     -1.199065      0.704206
  O      -2.138483     -0.160234     -1.098089
  C      -0.941824      0.531177     -1.485875
  P       0.453654      0.472531     -0.232757
  Se      1.964428      1.911457     -0.620063
  C      -0.454577      0.803723      1.376162
  O      -1.655585      0.039238      1.533997
  C       1.004010     -1.266338     -0.136051
  C       0.115542     -2.338831     -0.331421
  C       0.579347     -3.653599     -0.226719
  C       1.920422     -3.907540      0.079316
  C       2.805706     -2.841228      0.271820
  C       2.352113     -1.525002      0.159889
  H      -2.823831      2.645628      0.158709
  H      -4.371178      1.980091     -0.386812
  H      -4.028554      2.130615      1.350636
  H      -3.597849     -2.176767      0.719385
  H      -4.590485     -1.052531      1.672725
  H      -4.868137     -1.217335     -0.074852
  H      -1.128879      1.600249     -1.668220
  H      -0.564875      0.088915     -2.416214
  H       0.234526      0.556106      2.192709
  H      -0.644716      1.887937      1.404402
  H      -0.924824     -2.151095     -0.578003
  H      -0.110046     -4.480998     -0.386722
  H       2.276184     -4.933467      0.160194
  H       3.852885     -3.033441      0.499578
  H       3.038426     -0.688801      0.280930
>
30
-3573.02652918; 31P isotropic shielding: 226.828386 ppm
  C      -3.664365      1.828939      0.177491
  Si     -2.914188      0.115530      0.062515
  C      -4.146702     -1.273802      0.034825
  O      -1.981884     -0.002029     -1.327371
  C      -0.749866      0.723938     -1.450683
  P       0.455438      0.494181     -0.030762
  Se      1.993535      1.955292     -0.011949
  C      -0.674746      0.626068      1.461581
  O      -1.874966     -0.147236      1.350216
  C       0.999808     -1.248620     -0.078179
  C       2.287197     -1.559467      0.388645
  C       2.729513     -2.884234      0.397169
  C       1.895136     -3.906078     -0.069312
  C       0.616418     -3.598686     -0.545602
  C       0.162857     -2.276186     -0.548512
  H      -4.246324      1.943558      1.101651
  H      -2.894476      2.612430      0.173034
  H      -4.333281      2.020941     -0.671995
  H      -4.798502     -1.200740     -0.845354
  H      -3.634748     -2.243555      0.005310
  H      -4.780367     -1.249372      0.930869
  H      -0.920204      1.809040     -1.519598
  H      -0.241152      0.401239     -2.367361
  H      -0.104896      0.274938      2.330483
  H      -0.881454      1.699030      1.598316
  H       2.939097     -0.754525      0.723401
  H       3.729825     -3.116646      0.758762
  H       2.243190     -4.937809     -0.068681
  H      -0.032069     -4.389931     -0.918248
  H      -0.828327     -2.046309     -0.927063
>
30
-3573.02663159; 31P isotropic shielding: 226.669331 ppm
  C      -3.887993      1.536235      0.478423
  Si     -2.982780     -0.099858      0.605110
  C      -4.039533     -1.535744      1.127113
  O      -2.284220     -0.485668     -0.868150
  C      -1.233147      0.337272     -1.387093
  P       0.246579      0.484166     -0.243391
  Se      1.586048      2.015629     -0.845285
  C      -0.572917      0.841050      1.406969
  O      -1.722984      0.034807      1.704696
  C       0.944333     -1.199580     -0.132229
  C       0.387693     -2.181231      0.706563
  C       0.946888     -3.462210      0.744137
  C       2.051503     -3.774568     -0.055064
  C       2.607071     -2.797951     -0.889245
  C       2.060508     -1.513223     -0.924650
  H      -4.683217      1.489230     -0.277349
  H      -4.346530      1.805240      1.439316
  H      -3.212448      2.355183      0.196279
  H      -3.453813     -2.463175      1.138503
  H      -4.449517     -1.373513      2.132364
  H      -4.880080     -1.670543      0.434066
  H      -1.570369      1.365795     -1.589625
  H      -0.873694     -0.095715     -2.328539
  H       0.181064      0.681923      2.187676
  H      -0.819924      1.913240      1.386652
  H      -0.466220     -1.946415      1.334877
  H       0.517693     -4.216910      1.401155
  H       2.482923     -4.773792     -0.022534
  H       3.473759     -3.032573     -1.505021
  H       2.504525     -0.738804     -1.547622
>
30
-3573.02655071; 31P isotropic shielding: 225.925842 ppm
  C      -3.902619      1.524414      0.546234
  Si     -2.993659     -0.109978      0.666652
  C      -4.023085     -1.529374      1.279461
  O      -2.371961     -0.534470     -0.830213
  C      -1.351428      0.275694     -1.425073
  P       0.184681      0.462890     -0.363602
  Se      1.473691      1.992468     -1.072166
  C      -0.550053      0.853881      1.318870
  O      -1.677596      0.049008      1.695523
  C       0.906255     -1.210297     -0.246423
  C       0.387389     -2.182642      0.626853
  C       0.961939     -3.456545      0.669519
  C       2.044545     -3.771255     -0.158426
  C       2.562468     -2.804009     -1.026985
  C       2.000310     -1.526148     -1.068189
  H      -3.243312      2.334483      0.206272
  H      -4.738125      1.458609     -0.163276
  H      -4.308175      1.819124      1.523282
  H      -3.439353     -2.458103      1.281531
  H      -4.377029     -1.341504      2.301407
  H      -4.900580     -1.678191      0.636985
  H      -1.702852      1.296933     -1.639723
  H      -1.038761     -0.183718     -2.370646
  H       0.244962      0.717127      2.062217
  H      -0.804420      1.924092      1.286587
  H      -0.448381     -1.944958      1.277974
  H       0.562391     -4.203832      1.353155
  H       2.488236     -4.764943     -0.121639
  H       3.411920     -3.040419     -1.665668
  H       2.414902     -0.758335     -1.718995
>
30
-3573.02647135; 31P isotropic shielding: 226.313240 ppm
  C      -3.922488      1.486871      0.257770
  Si     -3.039289     -0.158217      0.096956
  C      -4.157023     -1.633649     -0.056699
  O      -2.040660     -0.134553     -1.251579
  C      -0.870034      0.695334     -1.282594
  P       0.285824      0.496922      0.182112
  Se      1.687878      2.081806      0.344959
  C      -0.915916      0.458237      1.623000
  O      -2.039998     -0.405966      1.418885
  C       0.982268     -1.188024      0.079294
  C       2.257150     -1.418647      0.621150
  C       2.812408     -2.699650      0.585515
  C       2.105202     -3.755639     -0.000218
  C       0.839790     -3.526892     -0.550437
  C       0.272641     -2.249535     -0.509504
  H      -4.550894      1.510576      1.158009
  H      -3.214992      2.324331      0.326744
  H      -4.566899      1.672012     -0.611947
  H      -4.775751     -1.561241     -0.960528
  H      -3.568841     -2.557809     -0.114220
  H      -4.826673     -1.707417      0.809869
  H      -1.128090      1.764812     -1.310822
  H      -0.295443      0.461839     -2.187424
  H      -0.356761      0.112378      2.500874
  H      -1.219151      1.502089      1.798718
  H       2.811917     -0.584834      1.047660
  H       3.802100     -2.870435      1.005901
  H       2.542322     -4.752331     -0.034270
  H       0.290756     -4.344096     -1.015421
  H      -0.707651     -2.079072     -0.944052
>
30
-3573.02654117; 31P isotropic shielding: 226.237047 ppm
  C      -3.962070      1.955089     -0.494614
  Si     -3.085028      0.395901      0.030257
  C      -4.224216     -1.016631      0.466491
  O      -2.052466     -0.206107     -1.154513
  C      -0.803580      0.475120     -1.348342
  P       0.359414      0.296963      0.121587
  Se      1.710320      1.918729      0.312852
  C      -0.887620      0.080304      1.528929
  O      -2.077971      0.835289      1.297487
  C       1.120646     -1.359325     -0.059552
  C       2.497441     -1.521815      0.145410
  C       3.082496     -2.783560      0.002365
  C       2.297411     -3.885466     -0.352089
  C       0.922463     -3.725608     -0.563469
  C       0.330659     -2.468744     -0.414117
  H      -4.653788      1.760731     -1.324521
  H      -4.539488      2.374054      0.340362
  H      -3.242591      2.719237     -0.815640
  H      -3.660305     -1.877273      0.849439
  H      -4.945934     -0.713641      1.236283
  H      -4.787583     -1.350430     -0.415173
  H      -0.933093      1.555214     -1.506272
  H      -0.302066      0.052517     -2.226854
  H      -1.094790     -0.994432      1.652000
  H      -0.404156      0.454529      2.438215
  H       3.098318     -0.651712      0.405127
  H       4.152580     -2.904015      0.163130
  H       2.754858     -4.866760     -0.467760
  H       0.310590     -4.580448     -0.846929
  H      -0.736251     -2.348311     -0.591889
>
30
-3573.02390951; 31P isotropic shielding: 203.685452 ppm
  C      -3.313954      2.380079      0.898463
  Si     -2.625656      0.713664      0.423086
  C      -3.896584     -0.652508      0.378765
  O      -1.851273      0.936199     -1.047894
  C      -0.772139      0.069933     -1.401436
  P       0.729056      0.324291     -0.275909
  Se      2.133390      1.783472     -0.901425
  C      -0.122640      0.770374      1.342285
  O      -1.422958      0.175218      1.469483
  C       1.389600     -1.367226     -0.034358
  C       0.609466     -2.351119      0.601234
  C       1.123227     -3.637954      0.781480
  C       2.408040     -3.953558      0.322849
  C       3.183286     -2.976377     -0.309905
  C       2.678020     -1.684613     -0.485629
  H      -4.018872      2.737532      0.135788
  H      -3.846339      2.329589      1.857229
  H      -2.514679      3.127121      0.985919
  H      -3.461532     -1.589747      0.007995
  H      -4.296426     -0.843451      1.383765
  H      -4.736839     -0.385106     -0.275296
  H      -0.446450      0.309928     -2.419724
  H      -1.061875     -0.991947     -1.361143
  H       0.511428      0.417846      2.164231
  H      -0.157748      1.868607      1.374726
  H      -0.385476     -2.109332      0.969757
  H       0.520702     -4.394670      1.281347
  H       2.803916     -4.958217      0.462670
  H       4.184458     -3.217204     -0.663574
  H       3.275853     -0.909624     -0.962681
>
30
-3573.02393061; 31P isotropic shielding: 203.783973 ppm
  C      -3.373784      2.388024     -0.693613
  Si     -2.626029      0.760659     -0.176463
  C      -3.874977     -0.591074      0.133307
  O      -1.558696      0.137458     -1.317910
  C      -0.243575      0.711396     -1.375270
  P       0.780244      0.335047      0.157566
  Se      2.303649      1.765645      0.514067
  C      -0.582001      0.226356      1.469512
  O      -1.678830      1.090715      1.167565
  C       1.345826     -1.396034     -0.042653
  C       2.669971     -1.736415      0.266211
  C       3.106385     -3.056465      0.119026
  C       2.225981     -4.039775     -0.343636
  C       0.904394     -3.702005     -0.659726
  C       0.459894     -2.386360     -0.506399
  H      -2.594476      3.119199     -0.944067
  H      -4.021806      2.261792     -1.570834
  H      -3.978502      2.812626      0.118827
  H      -4.392465     -0.865417     -0.795687
  H      -3.391335     -1.494499      0.527219
  H      -4.630690     -0.265489      0.860031
  H      -0.265736      1.806705     -1.466847
  H       0.285235      0.300052     -2.242995
  H      -0.895234     -0.825563      1.561253
  H      -0.132282      0.546253      2.415934
  H       3.348135     -0.957351      0.610714
  H       4.135809     -3.314715      0.361933
  H       2.568298     -5.066651     -0.461746
  H       0.219103     -4.464035     -1.027398
  H      -0.564807     -2.127977     -0.765321
>
30
-3573.02396963; 31P isotropic shielding: 203.788189 ppm
  C      -3.439824      2.244249      1.035179
  Si     -2.615366      0.785011      0.218712
  C      -3.796955     -0.391044     -0.619993
  O      -1.476401      1.426844     -0.832005
  C      -0.328678      0.647589     -1.171822
  P       0.809608      0.384331      0.318898
  Se      2.323115      1.840147      0.610279
  C      -0.451032      0.341387      1.715556
  O      -1.729392     -0.157726      1.294519
  C       1.391459     -1.343308      0.132004
  C       2.757898     -1.604579     -0.037833
  C       3.206331     -2.920880     -0.183649
  C       2.294364     -3.980886     -0.153763
  C       0.929180     -3.723913      0.022441
  C       0.473997     -2.410107      0.160590
  H      -2.708324      2.857634      1.576766
  H      -3.919741      2.886461      0.284472
  H      -4.209931      1.917804      1.746324
  H      -4.440195     -0.888632      0.118243
  H      -4.443937      0.143189     -1.328092
  H      -3.257506     -1.170376     -1.173904
  H       0.256975      1.190695     -1.921852
  H      -0.602035     -0.338538     -1.579254
  H      -0.056733     -0.310983      2.503466
  H      -0.507372      1.367020      2.107353
  H       3.457638     -0.770385     -0.044350
  H       4.269054     -3.117458     -0.315680
  H       2.645126     -5.005825     -0.263646
  H       0.217783     -4.547612      0.053213
  H      -0.586505     -2.217511      0.309531
