25
-804.67951590; 31P isotropic shielding: 267.535964 ppm
  C      -5.018091      0.812871      0.262553
  C      -3.512766      0.893852     -0.036694
  C      -2.787293     -0.448862      0.151920
  C      -1.281630     -0.377378     -0.148948
  C      -0.561044     -1.718165      0.067501
  C       0.906389     -1.714078     -0.344959
  O       1.689798     -0.796843      0.498243
  P       2.134463      0.658264     -0.027585
  O       2.029547      0.872359     -1.491355
  O       3.590612      0.875862      0.644394
  H      -5.514717      0.089000     -0.398868
  H      -5.508800      1.784860      0.122043
  H      -5.198813      0.493311      1.298609
  H      -3.047858      1.650121      0.615205
  H      -3.359712      1.245128     -1.069016
  H      -2.937063     -0.800098      1.186134
  H      -3.253057     -1.207408     -0.498394
  H      -1.125552     -0.040951     -1.185449
  H      -0.827805      0.390266      0.496039
  H      -0.641054     -2.024050      1.121471
  H      -1.057979     -2.503013     -0.526095
  H       1.364346     -2.698447     -0.194516
  H       1.029955     -1.415259     -1.392829
  H       1.412621      1.542089      0.795183
  H       4.311905      0.566269      0.063713
>
25
-804.68078024; 31P isotropic shielding: 264.368506 ppm
  C      -5.136758      0.886867      0.218982
  C      -3.812369      0.372251      0.804958
  C      -2.825983     -0.118317     -0.267872
  C      -1.497475     -0.629412      0.311759
  C      -0.514491     -1.109617     -0.767737
  C       0.812044     -1.630226     -0.220202
  O       1.513130     -0.620982      0.589768
  P       2.280116      0.601505     -0.127249
  O       2.787822      0.323731     -1.492071
  O       3.348937      1.053452      0.997591
  H      -5.648280      0.100464     -0.353781
  H      -4.967027      1.734270     -0.460103
  H      -5.821219      1.223686      1.008607
  H      -4.016859     -0.448511      1.510533
  H      -3.335484      1.170403      1.395230
  H      -3.300922     -0.918834     -0.858591
  H      -2.622216      0.702019     -0.975684
  H      -1.026552      0.167507      0.905262
  H      -1.697133     -1.455186      1.014021
  H      -0.968745     -1.927704     -1.349730
  H      -0.313570     -0.301226     -1.487748
  H       0.658930     -2.466326      0.472129
  H       1.477943     -1.948022     -1.030612
  H       1.402894      1.696241     -0.003286
  H       4.172069      0.529768      0.956826
>
25
-804.68043113; 31P isotropic shielding: 267.674588 ppm
  C      -2.629618      1.736497      0.356997
  C      -3.232307      0.489454     -0.315583
  C      -2.189834     -0.586545     -0.681402
  C      -1.521417     -1.246784      0.538159
  C      -0.446687     -2.293354      0.186159
  C       0.780614     -1.736895     -0.531080
  O       1.517624     -0.803245      0.337473
  P       1.385346      0.791597      0.179208
  O       0.781126      1.265036     -1.090765
  O       2.868545      1.335147      0.529464
  H      -2.204153      1.502921      1.342166
  H      -3.394817      2.509056      0.509717
  H      -1.828780      2.163859     -0.260732
  H      -3.750403      0.797637     -1.235779
  H      -4.003222      0.049959      0.338065
  H      -2.675951     -1.370966     -1.283221
  H      -1.427259     -0.122201     -1.321374
  H      -1.072458     -0.480861      1.186448
  H      -2.293929     -1.734641      1.151980
  H      -0.114127     -2.806721      1.099906
  H      -0.880017     -3.065239     -0.470854
  H       1.496532     -2.534684     -0.758760
  H       0.520396     -1.217282     -1.459230
  H       0.749183      1.194338      1.366602
  H       3.425012      1.421016     -0.268264
>
25
-804.67997536; 31P isotropic shielding: 264.328171 ppm
  C      -3.883871      1.470678     -0.639418
  C      -3.085185      0.684637      0.412397
  C      -2.154783     -0.371316     -0.207568
  C      -1.349794     -1.151630      0.844991
  C      -0.408148     -2.225937      0.267179
  C       0.715451     -1.693520     -0.617555
  O       1.655854     -0.874749      0.166291
  P       1.612234      0.731984      0.144381
  O       0.794621      1.341696     -0.933293
  O       3.171196      1.161846      0.207022
  H      -3.209929      1.997075     -1.328917
  H      -4.537894      2.218243     -0.171257
  H      -4.516874      0.800110     -1.237891
  H      -3.777976      0.196176      1.116402
  H      -2.480974      1.384971      1.010088
  H      -2.753453     -1.080665     -0.803286
  H      -1.472366      0.133638     -0.904535
  H      -0.769199     -0.446534      1.460487
  H      -2.045796     -1.642953      1.541794
  H       0.038640     -2.809099      1.085430
  H      -0.990989     -2.934482     -0.343892
  H       1.322569     -2.513828     -1.016648
  H       0.338768     -1.090729     -1.450558
  H       1.267611      1.068918      1.465659
  H       3.551387      1.289670     -0.683204
>
25
-804.68115738; 31P isotropic shielding: 265.119429 ppm
  C      -3.741177      1.576857     -0.549270
  C      -3.006397      0.644941      0.426968
  C      -2.064297     -0.343071     -0.280427
  C      -1.331070     -1.274750      0.699020
  C      -0.372886     -2.283031      0.036906
  C       0.811743     -1.663482     -0.698754
  O       1.712494     -0.974013      0.241123
  P       1.685025      0.622702      0.428798
  O       0.957271      1.382245     -0.617723
  O       3.238568      1.009006      0.664635
  H      -3.027171      2.167243     -1.139535
  H      -4.398670      2.277660     -0.017817
  H      -4.362589      1.004316     -1.252612
  H      -3.739903      0.086292      1.030352
  H      -2.420624      1.249793      1.136865
  H      -2.643581     -0.952896     -0.993905
  H      -1.337738      0.232400     -0.869948
  H      -0.775819     -0.671908      1.434812
  H      -2.072382     -1.838564      1.285533
  H       0.012482     -2.982159      0.793231
  H      -0.926667     -2.888894     -0.699020
  H       1.431877     -2.438108     -1.163637
  H       0.497172     -0.949315     -1.466892
  H       1.243913      0.792465      1.753390
  H       3.691728      1.233471     -0.170592
>
25
-804.68095641; 31P isotropic shielding: 265.061847 ppm
  C      -3.439369      1.610766      0.541053
  C      -3.747802      0.360339     -0.300926
  C      -2.864416     -0.858799      0.031232
  C      -1.368615     -0.653744     -0.262595
  C      -0.525028     -1.904079      0.034461
  C       0.949372     -1.763678     -0.327306
  O       1.607756     -0.750775      0.514322
  P       1.888059      0.739582     -0.025442
  O       1.786929      0.921553     -1.493696
  O       3.295628      1.136389      0.667856
  H      -3.513009      1.389954      1.615741
  H      -4.145839      2.420674      0.317278
  H      -2.429581      1.993872      0.346739
  H      -3.640208      0.603054     -1.369850
  H      -4.801547      0.079554     -0.154854
  H      -2.992901     -1.119995      1.094757
  H      -3.224444     -1.726827     -0.543187
  H      -1.234211     -0.362978     -1.316049
  H      -0.992153      0.184774      0.339117
  H      -0.612236     -2.174860      1.097505
  H      -0.916643     -2.759095     -0.540792
  H       1.497247     -2.692173     -0.130288
  H       1.081656     -1.482404     -1.378943
  H       1.052196      1.542848      0.771570
  H       4.058258      0.914148      0.100094
>
25
-804.67969478; 31P isotropic shielding: 264.426899 ppm
  C      -4.528520      1.154549     -0.020093
  C      -3.053462      0.735916      0.085536
  C      -2.878410     -0.745678      0.463729
  C      -1.413502     -1.189315      0.639030
  C      -0.600220     -1.187614     -0.666808
  C       0.847663     -1.639327     -0.495892
  O       1.586986     -0.787330      0.449481
  P       2.047001      0.693195      0.009474
  O       2.283749      0.883092     -1.441723
  O       3.273221      0.993165      1.018891
  H      -5.052634      0.564665     -0.785160
  H      -4.626967      2.214128     -0.290018
  H      -5.053550      1.001513      0.933332
  H      -2.546823      1.359730      0.839312
  H      -2.551185      0.942338     -0.870879
  H      -3.419750     -0.935406      1.403668
  H      -3.363654     -1.376042     -0.299829
  H      -0.922444     -0.538139      1.377003
  H      -1.391182     -2.204212      1.065876
  H      -1.069671     -1.868050     -1.395983
  H      -0.606889     -0.192765     -1.134181
  H       0.905796     -2.639908     -0.051794
  H       1.379480     -1.634896     -1.454112
  H       1.101081      1.552097      0.600873
  H       4.121885      0.647594      0.681768
>
25
-804.67948862; 31P isotropic shielding: 267.327304 ppm
  C      -3.855923      1.302010     -0.688632
  C      -3.654952      0.534969      0.629823
  C      -2.833248     -0.761463      0.487917
  C      -1.371277     -0.537935      0.065101
  C      -0.557858     -1.841984      0.022020
  C       0.859834     -1.676341     -0.512822
  O       1.667882     -0.833180      0.383098
  P       1.959877      0.714046      0.047819
  O       1.686884      1.131344     -1.348951
  O       3.461181      0.946243      0.605458
  H      -4.496251      2.181204     -0.539019
  H      -4.336741      0.664518     -1.444629
  H      -2.905072      1.655467     -1.107149
  H      -4.639048      0.283023      1.052586
  H      -3.164949      1.191838      1.366126
  H      -2.847359     -1.300046      1.448540
  H      -3.325149     -1.424371     -0.242971
  H      -1.328472     -0.054000     -0.920646
  H      -0.903409      0.162053      0.774459
  H      -0.518260     -2.296156      1.023548
  H      -1.064217     -2.569586     -0.633373
  H       1.386634     -2.636773     -0.548639
  H       0.862776     -1.225054     -1.512236
  H       1.273193      1.407455      1.061009
  H       4.136822      0.779321     -0.079338
>
25
-804.67988915; 31P isotropic shielding: 264.384827 ppm
  C      -5.622607      0.572022      0.272937
  C      -4.440074     -0.165259     -0.375346
  C      -3.096187      0.126084      0.313024
  C      -1.909543     -0.613239     -0.326733
  C      -0.566846     -0.309722      0.360831
  C       0.587598     -1.063237     -0.292855
  O       1.858004     -0.832518      0.410376
  P       2.711171      0.503459      0.115826
  O       2.484622      1.121436     -1.212742
  O       4.218097      0.054379      0.490863
  H      -6.566461      0.345803     -0.240163
  H      -5.476434      1.660794      0.239766
  H      -5.738153      0.284887      1.327599
  H      -4.369276      0.114633     -1.438135
  H      -4.628069     -1.250415     -0.356757
  H      -2.903628      1.210854      0.289705
  H      -3.165788     -0.149777      1.377851
  H      -2.099721     -1.698369     -0.296851
  H      -1.843042     -0.340842     -1.391940
  H      -0.366532      0.771270      0.310116
  H      -0.617674     -0.580800      1.425649
  H       0.438142     -2.147732     -0.237798
  H       0.710679     -0.769960     -1.342191
  H       2.480448      1.328904      1.232477
  H       4.664875     -0.398654     -0.249809
>
25
-804.68007500; 31P isotropic shielding: 265.937555 ppm
  C      -5.130585      0.610023     -0.060024
  C      -3.846671     -0.231706     -0.138353
  C      -2.711589      0.327073      0.738173
  C      -1.431222     -0.529215      0.755555
  C      -0.712756     -0.607668     -0.602569
  C       0.605032     -1.376993     -0.562907
  O       1.563741     -0.788390      0.386565
  P       2.379557      0.542874     -0.012438
  O       2.597911      0.745546     -1.464829
  O       3.683205      0.458794      0.939224
  H      -5.512300      0.654993      0.969676
  H      -5.924190      0.192655     -0.693570
  H      -4.946769      1.641955     -0.390643
  H      -3.517821     -0.289442     -1.186436
  H      -4.064018     -1.266111      0.173106
  H      -2.461630      1.346636      0.401063
  H      -3.081009      0.430107      1.770377
  H      -0.736110     -0.120421      1.501718
  H      -1.678182     -1.549178      1.093093
  H      -1.349920     -1.106774     -1.348023
  H      -0.526075      0.405556     -0.992005
  H       0.460182     -2.399794     -0.195818
  H       1.074259     -1.409218     -1.552594
  H       1.717179      1.583471      0.667021
  H       4.399382     -0.069473      0.537339
>
25
-804.67926707; 31P isotropic shielding: 267.410094 ppm
  C      -3.796429      1.361782      0.978434
  C      -4.061084      0.040470      0.236470
  C      -2.896248     -0.425517     -0.659111
  C      -1.612211     -0.786676      0.106899
  C      -0.493993     -1.295358     -0.816828
  C       0.800603     -1.656500     -0.093709
  O       1.353881     -0.517950      0.657359
  P       2.112924      0.671714     -0.120501
  O       2.759056      0.288178     -1.398515
  O       3.048127      1.307155      1.034547
  H      -3.546617      2.165979      0.271402
  H      -2.965011      1.273697      1.689470
  H      -4.681034      1.679819      1.545533
  H      -4.960184      0.153693     -0.387445
  H      -4.293794     -0.751025      0.966653
  H      -3.222554     -1.301520     -1.241558
  H      -2.667738      0.362851     -1.395181
  H      -1.247463      0.085786      0.664688
  H      -1.841573     -1.558531      0.859899
  H      -0.831108     -2.199160     -1.349741
  H      -0.275232     -0.549205     -1.596298
  H       0.630901     -2.422060      0.672339
  H       1.562496     -2.009357     -0.797952
  H       1.166704      1.711999     -0.190975
  H       3.904880      0.845135      1.110919
>
25
-804.67941478; 31P isotropic shielding: 267.435858 ppm
  C      -4.956423      0.508136      0.560079
  C      -3.442420      0.270001      0.676933
  C      -2.763123      0.063860     -0.689044
  C      -1.232480     -0.099903     -0.626849
  C      -0.767193     -1.367322      0.112213
  C       0.728757     -1.636471     -0.005657
  O       1.508064     -0.584803      0.667578
  P       2.226592      0.592464     -0.162720
  O       2.394216      0.344387     -1.615208
  O       3.566999      0.892540      0.692872
  H      -5.455411     -0.346741      0.082299
  H      -5.171350      1.398555     -0.047235
  H      -5.417202      0.655613      1.545640
  H      -3.262770     -0.603559      1.320466
  H      -2.972632      1.127177      1.185462
  H      -3.203111     -0.817231     -1.184712
  H      -2.998559      0.924736     -1.333827
  H      -0.827727     -0.115263     -1.649507
  H      -0.802090      0.786965     -0.137020
  H      -1.037686     -1.319686      1.175975
  H      -1.285429     -2.246126     -0.306421
  H       1.007282     -2.565521      0.504884
  H       1.048863     -1.690774     -1.053194
  H       1.507972      1.745521      0.202478
  H       4.323162      0.354146      0.390115
>
25
-804.67955599; 31P isotropic shielding: 264.282652 ppm
  C      -4.949751      0.513619      0.562937
  C      -3.434921      0.279712      0.678323
  C      -2.760435      0.050651     -0.686299
  C      -1.229565     -0.112225     -0.627311
  C      -0.761672     -1.367438      0.130619
  C       0.734070     -1.637797      0.012994
  O       1.514661     -0.574676      0.666524
  P       2.232050      0.587784     -0.185360
  O       2.395610      0.315274     -1.633889
  O       3.575048      0.900849      0.661455
  H      -5.168180      1.392172     -0.060207
  H      -5.406801      0.679108      1.547382
  H      -5.449553     -0.350741      0.103412
  H      -3.251659     -0.581959      1.336717
  H      -2.964838      1.146494      1.170079
  H      -3.201937     -0.838727     -1.165621
  H      -2.998408      0.900504     -1.344636
  H      -0.829037     -0.144676     -1.651254
  H      -0.796739      0.782457     -0.154124
  H      -1.029504     -1.303069      1.194185
  H      -1.280517     -2.253055     -0.272662
  H       1.014468     -2.558100      0.538152
  H       1.051243     -1.709466     -1.034387
  H       1.515400      1.747445      0.162189
  H       4.330268      0.357960      0.364382
>
25
-804.67956349; 31P isotropic shielding: 264.286588 ppm
  C      -4.929466      0.528810      0.570473
  C      -3.413582      0.299935      0.682617
  C      -2.749958      0.020004     -0.677681
  C      -1.218620     -0.140500     -0.625928
  C      -0.743831     -1.364890      0.176715
  C       0.751049     -1.639048      0.057256
  O       1.536003     -0.549549      0.659719
  P       2.250731      0.573586     -0.245636
  O       2.399127      0.241232     -1.683282
  O       3.603114      0.914610      0.574948
  H      -5.378545      0.732683      1.551397
  H      -5.432709     -0.352976      0.149396
  H      -5.153281      1.382267     -0.084807
  H      -3.224710     -0.536055      1.371849
  H      -2.940564      1.184879      1.137955
  H      -3.194582     -0.887022     -1.119710
  H      -2.994076      0.844250     -1.365669
  H      -0.827746     -0.213860     -1.651545
  H      -0.780695      0.772011     -0.193156
  H      -1.003265     -1.258996      1.239045
  H      -1.265200     -2.265866     -0.187441
  H       1.036735     -2.537135      0.616947
  H       1.058973     -1.753336     -0.989091
  H       1.542208      1.749601      0.061362
  H       4.353389      0.357064      0.292867
>
25
-804.67956097; 31P isotropic shielding: 264.287935 ppm
  C      -5.204654      0.244873      0.107441
  C      -3.782134     -0.122894     -0.344695
  C      -2.692527      0.539978      0.516858
  C      -1.249120      0.261737      0.054721
  C      -0.814356     -1.205867      0.209258
  C       0.589679     -1.493987     -0.309393
  O       1.603814     -0.770199      0.474416
  P       2.313641      0.559734     -0.090023
  O       2.134617      0.818267     -1.539437
  O       3.834657      0.441961      0.450930
  H      -5.382611     -0.069300      1.145582
  H      -5.963683     -0.237322     -0.522421
  H      -5.367295      1.330575      0.057109
  H      -3.639730      0.176377     -1.395304
  H      -3.668701     -1.216715     -0.319074
  H      -2.857836      1.628492      0.516014
  H      -2.809132      0.215223      1.564134
  H      -1.130649      0.569518     -0.995800
  H      -0.569183      0.896962      0.640388
  H      -0.881630     -1.507011      1.265915
  H      -1.495717     -1.864634     -0.350387
  H       0.845668     -2.553606     -0.194953
  H       0.695365     -1.209207     -1.363093
  H       1.876460      1.564147      0.792764
  H       4.419957      0.002898     -0.195549
>
25
-804.67953167; 31P isotropic shielding: 264.306512 ppm
  C      -2.599479      1.743174      0.336908
  C      -3.203951      0.522230     -0.380233
  C      -2.173756     -0.573721     -0.720568
  C      -1.578138     -1.271974      0.515047
  C      -0.507431     -2.332479      0.195147
  C       0.767189     -1.786866     -0.443274
  O       1.478301     -0.891139      0.484941
  P       1.378609      0.709739      0.366758
  O       0.854958      1.228622     -0.921040
  O       2.847002      1.216405      0.818853
  H      -1.763233      2.159383     -0.239967
  H      -2.220884      1.483791      1.334706
  H      -3.351334      2.532100      0.470966
  H      -3.676591      0.857338     -1.315383
  H      -4.011369      0.091674      0.234144
  H      -2.652780     -1.334991     -1.356844
  H      -1.372135     -0.119324     -1.318717
  H      -1.148917     -0.528839      1.201958
  H      -2.389510     -1.756743      1.079264
  H      -0.233979     -2.873317      1.112717
  H      -0.921240     -3.080623     -0.500857
  H       1.477374     -2.594607     -0.652918
  H       0.567510     -1.239098     -1.370287
  H       0.681800      1.090847      1.526364
  H       3.460084      1.295419      0.063215
>
25
-804.67992712; 31P isotropic shielding: 264.474550 ppm
  C      -2.332339      1.886541     -0.328758
  C      -3.002343      0.605377      0.200786
  C      -2.015725     -0.540924      0.502278
  C      -1.342895     -1.131680     -0.750933
  C      -0.352002     -2.275539     -0.462006
  C       0.846636     -1.896026      0.404124
  O       1.677127     -0.874953     -0.256235
  P       1.681501      0.660437      0.213425
  O       1.070532      0.946352      1.536094
  O       1.062357      1.511865     -1.019841
  H      -3.062574      2.695051     -0.461832
  H      -1.862331      1.719062     -1.308596
  H      -1.572378      2.244156      0.382377
  H      -3.758377      0.261858     -0.522974
  H      -3.547634      0.850638      1.123682
  H      -1.256104     -0.170179      1.204407
  H      -2.556812     -1.346956      1.022786
  H      -2.122950     -1.514987     -1.426590
  H      -0.817489     -0.350839     -1.316062
  H      -0.872025     -3.096897      0.058054
  H       0.017990     -2.688112     -1.411654
  H       0.548766     -1.517459      1.387657
  H       1.512067     -2.755789      0.542061
  H       3.042634      0.963352      0.041547
  H       0.190767      1.889751     -0.787498
>
25
-804.68071821; 31P isotropic shielding: 265.147156 ppm
  C      -5.633585      0.617026      0.161747
  C      -4.442994     -0.155836     -0.427574
  C      -3.116367      0.138671      0.291978
  C      -1.921932     -0.637082     -0.287114
  C      -0.597103     -0.331855      0.433379
  C       0.566414     -1.120702     -0.159629
  O       1.816500     -0.887610      0.578020
  P       2.694162      0.431895      0.280569
  O       2.509903      1.027191     -1.064742
  O       4.184527     -0.028117      0.704835
  H      -5.784104      0.364581      1.220827
  H      -6.564984      0.387497     -0.372209
  H      -5.470921      1.702160      0.099397
  H      -4.336836      0.089876     -1.495892
  H      -4.647076     -1.237273     -0.381507
  H      -2.906877      1.219323      0.240618
  H      -3.221977     -0.102026      1.362391
  H      -2.129779     -1.717898     -0.230523
  H      -1.818176     -0.398474     -1.357477
  H      -0.378867      0.744114      0.356836
  H      -0.685578     -0.569935      1.503677
  H       0.398799     -2.200865     -0.078070
  H       0.727512     -0.860161     -1.212425
  H       2.444479      1.280788      1.374874
  H       4.645660     -0.502888     -0.012989
>
25
-804.68006881; 31P isotropic shielding: 265.958377 ppm
  C      -4.612671      0.044912      1.144966
  C      -3.891551      0.901310      0.089778
  C      -2.838909      0.135179     -0.735470
  C      -1.632515     -0.361506      0.079530
  C      -0.575790     -1.061401     -0.789644
  C       0.641286     -1.560429     -0.015384
  O       1.335913     -0.469700      0.688251
  P       2.278252      0.547414     -0.133295
  O       2.878910     -0.000717     -1.372901
  O       3.279817      1.101754      1.007668
  H      -5.384756      0.627123      1.664814
  H      -3.919606     -0.335199      1.906385
  H      -5.105083     -0.821177      0.679603
  H      -3.407805      1.759815      0.582402
  H      -4.637956      1.325100     -0.598530
  H      -3.321497     -0.722394     -1.233091
  H      -2.473990      0.789957     -1.542467
  H      -1.171689      0.489664      0.602449
  H      -1.965472     -1.058634      0.863214
  H      -1.022932     -1.935610     -1.290081
  H      -0.238139     -0.392058     -1.596017
  H       0.351787     -2.251494      0.784898
  H       1.358207     -2.055102     -0.680372
  H       1.500659      1.711981     -0.282494
  H       4.050229      0.516212      1.138388
>
25
-804.67924868; 31P isotropic shielding: 267.404285 ppm
  C      -4.573629      1.153884     -0.115519
  C      -3.102752      0.732933      0.032299
  C      -2.941656     -0.749512      0.413557
  C      -1.484846     -1.194763      0.643572
  C      -0.617058     -1.175445     -0.626367
  C       0.817904     -1.645691     -0.403242
  O       1.521990     -0.825052      0.594736
  P       2.028977      0.655762      0.209613
  O       2.337358      0.871423     -1.224236
  O       3.208894      0.911133      1.284208
  H      -5.125430      1.002332      0.822876
  H      -5.076775      0.563978     -0.894564
  H      -4.662768      2.213350     -0.389132
  H      -2.617147      1.355210      0.801103
  H      -2.572853      0.939740     -0.908973
  H      -3.517939     -0.941241      1.332107
  H      -3.398129     -1.377981     -0.369078
  H      -1.025883     -0.553319      1.410222
  H      -1.480062     -2.215180      1.057756
  H      -1.061142     -1.836698     -1.388405
  H      -0.594135     -0.171335     -1.072928
  H       0.846849     -2.657573      0.017654
  H       1.391174     -1.623367     -1.337009
  H       1.072381      1.520342      0.773916
  H       4.064276      0.543270      0.990333
