34
-1767.46964501; 31P isotropic shielding: 212.157599 ppm
  C       3.647933      1.631579      0.261624
  C       3.216305      0.150479      0.116409
  C       1.984075     -0.062647      0.996572
  C       0.796596     -0.401902      0.573673
  C      -0.386838     -0.709988      0.100654
  P      -1.466697      0.683540     -0.344030
  O      -2.501736      0.428288     -1.370123
  Cl     -2.270889      1.336874      1.458899
  Cl     -0.216053      2.263038     -0.831507
  C      -0.928644     -2.149172     -0.087269
  C      -1.035112     -2.458958     -1.601349
  C      -2.316509     -2.292046      0.584284
  C       0.054536     -3.141429      0.568669
  C       2.914392     -0.165659     -1.360807
  C       4.343623     -0.774588      0.635820
  H       2.860004      2.306031     -0.093750
  H       3.864710      1.880147      1.308964
  H       4.556146      1.820150     -0.326577
  H       2.126668      0.107015      2.068591
  H      -1.731995     -1.779261     -2.101029
  H      -1.393106     -3.487935     -1.741137
  H      -0.053722     -2.370166     -2.084568
  H      -2.662778     -3.328958      0.485729
  H      -3.063303     -1.643174      0.114474
  H      -2.264316     -2.048927      1.652658
  H      -0.320826     -4.164252      0.438258
  H       1.049907     -3.082261      0.112454
  H       0.160584     -2.947857      1.643271
  H       2.114488      0.474498     -1.749984
  H       2.606052     -1.211135     -1.488141
  H       3.811492     -0.000243     -1.970932
  H       4.059216     -1.830499      0.544080
  H       4.568610     -0.572040      1.691470
  H       5.262888     -0.614539      0.056552
>
34
-1767.46957951; 31P isotropic shielding: 211.060981 ppm
  C       3.405929      1.665798      0.998267
  C       3.070144      0.194244      0.645424
  C       1.781652     -0.171495      1.382144
  C       0.648985     -0.489747      0.816428
  C      -0.487398     -0.755541      0.218953
  P      -1.533640      0.673738     -0.195769
  O      -2.993352      0.440188     -0.263792
  Cl     -1.002974      2.191712      1.104271
  Cl     -0.762063      1.388728     -1.995424
  C      -0.990777     -2.169410     -0.164455
  C      -2.191499     -2.543493      0.740803
  C       0.151093     -3.183206      0.057603
  C      -1.419545     -2.205617     -1.651738
  C       2.906689      0.048504     -0.879416
  C       4.199731     -0.735391      1.150283
  H       4.347551      1.963074      0.517337
  H       2.613231      2.341061      0.653994
  H       3.521409      1.798071      2.082184
  H       1.825540     -0.126327      2.474893
  H      -1.894894     -2.541127      1.797436
  H      -2.542600     -3.552377      0.485407
  H      -3.022829     -1.844040      0.610366
  H      -0.202291     -4.190372     -0.197173
  H       0.483701     -3.191096      1.102328
  H       1.018202     -2.954456     -0.574239
  H      -1.735229     -3.224030     -1.912570
  H      -2.262495     -1.534439     -1.847711
  H      -0.589201     -1.925001     -2.311083
  H       2.105430      0.693146     -1.258675
  H       2.668660     -0.986162     -1.156569
  H       3.839260      0.329374     -1.385243
  H       3.980512     -1.784054      0.912877
  H       4.327462     -0.650884      2.237769
  H       5.153205     -0.467672      0.675493
>
34
-1767.46960687; 31P isotropic shielding: 212.200123 ppm
  C       2.642374      0.540858     -1.245259
  C       3.214679     -0.048046      0.058444
  C       2.138798     -0.790169      0.851985
  C       0.872695     -0.848377      0.538948
  C      -0.401982     -0.848661      0.231663
  P      -1.384337      0.543217      0.870173
  O      -2.828070      0.301917      1.087975
  Cl     -0.402995      1.233482      2.554390
  Cl     -1.036200      2.099030     -0.472507
  C      -1.115294     -1.912081     -0.640356
  C      -0.053648     -2.852152     -1.248362
  C      -1.900745     -1.226757     -1.785425
  C      -2.082135     -2.735984      0.246757
  C       4.354259     -1.043762     -0.263533
  C       3.753117      1.092978      0.958692
  H       3.426814      1.079878     -1.791523
  H       2.255568     -0.250897     -1.899032
  H       1.824680      1.241636     -1.041316
  H       2.473952     -1.283182      1.769835
  H       0.643805     -2.303393     -1.893109
  H      -0.552136     -3.617526     -1.856512
  H       0.528385     -3.358598     -0.469332
  H      -1.235736     -0.622004     -2.413910
  H      -2.699396     -0.582802     -1.401872
  H      -2.364980     -1.994663     -2.417695
  H      -1.534470     -3.236664      1.055400
  H      -2.855779     -2.101758      0.689803
  H      -2.571611     -3.506781     -0.363597
  H       4.772357     -1.479191      0.653924
  H       5.166829     -0.532340     -0.796750
  H       3.991831     -1.863965     -0.896102
  H       4.558007      1.633879      0.442686
  H       4.158881      0.699328      1.900079
  H       2.957283      1.807350      1.201937
>
34
-1767.46964411; 31P isotropic shielding: 212.141841 ppm
  C       2.724806      0.141309     -1.863487
  C       3.364213      0.164493     -0.462079
  C       2.386614     -0.322908      0.607138
  C       1.123311     -0.577036      0.403591
  C      -0.166982     -0.677029      0.165890
  P      -0.895912      0.982518      0.323515
  O       0.048791      2.120242      0.306342
  Cl     -2.348913      1.168370     -1.150703
  Cl     -2.048951      0.947095      2.049913
  C      -0.898819     -1.984923     -0.217473
  C      -0.059265     -3.177518      0.296423
  C      -0.999979     -2.073213     -1.761606
  C      -2.309277     -2.072536      0.408967
  C       4.621665     -0.734551     -0.432756
  C       3.740870      1.621920     -0.086276
  H       3.445287      0.501241     -2.608859
  H       2.423653     -0.875556     -2.146635
  H       1.840195      0.787286     -1.906506
  H       2.780241     -0.392052      1.625580
  H       0.947276     -3.175738     -0.137242
  H      -0.550447     -4.119010      0.019655
  H       0.039171     -3.147517      1.388699
  H      -1.477970     -3.020104     -2.046435
  H      -0.002949     -2.040068     -2.217467
  H      -1.593953     -1.253868     -2.177057
  H      -2.760944     -3.033992      0.132846
  H      -2.264027     -2.018360      1.502347
  H      -2.974127     -1.279673      0.053240
  H       4.371041     -1.770936     -0.693445
  H       5.084885     -0.734459      0.563040
  H       5.366495     -0.369942     -1.152696
  H       4.211065      1.665514      0.905135
  H       2.849858      2.260219     -0.072648
  H       4.454581      2.024481     -0.818052
>
34
-1767.46549167; 31P isotropic shielding: 218.763963 ppm
  C       3.709860      1.744325      0.218484
  C       3.347939      0.277034     -0.131277
  C       2.342512     -0.191933      0.920354
  C       1.099832     -0.507003      0.678519
  C      -0.170124     -0.680955      0.381214
  P      -0.966684      0.954640      0.336080
  O      -0.244724      2.066109      0.990006
  Cl     -1.292126      1.331841     -1.685155
  Cl     -2.910784      0.758864      1.038056
  C      -0.834450     -2.047776      0.097070
  C       0.274403     -3.069277     -0.243738
  C      -1.825505     -1.984988     -1.087261
  C      -1.571179     -2.522545      1.376617
  C       2.750615      0.214645     -1.550108
  C       4.608756     -0.614459     -0.045158
  H       2.819363      2.383150      0.188484
  H       4.147235      1.815601      1.223047
  H       4.445018      2.131027     -0.500394
  H       2.695568     -0.201658      1.955747
  H       0.822590     -2.772248     -1.146210
  H      -0.177846     -4.052708     -0.423864
  H       0.994483     -3.168411      0.576659
  H      -2.239375     -2.987133     -1.258562
  H      -1.327392     -1.659728     -2.007335
  H      -2.664073     -1.308632     -0.895257
  H      -2.013598     -3.512232      1.200599
  H      -0.872364     -2.602699      2.218486
  H      -2.374966     -1.837552      1.661634
  H       1.864716      0.853960     -1.639943
  H       2.460000     -0.809809     -1.814972
  H       3.491641      0.557699     -2.283231
  H       4.370086     -1.657026     -0.291430
  H       5.042539     -0.591633      0.963505
  H       5.372734     -0.260887     -0.750468
>
34
-1767.46511436; 31P isotropic shielding: 220.072238 ppm
  C       4.200853     -0.133210      1.316789
  C       3.179674      0.376136      0.270772
  C       1.807250      0.446188      0.940544
  C       0.729490     -0.167628      0.533345
  C      -0.348149     -0.766292      0.086970
  P      -1.361508      0.164900     -1.100982
  O      -2.163126     -0.627497     -2.060179
  Cl     -2.529878      1.429147      0.066093
  Cl     -0.091634      1.516521     -2.024353
  C      -0.812486     -2.187815      0.494033
  C      -2.301311     -2.168139      0.918582
  C       0.044671     -2.670464      1.682902
  C      -0.615259     -3.147552     -0.705793
  C       3.560862      1.810323     -0.174815
  C       3.162541     -0.565176     -0.948759
  H       4.227832      0.521674      2.197945
  H       3.946966     -1.146645      1.652635
  H       5.208891     -0.157846      0.881593
  H       1.739299      1.081195      1.829719
  H      -2.466357     -1.470364      1.748660
  H      -2.596781     -3.171545      1.251300
  H      -2.956804     -1.884087      0.088507
  H      -0.273784     -3.679103      1.975192
  H      -0.068274     -2.008844      2.550650
  H       1.108732     -2.710242      1.421664
  H      -0.925696     -4.161597     -0.419979
  H      -1.209811     -2.833206     -1.568896
  H       0.440480     -3.183228     -1.003239
  H       4.561432      1.811837     -0.627796
  H       3.574412      2.500224      0.679381
  H       2.847223      2.194768     -0.913121
  H       2.441333     -0.228826     -1.702303
  H       2.895582     -1.588572     -0.656118
  H       4.155633     -0.593936     -1.414842
>
34
-1767.46958896; 31P isotropic shielding: 211.299020 ppm
  C       4.388522     -0.638457      0.723235
  C       3.270446      0.231467      0.099073
  C       2.047244      0.168976      1.015371
  C       0.858931     -0.240173      0.662540
  C      -0.322605     -0.631504      0.248165
  P      -1.310616      0.621983     -0.619647
  O      -1.608261      0.351564     -2.043147
  Cl     -3.033588      0.883882      0.521160
  Cl     -0.356744      2.434672     -0.327527
  C      -0.857208     -2.084430      0.407652
  C      -1.503976     -2.207846      1.810485
  C       0.336728     -3.061078      0.308027
  C      -1.892523     -2.457048     -0.677557
  C       3.730900      1.709658      0.036466
  C       2.937238     -0.271100     -1.318557
  H       4.085410     -1.691975      0.771466
  H       5.303786     -0.571548      0.119817
  H       4.628830     -0.304775      1.741561
  H       2.195429      0.530141      2.037964
  H      -0.774147     -1.977001      2.596399
  H      -1.864056     -3.234121      1.963994
  H      -2.354762     -1.527424      1.921179
  H      -0.016469     -4.089359      0.458153
  H       1.096723     -2.845375      1.067525
  H       0.809777     -3.001587     -0.679731
  H      -2.190436     -3.503877     -0.535835
  H      -2.798480     -1.844544     -0.616151
  H      -1.479571     -2.345873     -1.685531
  H       4.632944      1.797476     -0.583855
  H       3.967642      2.095192      1.037127
  H       2.949914      2.344463     -0.398967
  H       2.602781     -1.315429     -1.301600
  H       3.826947     -0.209295     -1.958013
  H       2.144854      0.330741     -1.779341
>
34
-1767.46647487; 31P isotropic shielding: 218.856802 ppm
  C       2.717362      0.585016     -1.143521
  C       3.181903      0.070474      0.231923
  C       2.032778     -0.583979      0.999021
  C       0.805570     -0.702591      0.569779
  C      -0.424011     -0.787705      0.121024
  P      -1.520448      0.604198      0.519981
  O      -2.747093      0.306072      1.290121
  Cl     -0.338059      2.050779      1.409812
  Cl     -1.926479      1.496004     -1.320903
  C      -0.955228     -1.997935     -0.705193
  C      -0.346873     -3.291246     -0.115095
  C      -0.486561     -1.827833     -2.171336
  C      -2.495592     -2.116400     -0.666616
  C       4.306940     -0.978050      0.054477
  C       3.699544      1.253565      1.087947
  H       2.347814     -0.235250     -1.770882
  H       1.911822      1.322170     -1.042710
  H       3.554314      1.062728     -1.668451
  H       2.273569     -0.949021      2.002384
  H       0.748672     -3.265021     -0.134962
  H      -0.680511     -4.156649     -0.702252
  H      -0.668800     -3.435130      0.923663
  H      -0.845018     -2.671716     -2.775981
  H       0.608292     -1.804271     -2.231135
  H      -0.874411     -0.902574     -2.611035
  H      -2.791754     -3.012547     -1.226806
  H      -2.869667     -2.208149      0.358078
  H      -2.991935     -1.257364     -1.130792
  H       3.959837     -1.826030     -0.549293
  H       4.645331     -1.365621      1.024622
  H       5.171607     -0.527196     -0.450971
  H       4.031683      0.911923      2.077261
  H       2.915111      2.006192      1.232121
  H       4.552591      1.735557      0.591520
>
34
-1767.46635101; 31P isotropic shielding: 217.936862 ppm
  C       3.413402      1.670209      1.032248
  C       3.090543      0.237641      0.535585
  C       1.947984     -0.300178      1.397450
  C       0.752533     -0.602817      0.968992
  C      -0.450881     -0.848477      0.510237
  P      -1.599532      0.561518      0.470485
  O      -3.043615      0.255431      0.573856
  Cl     -0.937987      1.902322      1.899009
  Cl     -1.131205      1.575609     -1.289698
  C      -0.954620     -2.220722     -0.002656
  C      -1.600470     -2.069196     -1.401649
  C      -1.989754     -2.789512      0.999926
  C       0.245336     -3.185784     -0.102071
  C       2.700050      0.278364     -0.954074
  C       4.323165     -0.676006      0.737725
  H       2.550115      2.333443      0.899488
  H       3.684860      1.670262      2.096186
  H       4.258619      2.084085      0.465956
  H       2.162201     -0.402882      2.465907
  H      -2.495107     -1.438095     -1.370690
  H      -1.901267     -3.058116     -1.771119
  H      -0.893033     -1.636643     -2.119497
  H      -2.340327     -3.769773      0.649766
  H      -2.855341     -2.127349      1.097799
  H      -1.536766     -2.921507      1.990832
  H      -0.104591     -4.167764     -0.444613
  H       0.993631     -2.820398     -0.816204
  H       0.736638     -3.317351      0.869256
  H       1.826196      0.918787     -1.119489
  H       2.461481     -0.724531     -1.329918
  H       3.532116      0.675003     -1.549752
  H       4.115103     -1.697627      0.395547
  H       4.613551     -0.722538      1.795835
  H       5.179374     -0.290408      0.168242
