24
-817.56205723; 31P isotropic shielding: 15.217585 ppm
  N       0.350850     -3.146253      0.347740
  C       0.482829     -1.986966      0.305402
  C       0.649471     -0.582424      0.256867
  C      -0.294112      0.382265      0.648174
  C       0.233001      1.677583      0.490913
  P       1.851717      1.688327     -0.130746
  N       1.839745     -0.032609     -0.182904
  C       2.970649     -0.853840     -0.634170
  C      -1.712108      0.061236      1.082603
  N      -2.718982      0.079845      0.002519
  C      -2.509432     -0.952220     -1.015158
  C      -2.932007      1.401718     -0.587900
  H      -0.319862      2.577997      0.742047
  H       3.787034     -0.190248     -0.933083
  H       2.678650     -1.472789     -1.491178
  H       3.317623     -1.509399      0.173590
  H      -2.027363      0.789467      1.841718
  H      -1.741756     -0.933603      1.546187
  H      -3.381260     -0.977281     -1.681327
  H      -1.610133     -0.782752     -1.641966
  H      -2.410579     -1.933054     -0.536273
  H      -2.070755      1.774673     -1.178418
  H      -3.802176      1.357460     -1.255455
  H      -3.145946      2.131168      0.204518
>
24
-817.56205091; 31P isotropic shielding: 15.151264 ppm
  N       0.536397     -3.200261      0.629081
  C       0.629198     -2.046602      0.474088
  C       0.772969     -0.652530      0.271397
  C      -0.235275      0.315226      0.384033
  C       0.263453      1.597317      0.092325
  P       1.948279      1.592506     -0.304568
  N       1.997724     -0.116411     -0.085261
  C       3.200551     -0.939022     -0.262975
  C      -1.664819      0.022266      0.762675
  N      -2.613855      0.620436     -0.190023
  C      -2.522885     -0.003012     -1.515172
  C      -3.983645      0.582401      0.327768
  H      -0.364541      2.482845      0.099731
  H       3.047117     -1.684451     -1.052857
  H       3.454011     -1.459861      0.668439
  H       4.031469     -0.285968     -0.544845
  H      -1.872431      0.459602      1.750303
  H      -1.808518     -1.074059      0.863440
  H      -3.199157      0.512961     -2.207397
  H      -1.501423      0.088332     -1.900779
  H      -2.794098     -1.079951     -1.500571
  H      -4.029917      1.107468      1.290275
  H      -4.654100      1.091929     -0.375343
  H      -4.364605     -0.450560      0.477935
>
24
-817.56313442; 31P isotropic shielding: 10.618882 ppm
  N       0.705625     -3.223765      0.005904
  C       0.735905     -2.058904      0.081549
  C       0.803125     -0.646635      0.159472
  C      -0.259592      0.224932      0.436803
  C       0.169364      1.563946      0.415072
  P       1.856588      1.726944      0.064169
  N       1.999917      0.013500     -0.056000
  C       3.248959     -0.693505     -0.364788
  C      -1.674504     -0.213887      0.716819
  N      -2.646022      0.515957     -0.113563
  C      -4.016455      0.300879      0.357577
  C      -2.509460      0.179396     -1.535182
  H      -0.507744      2.395965      0.581893
  H       3.520607     -1.373154      0.452125
  H       4.045144      0.044882     -0.495662
  H       3.145333     -1.276534     -1.288017
  H      -1.916455     -0.000611      1.768412
  H      -1.757490     -1.313505      0.587721
  H      -4.707586      0.908286     -0.239843
  H      -4.340497     -0.759488      0.285136
  H      -4.100843      0.613471      1.406119
  H      -2.719136     -0.891410     -1.742641
  H      -3.208843      0.787009     -2.122052
  H      -1.492041      0.401832     -1.875721
>
24
-817.56315743; 31P isotropic shielding: 10.605918 ppm
  N       0.703045     -3.225572     -0.022521
  C       0.736065     -2.061506      0.063210
  C       0.802476     -0.649972      0.153693
  C      -0.261852      0.218421      0.434952
  C       0.166585      1.557629      0.427517
  P       1.855055      1.724871      0.084781
  N       1.999706      0.012515     -0.050850
  C       3.250374     -0.690959     -0.360780
  C      -1.677207     -0.224101      0.707228
  N      -2.649204      0.529305     -0.100964
  C      -4.018769      0.306033      0.368638
  C      -2.517770      0.229726     -1.531284
  H      -0.512010      2.387359      0.599601
  H       3.520200     -1.376087      0.452171
  H       4.046126      0.049231     -0.483865
  H       3.150189     -1.267422     -1.288495
  H      -1.915799     -0.037997      1.764797
  H      -1.763167     -1.319770      0.549685
  H      -4.709972      0.929772     -0.211606
  H      -4.345589     -0.751426      0.270766
  H      -4.099389      0.592728      1.424844
  H      -3.216708      0.854880     -2.099980
  H      -1.500516      0.457589     -1.868678
  H      -2.731571     -0.834548     -1.766563
>
24
-817.56315189; 31P isotropic shielding: 10.692302 ppm
  N       0.225723     -2.993084     -0.096063
  C       0.396848     -1.838577     -0.108255
  C       0.670332     -0.449507     -0.135969
  C      -0.206405      0.569324     -0.541353
  C       0.413019      1.825961     -0.459310
  P       2.050343      1.742284      0.111642
  N       1.909951      0.029018      0.241460
  C       2.992032     -0.853303      0.696984
  C      -1.626890      0.309733     -0.973444
  N      -2.415170     -0.323513      0.093775
  C      -3.686924     -0.843028     -0.410371
  C      -2.605827      0.563028      1.243538
  H      -0.092049      2.752178     -0.719006
  H       2.681602     -1.414108      1.586778
  H       3.862613     -0.239391      0.944717
  H       3.265908     -1.565791     -0.090342
  H      -1.633357     -0.373552     -1.834640
  H      -2.077747      1.265848     -1.317334
  H      -4.359571     -0.046074     -0.795853
  H      -3.498049     -1.557199     -1.221131
  H      -4.211777     -1.369179      0.396199
  H      -1.634201      0.884713      1.634854
  H      -3.193916      1.472973      0.992077
  H      -3.135088      0.021545      2.036647
>
24
-817.56273136; 31P isotropic shielding: 21.659211 ppm
  N       0.065662     -2.989593      0.346457
  C       0.300161     -1.848270      0.278722
  C       0.640748     -0.475330      0.216835
  C      -0.208920      0.609166      0.486697
  C       0.473895      1.827289      0.347792
  P       2.136205      1.627964     -0.111501
  N       1.921831     -0.082954     -0.117366
  C       2.985785     -1.044452     -0.433346
  C      -1.664171      0.444093      0.842232
  N      -2.420186     -0.201228     -0.241927
  C      -2.502927      0.641502     -1.436637
  C      -3.741938     -0.638724      0.208627
  H      -0.000715      2.792184      0.503387
  H       3.183899     -1.697237      0.425344
  H       3.895708     -0.490148     -0.680267
  H       2.699444     -1.666698     -1.289776
  H      -2.083813      1.437356      1.111779
  H      -1.758251     -0.194464      1.731887
  H      -1.496341      0.903065     -1.781574
  H      -3.009769      0.089554     -2.237175
  H      -3.062469      1.585850     -1.257605
  H      -3.633593     -1.327027      1.055768
  H      -4.395153      0.203849      0.524339
  H      -4.246692     -1.172546     -0.605692
>
24
-817.56275878; 31P isotropic shielding: 21.729535 ppm
  N       0.086654     -2.881150     -0.840586
  C       0.308637     -1.767734     -0.569961
  C       0.646235     -0.428452     -0.257543
  C      -0.188224      0.694864     -0.370566
  C       0.491224      1.863930      0.004529
  P       2.132515      1.572263      0.489353
  N       1.913468     -0.111833      0.191313
  C       2.960130     -1.124106      0.381851
  C      -1.626119      0.610525     -0.814778
  N      -2.422279     -0.248049      0.074162
  C      -2.556740      0.318901      1.417611
  C      -3.722569     -0.574332     -0.512198
  H       0.026057      2.845781     -0.001366
  H       2.639032     -1.875687      1.113029
  H       3.862938     -0.628044      0.749354
  H       3.186175     -1.628196     -0.565408
  H      -1.676879      0.175415     -1.823065
  H      -2.040907      1.639336     -0.886401
  H      -1.566004      0.494388      1.851484
  H      -3.110883      1.283171      1.423273
  H      -3.094286     -0.389208      2.059437
  H      -4.254766     -1.271435      0.146277
  H      -4.367869      0.318597     -0.661653
  H      -3.576640     -1.061842     -1.483849
>
24
-817.56277095; 31P isotropic shielding: 21.470859 ppm
  N       0.236903     -2.986310     -0.273523
  C       0.402929     -1.832432     -0.215426
  C       0.672746     -0.443627     -0.158014
  C      -0.207679      0.596184     -0.496604
  C       0.408807      1.847100     -0.339105
  P       2.048424      1.732081      0.220403
  N       1.912573      0.014098      0.244442
  C       2.997629     -0.892145      0.642621
  C      -1.628827      0.358731     -0.939119
  N      -2.409587     -0.344064      0.089554
  C      -3.677579     -0.844506     -0.442585
  C      -2.606294      0.471842      1.289485
  H      -0.099104      2.786411     -0.539352
  H       3.272218     -1.553701     -0.187742
  H       2.689944     -1.508165      1.496126
  H       3.867048     -0.292679      0.927074
  H      -1.636318     -0.268849     -1.841717
  H      -2.085341      1.332443     -1.220247
  H      -4.359304     -0.032755     -0.778022
  H      -3.483688     -1.506492     -1.295353
  H      -4.195236     -1.423782      0.331649
  H      -3.205462      1.387914      1.092532
  H      -3.127195     -0.120505      2.051214
  H      -1.637008      0.781108      1.696411
>
24
-817.56275815; 31P isotropic shielding: 21.661766 ppm
  N       0.313688     -2.845874      0.843017
  C       0.442247     -1.756186      0.445090
  C       0.663566     -0.445163     -0.042059
  C      -0.249871      0.348727     -0.753611
  C       0.320385      1.584540     -1.096168
  P       1.957341      1.755546     -0.543685
  N       1.882394      0.177041      0.145370
  C       2.995548     -0.465803      0.855633
  C      -1.656767     -0.094666     -1.063263
  N      -2.426752     -0.360395      0.161022
  C      -2.663838      0.856801      0.939900
  C      -3.671716     -1.072892     -0.128638
  H      -0.219196      2.353363     -1.642200
  H       2.703880     -0.713142      1.883442
  H       3.841743      0.226714      0.879060
  H       3.298233     -1.387365      0.344199
  H      -1.631003     -1.028119     -1.643348
  H      -2.142867      0.671069     -1.705735
  H      -3.175968      0.597576      1.874242
  H      -1.709560      1.333651      1.190170
  H      -3.288224      1.599584      0.396399
  H      -3.446452     -2.012722     -0.647433
  H      -4.182077     -1.313027      0.811971
  H      -4.372932     -0.484458     -0.759676
>
24
-817.56279117; 31P isotropic shielding: 21.701701 ppm
  N       0.829933     -3.066091      1.359546
  C       0.806699     -2.026039      0.828724
  C       0.792086     -0.764354      0.187719
  C      -0.342046     -0.095606     -0.304480
  C       0.024652      1.142545     -0.862215
  P       1.728840      1.455434     -0.777310
  N       1.967808     -0.059854     -0.001188
  C       3.272570     -0.567222      0.441921
  C      -1.744852     -0.688944     -0.211521
  N      -2.871140      0.230644     -0.077141
  C      -3.350347      0.879086     -1.292710
  C      -2.817717      1.104945      1.090513
  H      -0.679816      1.836518     -1.304178
  H       3.498399     -1.524295     -0.043689
  H       3.281465     -0.712085      1.529075
  H       4.041291      0.162191      0.171373
  H      -1.762676     -1.367640      0.654630
  H      -1.929122     -1.318304     -1.095190
  H      -2.728470      1.723919     -1.652610
  H      -3.414688      0.141039     -2.102146
  H      -4.359378      1.276309     -1.113588
  H      -3.802417      1.566768      1.242444
  H      -2.577702      0.511007      1.982115
  H      -2.068670      1.918526      1.013506
>
24
-817.55717534; 31P isotropic shielding: 16.158383 ppm
  N       0.387849     -0.718366     -3.125324
  C       0.493561     -0.420018     -2.001434
  C       0.631453     -0.053436     -0.641520
  C      -0.300830      0.666851      0.124136
  C       0.191166      0.879280      1.425597
  P       1.763259      0.195751      1.684118
  N       1.779272     -0.374609      0.059450
  C       2.891828     -1.119921     -0.543455
  C      -1.678277      1.071323     -0.367415
  N      -2.760785      0.114523     -0.062291
  C      -3.031661     -0.038204      1.367739
  C      -2.615234     -1.176848     -0.736960
  H      -0.359743      1.423789      2.186868
  H       2.559257     -2.113695     -0.867317
  H       3.682775     -1.232936      0.203561
  H       3.291255     -0.580871     -1.410960
  H      -1.656979      1.211214     -1.456088
  H      -1.950160      2.034240      0.085271
  H      -2.219048     -0.545575      1.926021
  H      -3.196078      0.948284      1.821222
  H      -3.946965     -0.630433      1.495903
  H      -1.767096     -1.784270     -0.359837
  H      -3.533839     -1.759258     -0.590920
  H      -2.470482     -1.022814     -1.812366
