29
-732.69286287; 31P isotropic shielding: 261.641876 ppm
  C      -4.518797     -1.237082     -0.157378
  C      -3.144953     -0.680073     -0.560844
  C      -2.796609      0.620971      0.181650
  C      -1.460440      1.260380     -0.250840
  P      -0.000225      0.220531      0.149663
  O      -0.000161     -0.367318      1.529896
  C       1.460033      1.260245     -0.251044
  C       2.796201      0.620723      0.181284
  C       3.144288     -0.680419     -0.561157
  C       4.518126     -1.237552     -0.157844
  H      -0.000340     -0.745090     -0.901030
  H      -4.747509     -2.166596     -0.694715
  H      -4.553023     -1.455452      0.918759
  H      -5.319245     -0.516607     -0.377540
  H      -3.123246     -0.498698     -1.647548
  H      -2.374913     -1.438062     -0.356182
  H      -3.601195      1.355361      0.023019
  H      -2.756616      0.423312      1.261918
  H      -1.447524      1.468577     -1.332575
  H      -1.314997      2.218931      0.268230
  H       1.446993      1.468415     -1.332782
  H       1.314753      2.218824      0.268020
  H       2.756360      0.423159      1.261575
  H       3.600841      1.355014      0.022464
  H       3.122444     -0.499130     -1.647872
  H       2.374191     -1.438302     -0.356316
  H       4.746681     -2.167103     -0.695184
  H       5.318619     -0.517162     -0.378122
  H       4.552462     -1.455896      0.918295
>
29
-732.69395786; 31P isotropic shielding: 266.396608 ppm
  C      -4.370761     -1.306945     -0.175734
  C      -2.951551     -0.846848     -0.542219
  C      -2.676508      0.606677     -0.121223
  C      -1.288043      1.135296     -0.537703
  P       0.095290      0.247848      0.284070
  O      -0.094540     -0.003509      1.750833
  C       1.605281      1.193710     -0.155468
  C       2.878280      0.670363      0.546904
  C       3.260647     -0.784944      0.212679
  C       3.530325     -1.042935     -1.278662
  H       0.222057     -0.936191     -0.502987
  H      -4.535383     -1.244923      0.908656
  H      -5.129846     -0.680645     -0.665423
  H      -4.545726     -2.346492     -0.481909
  H      -2.797809     -0.948881     -1.628630
  H      -2.221398     -1.513140     -0.060231
  H      -3.444499      1.262955     -0.558728
  H      -2.770610      0.692549      0.970274
  H      -1.142891      1.063841     -1.627338
  H      -1.189668      2.195807     -0.263776
  H       1.708183      1.186369     -1.250824
  H       1.418930      2.235552      0.142944
  H       2.732382      0.760058      1.631398
  H       3.714679      1.335379      0.281663
  H       2.473661     -1.463551      0.573066
  H       4.160706     -1.039886      0.790908
  H       2.630517     -0.896481     -1.890679
  H       4.307579     -0.367208     -1.663880
  H       3.871813     -2.072826     -1.444681
>
29
-732.69305523; 31P isotropic shielding: 268.804157 ppm
  C      -5.165986     -0.665849     -0.140091
  C      -4.000386      0.309607     -0.366715
  C      -2.627982     -0.326549     -0.086011
  C      -1.456990      0.646967     -0.315602
  P       0.161673     -0.096604      0.113104
  O       0.280357     -0.603207      1.519670
  C       1.424768      1.148226     -0.370575
  C       2.840880      0.795659      0.130342
  C       3.418517     -0.497484     -0.468911
  C       4.854524     -0.773147      0.002724
  H       0.293070     -1.105543     -0.890551
  H      -5.183866     -1.024915      0.898159
  H      -6.133018     -0.189260     -0.347009
  H      -5.078632     -1.544760     -0.794008
  H      -4.125804      1.192471      0.279369
  H      -4.024475      0.681458     -1.403334
  H      -2.591794     -0.689779      0.950714
  H      -2.499260     -1.211807     -0.728742
  H      -1.418696      0.982164     -1.364426
  H      -1.572850      1.543679      0.311759
  H       1.401767      1.251243     -1.467014
  H       1.101338      2.109462      0.054778
  H       2.812269      0.706011      1.225129
  H       3.512621      1.636238     -0.102399
  H       3.395212     -0.434717     -1.568844
  H       2.778968     -1.347717     -0.190539
  H       5.247422     -1.701295     -0.432132
  H       5.530494      0.044726     -0.284452
  H       4.895758     -0.871780      1.096108
>
29
-732.69432766; 31P isotropic shielding: 259.381946 ppm
  C      -4.580189     -0.750126     -1.549948
  C      -3.869772     -0.011371     -0.405439
  C      -2.345407     -0.226902     -0.407963
  C      -1.634963      0.522347      0.734775
  P       0.156822      0.167032      0.909621
  O       0.828127      0.819127      2.080962
  C       0.917300      0.561446     -0.716855
  C       2.459474      0.548415     -0.674516
  C       3.068284     -0.836234     -0.398664
  C       4.604243     -0.820180     -0.423570
  H       0.161951     -1.262038      0.936864
  H      -4.410863     -1.834193     -1.487437
  H      -5.664115     -0.579319     -1.523631
  H      -4.212187     -0.412129     -2.528807
  H      -4.278094     -0.343986      0.561279
  H      -4.081143      1.067063     -0.472432
  H      -2.135140     -1.305634     -0.332199
  H      -1.939039      0.098139     -1.377147
  H      -1.733892      1.611634      0.618589
  H      -2.084210      0.267960      1.706176
  H       0.533726     -0.146842     -1.466760
  H       0.554574      1.561805     -0.996593
  H       2.795113      1.253316      0.098523
  H       2.837535      0.926917     -1.636733
  H       2.692905     -1.556714     -1.143223
  H       2.729216     -1.197719      0.583204
  H       5.001295     -0.129961      0.333237
  H       5.017777     -1.816009     -0.217693
  H       4.982973     -0.495945     -1.403221
>
29
-732.69352845; 31P isotropic shielding: 256.433909 ppm
  C      -3.807614     -1.200510     -1.632303
  C      -2.855576     -0.868593     -0.473062
  C      -2.557402      0.637832     -0.366545
  C      -1.706220      1.043455      0.855590
  P       0.007705      0.386838      0.959048
  O       0.800763      0.919505      2.115192
  C       0.769235      0.682153     -0.687735
  C       2.290762      0.425453     -0.695504
  C       2.681443     -1.042347     -0.455717
  C       4.198058     -1.269630     -0.550072
  H      -0.183645     -1.025735      0.983621
  H      -3.381992     -0.887346     -2.596077
  H      -4.007911     -2.278108     -1.689953
  H      -4.771199     -0.685974     -1.512393
  H      -1.919018     -1.430567     -0.601140
  H      -3.290879     -1.217423      0.476369
  H      -2.069948      0.981037     -1.291238
  H      -3.512575      1.182931     -0.312880
  H      -1.591076      2.136413      0.901703
  H      -2.199682      0.743679      1.791873
  H       0.257549      0.054258     -1.432998
  H       0.560545      1.730753     -0.946571
  H       2.757412      1.056106      0.073712
  H       2.694509      0.754504     -1.665397
  H       2.164800     -1.683162     -1.188505
  H       2.331447     -1.359086      0.537645
  H       4.732505     -0.662978      0.193693
  H       4.457122     -2.321486     -0.372719
  H       4.579582     -0.992871     -1.543140
>
29
-732.69201197; 31P isotropic shielding: 266.042587 ppm
  C      -4.198293     -1.278267     -0.547035
  C      -2.681849     -1.049650     -0.453185
  C      -2.292091      0.417541     -0.698234
  C      -0.770705      0.675124     -0.691726
  P      -0.008391      0.384946      0.955614
  O      -0.800914      0.921177      2.110486
  C       1.705491      1.041241      0.849452
  C       2.555900      0.632648     -0.372231
  C       2.853552     -0.874097     -0.475570
  C       3.804533     -1.208941     -1.634825
  H       0.183011     -1.027538      0.984383
  H      -4.579719     -1.005362     -1.541203
  H      -4.456720     -2.329630     -0.365895
  H      -4.733310     -0.669236      0.194372
  H      -2.164650     -1.692771     -1.183558
  H      -2.331777     -1.362491      0.541378
  H      -2.696264      0.742921     -1.669184
  H      -2.758942      1.050612      0.068869
  H      -0.258948      0.045332     -1.435337
  H      -0.562635      1.723073     -0.953674
  H       1.590425      2.134309      0.893027
  H       2.199524      0.743694      1.786146
  H       3.511262      1.177581     -0.320307
  H       2.068041      0.973947     -1.297416
  H       1.916711     -1.436059     -0.601604
  H       3.289492     -1.220920      0.474303
  H       4.768327     -0.694321     -1.516955
  H       4.004572     -2.286710     -1.690115
  H       3.378167     -0.897955     -2.598974
>
29
-732.69201433; 31P isotropic shielding: 266.026749 ppm
  C      -3.195038     -1.412964     -1.220101
  C      -3.113175     -0.816197      0.194493
  C      -2.798774      0.692524      0.231523
  C      -1.458620      1.101005     -0.419631
  P       0.000132      0.343180      0.397150
  O       0.000275      0.414887      1.895574
  C       1.458774      1.100918     -0.419908
  C       2.799029      0.692298      0.230950
  C       3.113325     -0.816440      0.193733
  C       3.194844     -1.413102     -1.220925
  H       0.000043     -0.985199     -0.125939
  H      -3.495534     -2.468115     -1.185279
  H      -3.931506     -0.876178     -1.835420
  H      -2.230124     -1.367085     -1.742298
  H      -2.364435     -1.362048      0.787099
  H      -4.072228     -0.974455      0.708894
  H      -3.607755      1.244076     -0.271931
  H      -2.787183      1.027623      1.276918
  H      -1.426033      0.844552     -1.488907
  H      -1.327702      2.190373     -0.346204
  H       1.425940      0.844503     -1.489186
  H       1.327963      2.190294     -0.346417
  H       2.787664      1.027311      1.276375
  H       3.607949      1.243840     -0.272613
  H       2.364676     -1.362287      0.786457
  H       4.072478     -0.974803      0.707914
  H       3.931120     -0.876234     -1.836403
  H       3.495408     -2.468238     -1.186255
  H       2.229788     -1.367239     -1.742863
>
29
-732.69218302; 31P isotropic shielding: 271.253537 ppm
  C      -3.193460     -1.408629     -1.219998
  C      -3.112571     -0.813739      0.195335
  C      -2.798833      0.694961      0.234588
  C      -1.458696      1.104913     -0.415536
  P       0.000043      0.346784      0.400664
  O       0.000224      0.418285      1.899186
  C       1.458579      1.104911     -0.415903
  C       2.798876      0.694904      0.233858
  C       3.112641     -0.813781      0.194290
  C       3.193154     -1.408451     -1.221158
  H      -0.000009     -0.981378     -0.122758
  H      -3.929142     -0.870814     -1.835323
  H      -2.228023     -1.362391     -1.741152
  H      -3.494334     -2.463698     -1.186830
  H      -2.363869     -1.360163      0.787463
  H      -4.071744     -0.973167      0.709137
  H      -3.607818      1.246873     -0.268456
  H      -2.787805      1.028724      1.280407
  H      -1.425835      0.850158     -1.485181
  H      -1.328121      2.194202     -0.340336
  H       1.425422      0.850145     -1.485538
  H       1.328055      2.194202     -0.340673
  H       2.788075      1.028506      1.279731
  H       3.607733      1.246916     -0.269281
  H       2.364108     -1.360315      0.786530
  H       4.071954     -0.973270      0.707812
  H       3.494444     -2.463409     -1.188261
  H       2.227479     -1.362505     -1.741895
  H       3.928374     -0.870276     -1.836724
>
29
-732.69218711; 31P isotropic shielding: 271.263518 ppm
  C      -4.621406     -1.122066     -0.320671
  C      -3.284048     -0.468614     -0.701013
  C      -2.735163      0.441605      0.410729
  C      -1.433151      1.178896      0.035593
  P      -0.014529      0.042137     -0.236332
  O       0.114461     -1.051547      0.782873
  C       1.442134      1.133927     -0.463415
  C       2.737277      0.370026     -0.817672
  C       3.364597     -0.372336      0.375745
  C       4.631813     -1.146919     -0.015773
  H      -0.212378     -0.426987     -1.572098
  H      -4.994517     -1.767570     -1.126275
  H      -4.513622     -1.739893      0.581262
  H      -5.389648     -0.363112     -0.115598
  H      -3.407423      0.117645     -1.625867
  H      -2.549640     -1.255474     -0.926351
  H      -3.496646      1.191184      0.675366
  H      -2.552754     -0.157688      1.313531
  H      -1.566166      1.788105     -0.872145
  H      -1.135836      1.860248      0.846230
  H       1.174533      1.845424     -1.260397
  H       1.575681      1.715440      0.460978
  H       3.467020      1.086557     -1.225341
  H       2.531760     -0.346026     -1.629838
  H       2.621817     -1.053882      0.809651
  H       3.607068      0.362128      1.160321
  H       4.407867     -1.913114     -0.771413
  H       5.398474     -0.479640     -0.435845
  H       5.070623     -1.655654      0.852263
>
29
-732.69415840; 31P isotropic shielding: 253.428052 ppm
  C      -4.827012     -0.066261      0.410244
  C      -3.456120      0.142361     -0.251108
  C      -2.398598      0.662894      0.736659
  C      -1.024100      0.951505      0.098596
  P      -0.214410     -0.556073     -0.574385
  O      -0.304082     -1.763467      0.310856
  C       1.489510     -0.056230     -1.038202
  C       2.420792      0.123287      0.174900
  C       3.879023      0.400819     -0.229603
  C       4.811688      0.569150      0.979763
  H      -0.828820     -0.706729     -1.855229
  H      -5.566128     -0.439281     -0.310556
  H      -4.760433     -0.795354      1.229325
  H      -5.212349      0.873696      0.830121
  H      -3.553620      0.849690     -1.090555
  H      -3.116642     -0.810088     -0.683420
  H      -2.765919      1.587139      1.208689
  H      -2.262250     -0.071990      1.542263
  H      -1.106479      1.685689     -0.718549
  H      -0.341736      1.373937      0.849490
  H       1.873233     -0.850462     -1.695821
  H       1.430702      0.862701     -1.642859
  H       2.373751     -0.782463      0.795737
  H       2.059190      0.949718      0.806062
  H       3.918487      1.305978     -0.856200
  H       4.239133     -0.425927     -0.861559
  H       4.494611      1.410504      1.612009
  H       4.813732     -0.333718      1.605979
  H       5.845546      0.760174      0.663853
>
29
-732.69390489; 31P isotropic shielding: 262.527517 ppm
  C      -4.616940      0.771061      0.361312
  C      -4.056651     -0.253250     -0.639253
  C      -2.637524     -0.753212     -0.301599
  C      -1.556538      0.341402     -0.387927
  P       0.109012     -0.293904      0.033132
  O       0.231876     -0.928380      1.386318
  C       1.260739      1.106620     -0.267933
  C       2.686565      0.837518      0.256304
  C       3.420598     -0.300768     -0.471823
  C       4.854365     -0.499769      0.043172
  H       0.366221     -1.180250     -1.058327
  H      -4.025697      1.696067      0.377186
  H      -5.648375      1.046720      0.106019
  H      -4.621828      0.361524      1.381189
  H      -4.058472      0.179288     -1.652567
  H      -4.728674     -1.123496     -0.676539
  H      -2.626092     -1.184182      0.709495
  H      -2.374290     -1.570689     -0.989960
  H      -1.514068      0.775181     -1.400249
  H      -1.763774      1.162053      0.313184
  H       1.264431      1.324987     -1.347497
  H       0.829801      1.981354      0.240793
  H       2.626469      0.603496      1.328279
  H       3.273087      1.764643      0.165492
  H       3.440570     -0.090419     -1.553319
  H       2.859950     -1.238643     -0.346583
  H       4.855147     -0.747579      1.113413
  H       5.361535     -1.314587     -0.489565
  H       5.453755      0.412115     -0.089147
>
29
-732.69347023; 31P isotropic shielding: 258.171079 ppm
  C      -4.854461     -0.499292      0.040888
  C      -3.420602     -0.299425     -0.473524
  C      -2.686569      0.837382      0.256911
  C      -1.260710      1.107517     -0.266715
  P      -0.109051     -0.293702      0.031290
  O      -0.231659     -0.930835      1.383257
  C       1.556499      0.342211     -0.388871
  C       2.637228     -0.752892     -0.305369
  C       4.056479     -0.252396     -0.641707
  C       4.617149      0.768873      0.361745
  H      -0.366633     -1.177838     -1.061879
  H      -4.855415     -0.749176      1.110646
  H      -5.453749      0.412899     -0.089753
  H      -5.361625     -1.313030     -0.493501
  H      -3.440411     -0.086975     -1.554612
  H      -2.860069     -1.237598     -0.350029
  H      -3.273049      1.764706      0.167883
  H      -2.626551      0.601243      1.328425
  H      -1.264387      1.328257     -1.345797
  H      -0.829728      1.981105      0.243942
  H       1.513861      0.778275     -1.400200
  H       1.764159      1.161223      0.314027
  H       2.373776     -1.568487     -0.995872
  H       2.625681     -1.186500      0.704594
  H       4.058377      0.183021     -1.653788
  H       4.728239     -1.122735     -0.681528
  H       4.622260      0.356299      1.380395
  H       5.648547      1.045178      0.107001
  H       4.026012      1.693893      0.380538
>
29
-732.69347070; 31P isotropic shielding: 258.165247 ppm
  C      -4.799038     -0.709970     -0.052697
  C      -3.312870     -0.625005     -0.432794
  C      -2.728573      0.780991     -0.216034
  C      -1.257071      0.928009     -0.655540
  P      -0.103052     -0.107699      0.330760
  O      -0.351721     -0.095148      1.809611
  C       1.579227      0.398946     -0.187976
  C       2.674803     -0.446572      0.490543
  C       4.108314      0.017113      0.164137
  C       4.494333     -0.122106     -1.317589
  H      -0.216982     -1.396840     -0.275679
  H      -5.194595     -1.721786     -0.209741
  H      -4.948371     -0.451942      1.004651
  H      -5.403019     -0.016148     -0.654416
  H      -3.182110     -0.917472     -1.487193
  H      -2.746267     -1.353522      0.165263
  H      -3.332970      1.515333     -0.770459
  H      -2.805352      1.045550      0.847787
  H      -1.129199      0.667519     -1.718162
  H      -0.927118      1.969957     -0.532403
  H       1.629795      0.328788     -1.284853
  H       1.692374      1.460685      0.079952
  H       2.558713     -1.500471      0.190764
  H       2.516985     -0.413903      1.576716
  H       4.808472     -0.570664      0.776035
  H       4.229169      1.064843      0.481636
  H       5.541821      0.162294     -1.481399
  H       4.372444     -1.159837     -1.659867
  H       3.877358      0.516457     -1.963552
>
29
-732.69360721; 31P isotropic shielding: 258.943871 ppm
  C      -4.688424     -0.356746     -0.430859
  C      -3.163837     -0.518448     -0.529562
  C      -2.418322      0.817629     -0.371447
  C      -0.888475      0.707889     -0.536827
  P      -0.096289     -0.290138      0.788207
  O      -0.620283     -0.018997      2.166328
  C       1.712667     -0.069416      0.576588
  C       2.255027     -0.464041     -0.811427
  C       3.795861     -0.486476     -0.888003
  C       4.453414      0.885833     -0.669810
  H      -0.273496     -1.634370      0.336273
  H      -5.201157     -1.321511     -0.537294
  H      -4.974772      0.069538      0.540313
  H      -5.068346      0.313534     -1.214881
  H      -2.900440     -0.971782     -1.498754
  H      -2.825934     -1.221322      0.245933
  H      -2.798742      1.535736     -1.114155
  H      -2.635930      1.239281      0.619478
  H      -0.624742      0.270017     -1.511546
  H      -0.428684      1.706386     -0.492286
  H       1.930508      0.980031      0.817410
  H       2.180840     -0.678448      1.364486
  H       1.868523      0.231480     -1.571298
  H       1.873662     -1.460899     -1.080623
  H       4.088663     -0.876230     -1.874331
  H       4.181189     -1.203524     -0.146494
  H       4.079875      1.621947     -1.396087
  H       4.254948      1.278078      0.335902
  H       5.542695      0.823367     -0.788833
>
29
-732.69265489; 31P isotropic shielding: 254.372742 ppm
  C      -4.689613     -0.365760     -0.420069
  C      -3.164925     -0.531182     -0.511357
  C      -2.419179      0.808933     -0.395087
  C      -0.889464      0.695357     -0.559073
  P      -0.095666     -0.269035      0.789748
  O      -0.620279      0.034378      2.160933
  C       1.712871     -0.049209      0.574323
  C       2.257533     -0.468817     -0.805397
  C       3.798536     -0.488024     -0.880021
  C       4.452041      0.889126     -0.680612
  H      -0.270360     -1.624096      0.370004
  H      -5.067761      0.281644     -1.223940
  H      -5.202653     -1.332982     -0.499549
  H      -4.977793      0.088387      0.537848
  H      -2.900908     -1.015737     -1.465189
  H      -2.828713     -1.209095      0.286781
  H      -2.800725      1.504134     -1.158739
  H      -2.635346      1.260716      0.582802
  H      -0.626030      0.234213     -1.523072
  H      -0.430348      1.695003     -0.539422
  H       1.927764      1.005285      0.794878
  H       2.181949     -0.641597      1.374287
  H       1.869761      0.211201     -1.578533
  H       1.879285     -1.471667     -1.056039
  H       4.093509     -0.890942     -1.860383
  H       4.185157     -1.193232     -0.127906
  H       5.541363      0.828409     -0.800132
  H       4.075388      1.614600     -1.415938
  H       4.253604      1.293790      0.320155
>
29
-732.69263269; 31P isotropic shielding: 254.418111 ppm
  C      -4.216565     -1.226748     -0.493893
  C      -2.708044     -0.943449     -0.560392
  C      -2.384157      0.554436     -0.433377
  C      -0.883045      0.888668     -0.557740
  P       0.117823      0.184541      0.813682
  O      -0.511184      0.305713      2.169917
  C       1.779642      0.956381      0.682962
  C       2.459977      0.963696     -0.704392
  C       2.719821     -0.423025     -1.329659
  C       3.593037     -1.348166     -0.466749
  H       0.349062     -1.158912      0.394752
  H      -4.753774     -0.710789     -1.302310
  H      -4.426154     -2.300482     -0.584276
  H      -4.638242     -0.882380      0.460281
  H      -2.300721     -1.327951     -1.509505
  H      -2.202653     -1.497665      0.243884
  H      -2.930915      1.111626     -1.209598
  H      -2.745483      0.922855      0.536668
  H      -0.473198      0.530925     -1.514478
  H      -0.734490      1.978217     -0.527002
  H       1.642077      1.986194      1.044043
  H       2.404161      0.452351      1.433161
  H       3.421887      1.490170     -0.604445
  H       1.858469      1.565041     -1.400613
  H       3.208154     -0.269215     -2.303167
  H       1.764848     -0.923049     -1.549137
  H       3.818335     -2.282150     -0.997204
  H       4.549092     -0.867445     -0.215209
  H       3.098639     -1.618590      0.475096
>
29
-732.69123637; 31P isotropic shielding: 268.825262 ppm
  C      -4.216086     -1.219047     -0.488576
  C      -2.707465     -0.936685     -0.556881
  C      -2.382313      0.560676     -0.427040
  C      -0.881047      0.893994     -0.551959
  P       0.120221      0.186670      0.817528
  O      -0.508119      0.305302      2.174305
  C       1.782262      0.958196      0.687708
  C       2.461737      0.969005     -0.700032
  C       2.720257     -0.416096     -1.329405
  C       3.593578     -1.344197     -0.469774
  H       0.350722     -1.156029      0.395742
  H      -4.635836     -0.877088      0.467308
  H      -4.754294     -0.700358     -1.294579
  H      -4.426644     -2.292358     -0.581684
  H      -2.301949     -1.319351     -1.507508
  H      -2.201194     -1.493098      0.245327
  H      -2.929304      1.119891     -1.201637
  H      -2.742533      0.927360      0.544075
  H      -0.472166      0.537618     -1.509618
  H      -0.731657      1.983376     -0.519417
  H       1.645227      1.987093      1.051605
  H       2.407078      0.452011      1.436206
  H       3.424059      1.494549     -0.599175
  H       1.860196      1.572739     -1.394153
  H       3.207931     -0.259851     -2.302856
  H       1.764803     -0.914903     -1.549552
  H       4.550208     -0.864842     -0.217821
  H       3.099832     -1.616752      0.471795
  H       3.817696     -2.276924     -1.002931
>
29
-732.69123567; 31P isotropic shielding: 268.814748 ppm
  C      -4.540886     -1.052813     -0.236404
  C      -3.232301     -0.341367     -0.613665
  C      -2.582740      0.370909      0.584247
  C      -1.300227      1.152286      0.232287
  P       0.077076      0.059391     -0.307144
  O       0.221182     -1.197126      0.500629
  C       1.548444      1.150151     -0.389448
  C       2.775196      0.527829     -1.094343
  C       3.348482     -0.743587     -0.433227
  C       3.768257     -0.552028      1.032887
  H      -0.193408     -0.160306     -1.694169
  H      -4.365673     -1.811669      0.538410
  H      -5.281412     -0.340744      0.154457
  H      -4.986155     -1.557164     -1.103799
  H      -3.426046      0.390974     -1.413864
  H      -2.529140     -1.078438     -1.028435
  H      -3.307314      1.070505      1.028452
  H      -2.339874     -0.369860      1.358552
  H      -1.486191      1.893921     -0.560210
  H      -0.936425      1.700766      1.113640
  H       1.237778      2.067585     -0.913587
  H       1.788736      1.438316      0.643570
  H       3.562534      1.296542     -1.137623
  H       2.509456      0.303284     -2.138610
  H       4.219063     -1.063392     -1.025301
  H       2.609827     -1.553604     -0.487498
  H       4.451865      0.302523      1.147615
  H       2.897278     -0.387471      1.678569
  H       4.284518     -1.444715      1.408513
>
29
-732.69358459; 31P isotropic shielding: 254.301953 ppm
  C      -4.496066     -0.880438      0.255306
  C      -3.268433      0.014891      0.028157
  C      -2.097169     -0.345984      0.957017
  C      -0.866319      0.571991      0.811597
  P      -0.071644      0.447928     -0.843279
  O       0.042420     -0.947412     -1.384389
  C       1.520663      1.373721     -0.748827
  C       2.736792      0.473073     -0.446984
  C       2.709214     -0.210965      0.929968
  C       3.993834     -1.003033      1.217471
  H      -0.872691      1.326214     -1.634693
  H      -4.862301     -0.796811      1.288349
  H      -5.320487     -0.607126     -0.415931
  H      -4.250787     -1.935525      0.072407
  H      -3.546214      1.070170      0.181840
  H      -2.947439     -0.074208     -1.019839
  H      -2.438438     -0.308358      2.003053
  H      -1.786172     -1.381940      0.762333
  H      -1.132637      1.628220      0.976988
  H      -0.105698      0.308870      1.558174
  H       1.654220      1.862127     -1.724182
  H       1.415251      2.174105     -0.000037
  H       3.646755      1.087388     -0.528879
  H       2.802414     -0.297625     -1.227261
  H       1.848810     -0.893120      0.977514
  H       2.559365      0.547623      1.715337
  H       3.953204     -1.487578      2.201639
  H       4.147200     -1.788162      0.464473
  H       4.876454     -0.348135      1.201778
>
29
-732.69285787; 31P isotropic shielding: 261.629917 ppm
  C      -3.995099     -1.023491      1.203982
  C      -2.708361     -0.231412      0.926460
  C      -2.736920      0.476139     -0.438467
  C      -1.519742      1.379789     -0.726829
  P       0.071357      0.453646     -0.834828
  O      -0.044662     -0.934182     -1.394625
  C       0.867051      0.554340      0.821033
  C       2.096353     -0.367521      0.953428
  C       3.267406      0.003446      0.028454
  C       4.492751     -0.898535      0.240715
  H       0.872799      1.341468     -1.614872
  H      -4.153804     -1.795075      0.438203
  H      -3.953497     -1.524974      2.179587
  H      -4.875271     -0.365119      1.202180
  H      -1.850358     -0.917444      0.959894
  H      -2.553692      0.512922      1.724430
  H      -2.804886     -0.280954     -1.231726
  H      -3.645913      1.093346     -0.508541
  H      -1.652956      1.882980     -1.694683
  H      -1.413490      2.168855      0.033766
  H       1.134898      1.607893      1.000377
  H       0.106280      0.282366      1.564311
  H       1.783218     -1.400230      0.745323
  H       2.438507     -0.344483      1.999597
  H       3.548379      1.055624      0.196910
  H       2.944869     -0.069532     -1.020322
  H       5.317160     -0.617429     -0.427301
  H       4.860482     -0.831581      1.274442
  H       4.244340     -1.950050      0.042204
