37
-1145.16629023; 31P isotropic shielding: 302.491331 ppm
  C       3.072092      2.280742     -0.840126
  C       2.887547      0.828225     -0.478959
  C       3.962128     -0.062015     -0.274851
  C       3.753380     -1.405245      0.058654
  C       2.457550     -1.928565      0.204402
  C       1.394771     -1.054200      0.004845
  C       1.618389      0.282444     -0.324274
  O       0.437771      0.982922     -0.488554
  P      -0.928299      0.109355     -0.010632
  O       0.067164     -1.352143      0.068896
  O      -1.758861      1.550112     -0.336811
  C      -3.157006      1.307595     -0.487732
  C      -3.252411      0.017168     -1.306308
  N      -2.072485     -0.756660     -0.913289
  C      -1.994406     -2.076340     -1.541298
  N      -1.202526      0.149604      1.657155
  C      -1.117102      1.397620      2.423860
  C      -1.143194     -1.056190      2.487999
  H       4.135639      2.530206     -0.925514
  H       2.581011      2.519654     -1.793708
  H       2.621731      2.938911     -0.083769
  H       4.978716      0.314260     -0.380475
  H       4.610691     -2.058821      0.208687
  H       2.282707     -2.970984      0.460183
  H      -3.636286      1.184219      0.498145
  H      -3.602403      2.168793     -0.998476
  H      -3.235717      0.220273     -2.391850
  H      -4.173547     -0.542024     -1.080447
  H      -2.053511     -1.976582     -2.637972
  H      -2.840302     -2.701984     -1.214623
  H      -1.064645     -2.575545     -1.280493
  H      -0.200939      1.420743      3.038295
  H      -1.981394      1.488657      3.101153
  H      -1.109393      2.256772      1.752376
  H      -1.854045     -0.938385      3.319308
  H      -0.141127     -1.232760      2.913501
  H      -1.433186     -1.938232      1.913004
>
37
-1145.16570740; 31P isotropic shielding: 299.773451 ppm
  C       3.058106      2.301945     -0.787821
  C       2.876914      0.847371     -0.432700
  C       3.953901     -0.036820     -0.215064
  C       3.748365     -1.382519      0.110843
  C       2.453676     -1.914323      0.235222
  C       1.388505     -1.045681      0.023087
  C       1.609130      0.293227     -0.298748
  O       0.426619      0.986865     -0.478652
  P      -0.944031      0.105387     -0.028328
  O       0.062191     -1.351050      0.068263
  O      -1.773834      1.540380     -0.379115
  C      -3.169893      1.293024     -0.542205
  C      -3.253882     -0.008280     -1.345117
  N      -2.076763     -0.775284     -0.928966
  C      -1.987605     -2.101427     -1.542491
  N      -1.255676      0.156373      1.636789
  C      -1.054069      1.399339      2.392286
  C      -1.194215     -1.051185      2.465517
  H       2.593064      2.536274     -1.755545
  H       2.580678      2.955689     -0.044594
  H       4.121401      2.560974     -0.843634
  H       4.969662      0.346128     -0.303009
  H       4.607387     -2.031234      0.271753
  H       2.281497     -2.958616      0.485075
  H      -3.658624      1.181093      0.440056
  H      -3.611395      2.146225     -1.069537
  H      -3.225193      0.180250     -2.432967
  H      -4.176039     -0.566701     -1.122105
  H      -2.010023     -2.012901     -2.641492
  H      -2.849167     -2.715964     -1.236985
  H      -1.071069     -2.604933     -1.246011
  H      -1.118376      2.260891      1.726186
  H      -0.071476      1.412077      2.895544
  H      -1.832192      1.493380      3.165199
  H      -1.524425     -1.924551      1.898187
  H      -1.875171     -0.917341      3.318787
  H      -0.183377     -1.253581      2.857692
>
37
-1145.16546187; 31P isotropic shielding: 297.937378 ppm
  C       2.754450     -2.641637      0.083441
  C       2.746840     -1.141485     -0.074458
  C       3.922133     -0.366352     -0.134032
  C       3.887368      1.024401     -0.291838
  C       2.665144      1.710617     -0.396437
  C       1.510698      0.946312     -0.332477
  C       1.546022     -0.439437     -0.178160
  O       0.298634     -0.989397     -0.168550
  P      -0.953379      0.258738     -0.058985
  O       0.218778      1.424895     -0.420539
  O      -2.040392      1.547563     -0.209021
  C      -3.375592      1.071866     -0.375892
  C      -3.259437     -0.116381     -1.334874
  N      -1.947449     -0.698930     -1.041622
  C      -1.655964     -1.913854     -1.804238
  N      -1.189869      0.052069      1.605821
  C      -0.871335     -1.209758      2.279032
  C      -1.218366      1.210220      2.508611
  H       2.311613     -3.138708     -0.791944
  H       3.776639     -3.017434      0.206090
  H       2.164284     -2.955580      0.955816
  H       4.883870     -0.871806     -0.053717
  H       4.819450      1.584367     -0.332171
  H       2.615090      2.789738     -0.519706
  H      -3.795082      0.754307      0.593459
  H      -3.983859      1.888117     -0.781552
  H      -3.310987      0.203471     -2.390658
  H      -4.056848     -0.856122     -1.165027
  H      -2.367257     -2.710297     -1.533323
  H      -0.645098     -2.261420     -1.607626
  H      -1.765204     -1.717455     -2.883778
  H      -1.531840     -1.311111      3.152647
  H       0.173704     -1.257456      2.629646
  H      -1.050659     -2.057791      1.614164
  H      -1.994994      1.066863      3.275816
  H      -1.443024      2.119536      1.949752
  H      -0.250981      1.341134      3.023628
>
37
-1145.16532697; 31P isotropic shielding: 298.242756 ppm
  C       3.019698      2.310480     -0.746152
  C       2.832383      0.857490     -0.386866
  C       3.905665     -0.025295     -0.146436
  C       3.694673     -1.369459      0.182710
  C       2.397966     -1.900585      0.287372
  C       1.336326     -1.033460      0.052390
  C       1.562377      0.304199     -0.272082
  O       0.383053      0.996700     -0.475079
  P      -0.994112      0.118220     -0.039722
  O       0.009626     -1.338844      0.075988
  O      -1.818647      1.551551     -0.405226
  C      -3.212385      1.303756     -0.588316
  C      -3.283936      0.001499     -1.390982
  N      -2.112452     -0.764021     -0.956810
  C      -2.015424     -2.092539     -1.564110
  N      -1.326591      0.172803      1.620678
  C      -1.154995      1.419959      2.376459
  C      -1.276971     -1.031727      2.454464
  H       2.534160      2.968200     -0.011667
  H       4.083922      2.567990     -0.790163
  H       2.566441      2.540954     -1.720356
  H       4.922675      0.357594     -0.218898
  H       4.550731     -2.017312      0.361893
  H       2.221267     -2.943644      0.539456
  H      -3.715142      1.192590      0.386951
  H      -3.646423      2.156501     -1.122450
  H      -3.239584      0.189079     -2.478502
  H      -4.209094     -0.557130     -1.181183
  H      -1.095961     -2.589210     -1.265137
  H      -2.037467     -2.007838     -2.663360
  H      -2.873163     -2.711779     -1.257045
  H      -1.959525      1.516844      3.121743
  H      -1.197267      2.278192      1.704456
  H      -0.190464      1.436697      2.913208
  H      -1.595915     -1.907755      1.884819
  H      -1.972413     -0.896425      3.295808
  H      -0.272630     -1.230674      2.864552
>
37
-1145.16548599; 31P isotropic shielding: 298.224388 ppm
  C       3.010657      2.327112     -0.740555
  C       2.830731      0.875154     -0.373789
  C       3.908323      0.000129     -0.124894
  C       3.704295     -1.343628      0.210324
  C       2.410536     -1.882078      0.312811
  C       1.344640     -1.022511      0.069504
  C       1.563553      0.314824     -0.260831
  O       0.380826      0.999039     -0.471963
  P      -0.992311      0.112309     -0.041405
  O       0.019710     -1.336164      0.089393
  O      -1.826345      1.538706     -0.414527
  C      -3.215555      1.278246     -0.612405
  C      -3.267272     -0.024121     -1.416651
  N      -2.091314     -0.777507     -0.974310
  C      -1.979657     -2.107824     -1.574679
  N      -1.337573      0.166480      1.615185
  C      -1.281642     -1.032657      2.456675
  C      -1.222119      1.420002      2.371022
  H       2.571428      2.546387     -1.723831
  H       2.507021      2.985543     -0.019110
  H       4.073014      2.594238     -0.769521
  H       4.923329      0.388672     -0.195306
  H       4.563665     -1.985250      0.395941
  H       2.239350     -2.924905      0.569575
  H      -3.727839      1.161903      0.357394
  H      -3.651764      2.127551     -1.150259
  H      -3.216886      0.164500     -2.503702
  H      -4.188444     -0.592048     -1.214039
  H      -1.048313     -2.587075     -1.283998
  H      -2.015601     -2.028456     -2.673850
  H      -2.822779     -2.740962     -1.255208
  H      -1.572996     -1.918083      1.887053
  H      -1.994761     -0.905676      3.284401
  H      -0.281383     -1.209413      2.886344
  H      -1.251182      2.274713      1.694079
  H      -0.280445      1.455067      2.945877
  H      -2.057498      1.505980      3.083158
>
37
-1145.16553104; 31P isotropic shielding: 299.033757 ppm
  C       2.711400     -2.624026      0.035000
  C       2.697641     -1.118392     -0.054594
  C       3.868775     -0.334648     -0.053689
  C       3.828085      1.061615     -0.147898
  C       2.603785      1.745317     -0.245781
  C       1.453364      0.972384     -0.240834
  C       1.494820     -0.418733     -0.150945
  O       0.251176     -0.975781     -0.193357
  P      -1.012644      0.257816     -0.059949
  O       0.160252      1.447282     -0.332974
  O      -2.104730      1.545699     -0.177775
  C      -3.431092      1.070304     -0.405416
  C      -3.278502     -0.067839     -1.418299
  N      -1.972937     -0.658765     -1.113595
  C      -1.646228     -1.826120     -1.934062
  N      -1.296388     -0.030937      1.586100
  C      -0.983256     -1.322263      2.204224
  C      -1.336523      1.084148      2.541579
  H       2.287582     -3.083068     -0.870035
  H       3.733469     -2.999599      0.159319
  H       2.107396     -2.980407      0.881200
  H       4.831987     -0.837780      0.023324
  H       4.757050      1.628145     -0.143101
  H       2.549521      2.828682     -0.319994
  H      -3.875213      0.702504      0.534661
  H      -4.033875      1.901569     -0.788146
  H      -3.299300      0.304666     -2.457808
  H      -4.076305     -0.818879     -1.311348
  H      -1.711706     -1.567176     -3.003998
  H      -2.365705     -2.637318     -1.739640
  H      -0.643320     -2.184067     -1.716554
  H      -1.656425     -1.464839      3.062171
  H       0.056614     -1.384697      2.567477
  H      -1.151325     -2.138473      1.497745
  H      -0.369697      1.206705      3.059984
  H      -2.108487      0.892258      3.302451
  H      -1.577660      2.014612      2.025857
>
37
-1145.16533321; 31P isotropic shielding: 297.868625 ppm
  C       2.952769      2.389203     -0.984509
  C       2.819679      0.923469     -0.653674
  C       3.913597      0.033070     -0.634408
  C       3.755013     -1.321728     -0.321399
  C       2.492598     -1.855797     -0.010792
  C       1.412210     -0.980960     -0.029239
  C       1.584186      0.366783     -0.343816
  O       0.391395      1.064037     -0.305254
  P      -0.919847      0.144086      0.248081
  O       0.109669     -1.290228      0.223410
  O      -1.849458      1.558368      0.160155
  C      -2.633159      1.642744     -1.029150
  C      -3.107482      0.214718     -1.278918
  N      -1.969290     -0.605128     -0.859121
  C      -2.076469     -2.018355     -1.229459
  N      -1.062295      0.074955      1.927284
  C      -0.961083     -1.160634      2.719394
  C      -1.574132      1.194001      2.737386
  H       2.575666      3.017329     -0.165520
  H       3.999716      2.654191     -1.170582
  H       2.367107      2.651963     -1.876890
  H       4.904988      0.418552     -0.868570
  H       4.625111     -1.975612     -0.316454
  H       2.357212     -2.906699      0.234336
  H      -3.456375      2.344385     -0.849914
  H      -2.021138      2.009754     -1.870233
  H      -3.331914      0.032515     -2.340248
  H      -4.014270     -0.020720     -0.691731
  H      -2.952179     -2.483898     -0.745376
  H      -1.180764     -2.562548     -0.939757
  H      -2.208401     -2.105984     -2.318479
  H      -1.921240     -1.355746      3.225086
  H      -0.184927     -1.059401      3.494102
  H      -0.714654     -2.016342      2.094938
  H      -1.346532      2.154424      2.276720
  H      -1.081604      1.151213      3.719361
  H      -2.663302      1.129224      2.895738
>
37
-1145.16400078; 31P isotropic shielding: 310.038397 ppm
  C       3.022244      2.210025     -1.019755
  C       2.807842      0.748507     -0.713707
  C       3.812861     -0.228666     -0.868733
  C       3.581625     -1.577389     -0.573712
  C       2.331164     -2.018115     -0.108188
  C       1.336194     -1.058258      0.043620
  C       1.581156      0.283361     -0.252732
  O       0.469759      1.074391     -0.031338
  P      -0.917684      0.204008      0.415508
  O       0.069280     -1.260089      0.501195
  O      -1.790782      1.647698      0.291338
  C      -2.379682      1.825600     -0.998264
  C      -2.855852      0.431198     -1.407450
  N      -1.851433     -0.466006     -0.833341
  C      -1.996578     -1.869859     -1.220031
  N      -1.286740      0.056199      2.044910
  C      -0.367966     -0.496828      3.049607
  C      -2.518399      0.593899      2.639839
  H       2.813253      2.836122     -0.141277
  H       4.054187      2.395120     -1.338828
  H       2.348102      2.553486     -1.817265
  H       4.793158      0.082754     -1.227025
  H       4.384904     -2.299737     -0.706466
  H       2.140147     -3.062223      0.128785
  H      -3.199485      2.548096     -0.908835
  H      -1.631359      2.212506     -1.709213
  H      -2.892596      0.312705     -2.500760
  H      -3.863428      0.210477     -1.008455
  H      -1.865019     -1.980444     -2.307363
  H      -3.005096     -2.235126     -0.961666
  H      -1.258283     -2.486104     -0.711263
  H       0.642079     -0.607093      2.656765
  H      -0.708895     -1.479626      3.412259
  H      -0.324449      0.191857      3.907269
  H      -3.295614      0.725277      1.886871
  H      -2.349165      1.563270      3.135206
  H      -2.882348     -0.122093      3.391996
>
37
-1145.16640816; 31P isotropic shielding: 302.692186 ppm
  C       2.755223     -2.571443     -0.362706
  C       2.716459     -1.063517     -0.386212
  C       3.862701     -0.266519     -0.580046
  C       3.799724      1.131670     -0.598185
  C       2.577270      1.803057     -0.420688
  C       1.451326      1.017497     -0.229002
  C       1.515816     -0.375380     -0.213185
  O       0.293945     -0.951269     -0.025121
  P      -0.970291      0.249147      0.255230
  O       0.164669      1.477715     -0.036220
  O      -2.129418      1.467802      0.443849
  C      -2.900917      1.695433     -0.734997
  C      -3.116110      0.306296     -1.327491
  N      -1.855695     -0.385078     -1.049832
  C      -1.718758     -1.679762     -1.720419
  N      -1.136919     -0.241418      1.856841
  C      -1.782929      0.574385      2.901317
  C      -0.666964     -1.531655      2.388250
  H       2.395350     -2.966677      0.598032
  H       2.110616     -3.001700     -1.142614
  H       3.775235     -2.939010     -0.522694
  H       4.823465     -0.760992     -0.719064
  H       4.709424      1.708994     -0.750441
  H       2.506824      2.888115     -0.429997
  H      -3.835645      2.188891     -0.443796
  H      -2.351124      2.344513     -1.436893
  H      -3.296850      0.341583     -2.411922
  H      -3.972321     -0.208828     -0.853837
  H      -2.504455     -2.379704     -1.387088
  H      -0.744849     -2.117653     -1.515206
  H      -1.827023     -1.546004     -2.807272
  H      -1.826315      1.624139      2.617635
  H      -1.190255      0.486396      3.823649
  H      -2.805915      0.224183      3.115309
  H       0.269620     -1.420821      2.958531
  H      -0.504788     -2.261166      1.596899
  H      -1.436028     -1.925723      3.068886
>
37
-1145.16418420; 31P isotropic shielding: 310.815490 ppm
  C       2.981232      2.321001     -0.913815
  C       2.825562      0.866425     -0.545531
  C       3.915788     -0.019406     -0.416663
  C       3.735543     -1.363693     -0.072005
  C       2.453913     -1.891225      0.161901
  C       1.377293     -1.020894      0.035195
  C       1.570992      0.316249     -0.309853
  O       0.378003      1.011156     -0.382734
  P      -0.968145      0.106691      0.108361
  O       0.059686     -1.326628      0.200320
  O      -1.892344      1.513366     -0.090935
  C      -2.574877      1.560930     -1.343199
  C      -3.034592      0.126298     -1.582929
  N      -1.939981     -0.681807     -1.041256
  C      -2.008933     -2.101643     -1.394079
  N      -1.219760      0.096623      1.776702
  C      -1.194469     -1.114605      2.610385
  C      -1.789116      1.242117      2.507325
  H       4.038841      2.583544     -1.029581
  H       2.463982      2.551602     -1.856002
  H       2.542134      2.974307     -0.147159
  H       4.921269      0.361912     -0.589475
  H       4.603181     -2.014536      0.018735
  H       2.301131     -2.933951      0.430507
  H      -3.405749      2.270774     -1.255519
  H      -1.893560      1.896988     -2.142788
  H      -3.170068     -0.091713     -2.652610
  H      -3.988330     -0.087174     -1.066304
  H      -2.004262     -2.214861     -2.489049
  H      -2.942445     -2.549561     -1.012926
  H      -1.161486     -2.644423     -0.982496
  H      -0.861870     -1.981260      2.043760
  H      -2.202466     -1.316078      3.010392
  H      -0.513900     -0.974940      3.464608
  H      -2.887433      1.184084      2.584357
  H      -1.523549      2.186284      2.033419
  H      -1.372616      1.231245      3.524641
>
37
-1145.16390387; 31P isotropic shielding: 309.997309 ppm
  C       2.991108      2.296245     -0.950528
  C       2.826743      0.843596     -0.579234
  C       3.910256     -0.052472     -0.465736
  C       3.722391     -1.395097     -0.118801
  C       2.439585     -1.910900      0.133211
  C       1.369428     -1.030436      0.021858
  C       1.570560      0.304717     -0.326037
  O       0.382987      1.010327     -0.382232
  P      -0.965033      0.116998      0.123955
  O       0.051597     -1.323685      0.206427
  O      -1.879299      1.532175     -0.066524
  C      -2.574538      1.584914     -1.311229
  C      -3.048018      0.154166     -1.546883
  N      -1.955565     -0.663178     -1.015245
  C      -2.042024     -2.083126     -1.363571
  N      -1.199525      0.110334      1.795349
  C      -1.760034      1.258630      2.528797
  C      -1.181270     -1.102190      2.627713
  H       2.542549      2.953198     -0.192721
  H       4.050895      2.556163     -1.051823
  H       2.488902      2.524799     -1.901439
  H       4.916873      0.319310     -0.652202
  H       4.585254     -2.053837     -0.040138
  H       2.281173     -2.952161      0.404175
  H      -3.398867      2.301253     -1.214770
  H      -1.898957      1.915912     -2.117877
  H      -3.194849     -0.062279     -2.615417
  H      -3.998873     -0.051956     -1.021950
  H      -2.048647     -2.199204     -2.458228
  H      -2.976269     -2.520967     -0.972610
  H      -1.196185     -2.633123     -0.958287
  H      -2.858810      1.209825      2.605098
  H      -1.486138      2.201741      2.057428
  H      -1.344041      1.241360      3.546125
  H      -0.504764     -0.963502      3.485171
  H      -0.846776     -1.968542      2.061808
  H      -2.191319     -1.303108      3.023064
>
37
-1145.16387162; 31P isotropic shielding: 309.920621 ppm
  C       2.913938      2.409278     -0.907676
  C       2.778785      0.942993     -0.579891
  C       3.876532      0.058838     -0.525177
  C       3.715781     -1.296623     -0.216485
  C       2.447172     -1.837627      0.054244
  C       1.363124     -0.969005      0.000690
  C       1.537134      0.379477     -0.309701
  O       0.339697      1.070017     -0.309792
  P      -0.979008      0.145373      0.216524
  O       0.054682     -1.285806      0.211187
  O      -1.915382      1.553851      0.104872
  C      -2.671942      1.632095     -1.102282
  C      -3.135535      0.201799     -1.357652
  N      -2.006268     -0.612992     -0.906259
  C      -2.095054     -2.025273     -1.284622
  N      -1.146133      0.083916      1.894468
  C      -1.079725     -1.153163      2.687675
  C      -1.684670      1.203393      2.686526
  H       2.374277      2.663338     -1.831181
  H       2.486717      3.034941     -0.111972
  H       3.966434      2.684637     -1.039303
  H       4.872780      0.449810     -0.727416
  H       4.589042     -1.945434     -0.183248
  H       2.309993     -2.889104      0.295851
  H      -3.500805      2.331981     -0.943591
  H      -2.041782      1.998343     -1.930217
  H      -3.332660      0.015465     -2.423765
  H      -4.056206     -0.034535     -0.792914
  H      -1.215575     -2.570948     -0.951671
  H      -2.173293     -2.112389     -2.379067
  H      -2.994095     -2.489698     -0.844500
  H      -0.778324     -2.001505      2.077504
  H      -2.066443     -1.366969      3.131867
  H      -0.356481     -1.039849      3.510036
  H      -1.221794      1.162408      3.682802
  H      -2.778097      1.137782      2.811915
  H      -1.444015      2.163084      2.230822
>
37
-1145.16390903; 31P isotropic shielding: 309.724074 ppm
  C       2.830485     -2.502827      0.442738
  C       2.755317     -1.063334     -0.002055
  C       3.891065     -0.304865     -0.350537
  C       3.794264      1.028639     -0.764443
  C       2.546576      1.671062     -0.848981
  C       1.431210      0.923366     -0.505472
  C       1.529133     -0.405332     -0.094172
  O       0.312038     -0.956759      0.179467
  P      -0.990115      0.232028      0.075898
  O       0.123384      1.364636     -0.519804
  O      -2.186763      1.412510     -0.129238
  C      -2.904736      1.269139     -1.354609
  C      -3.074197     -0.237318     -1.523820
  N      -1.820276     -0.785415     -1.002759
  C      -1.621472     -2.208199     -1.285178
  N      -1.184883      0.234033      1.749208
  C      -0.807403     -0.877438      2.635367
  C      -1.915259      1.286001      2.477639
  H       2.274162     -3.162751     -0.238617
  H       3.870020     -2.848246      0.477001
  H       2.391388     -2.637579      1.441503
  H       4.870688     -0.778052     -0.292665
  H       4.696792      1.578474     -1.023643
  H       2.449661      2.706503     -1.166487
  H      -3.857546      1.802785     -1.259154
  H      -2.329116      1.698866     -2.191403
  H      -3.202024     -0.524215     -2.578112
  H      -3.945834     -0.614113     -0.957605
  H      -2.431229     -2.809373     -0.837375
  H      -0.667554     -2.550290     -0.890995
  H      -1.637747     -2.378637     -2.372550
  H      -1.682080     -1.172334      3.236608
  H      -0.005517     -0.575807      3.328396
  H      -0.467370     -1.743219      2.071409
  H      -1.422530      1.430257      3.449999
  H      -2.965971      1.007733      2.661648
  H      -1.895362      2.231069      1.936894
>
37
-1145.16419775; 31P isotropic shielding: 310.506040 ppm
  C       2.777267     -2.482887     -0.497121
  C       2.710251     -0.979290     -0.392981
  C       3.847303     -0.150410     -0.474447
  C       3.758085      1.243173     -0.378562
  C       2.517126      1.877498     -0.194436
  C       1.400331      1.060439     -0.113978
  C       1.490907     -0.327526     -0.210560
  O       0.272657     -0.935311     -0.122746
  P      -1.015712      0.215028      0.241227
  O       0.098320      1.481651      0.064147
  O      -2.200768      1.396331      0.501829
  C      -2.958742      1.696497     -0.669697
  C      -3.148359      0.348781     -1.358122
  N      -1.883757     -0.345698     -1.108974
  C      -1.712641     -1.579345     -1.879270
  N      -1.169186     -0.379066      1.812102
  C      -0.811976     -1.744719      2.226661
  C      -1.909162      0.328353      2.872488
  H       2.190272     -2.852068     -1.350518
  H       3.812093     -2.820582     -0.624031
  H       2.366724     -2.965671      0.401145
  H       4.821997     -0.616213     -0.615478
  H       4.661598      1.845827     -0.445735
  H       2.425827      2.958199     -0.116046
  H      -3.903183      2.158514     -0.359027
  H      -2.406990      2.398263     -1.317331
  H      -3.313317      0.456093     -2.440428
  H      -4.005300     -0.206602     -0.934227
  H      -2.500269     -2.309731     -1.626228
  H      -0.740560     -2.025117     -1.682735
  H      -1.791041     -1.358956     -2.954723
  H      -0.060485     -1.720899      3.031681
  H      -0.411416     -2.323252      1.397547
  H      -1.707548     -2.257146      2.614510
  H      -1.431935      0.088307      3.833260
  H      -2.963949      0.012031      2.923436
  H      -1.875665      1.407402      2.728868
>
37
-1145.16389430; 31P isotropic shielding: 310.442728 ppm
  C       2.908473      2.323052     -0.994108
  C       2.783482      0.861200     -0.643761
  C       3.866216     -0.041168     -0.694414
  C       3.716280     -1.391967     -0.359396
  C       2.473587     -1.910121      0.043213
  C       1.402345     -1.024530      0.091758
  C       1.566914      0.320362     -0.242587
  O       0.387926      1.032267     -0.124817
  P      -0.958527      0.074448      0.263693
  O       0.125576     -1.306411      0.473511
  O      -1.927751      1.440123      0.028115
  C      -2.439035      1.530105     -1.303114
  C      -2.778618      0.090354     -1.691212
  N      -1.753377     -0.707365     -1.015786
  C      -1.747004     -2.125372     -1.376384
  N      -1.421312     -0.041996      1.871370
  C      -2.733638      0.400088      2.362429
  C      -0.534346     -0.502414      2.948681
  H       2.640473      2.961984     -0.140982
  H       3.932874      2.565547     -1.298596
  H       2.229849      2.595234     -1.814619
  H       4.841975      0.331462     -1.003159
  H       4.577602     -2.055317     -0.411679
  H       2.345322     -2.956703      0.309683
  H      -3.315384      2.188921     -1.294318
  H      -1.675778      1.951979     -1.977301
  H      -2.727207     -0.065576     -2.779246
  H      -3.792859     -0.195149     -1.355601
  H      -2.738951     -2.570644     -1.189859
  H      -1.003612     -2.665616     -0.794008
  H      -1.518159     -2.245500     -2.446558
  H      -3.092783     -0.329499      3.103843
  H      -3.461196      0.451621      1.552260
  H      -2.683096      1.389739      2.843984
  H      -0.788871     -1.521361      3.281094
  H      -0.642677      0.178654      3.806103
  H       0.512286     -0.490829      2.644667
>
37
-1145.16634609; 31P isotropic shielding: 302.735498 ppm
  C       2.936634      2.312827     -1.076261
  C       2.794956      0.866555     -0.671775
  C       3.868034     -0.048370     -0.683949
  C       3.702392     -1.383825     -0.298544
  C       2.452947     -1.873223      0.118412
  C       1.390918     -0.975210      0.129018
  C       1.571109      0.354154     -0.255221
  O       0.399277      1.081987     -0.169464
  P      -0.958067      0.154642      0.253451
  O       0.109810     -1.228794      0.515900
  O      -1.910141      1.522814     -0.036722
  C      -2.423322      1.564490     -1.369331
  C      -2.783061      0.114709     -1.695829
  N      -1.763364     -0.667188     -0.993850
  C      -1.782581     -2.100125     -1.289859
  N      -1.426260      0.102891      1.863146
  C      -2.729915      0.591656      2.333358
  C      -0.541354     -0.304144      2.963218
  H       2.674746      2.985812     -0.247751
  H       3.963851      2.532670     -1.388331
  H       2.261645      2.561870     -1.907040
  H       4.848826      0.301988     -1.002695
  H       4.556680     -2.057842     -0.322357
  H       2.312655     -2.907577      0.423770
  H      -3.290419      2.235287     -1.386501
  H      -1.655684      1.946706     -2.062114
  H      -2.741147     -0.086950     -2.776668
  H      -3.798471     -0.143210     -1.341721
  H      -1.040348     -2.624732     -0.691896
  H      -1.567965     -2.270969     -2.355949
  H      -2.778672     -2.521373     -1.072193
  H      -3.091284     -0.085504      3.121745
  H      -3.462880      0.599029      1.526275
  H      -2.664974      1.609139      2.750672
  H      -0.614947      0.440976      3.769897
  H       0.500583     -0.353844      2.648201
  H      -0.827604     -1.286223      3.372156
>
37
-1145.16637409; 31P isotropic shielding: 302.710555 ppm
  C       2.814131      2.410828     -1.178139
  C       2.744978      0.975513     -0.719571
  C       3.861186      0.113710     -0.705093
  C       3.762451     -1.213034     -0.270069
  C       2.540203     -1.746677      0.172375
  C       1.435842     -0.901360      0.156797
  C       1.549353      0.420077     -0.276872
  O       0.343838      1.092976     -0.210577
  P      -0.965138      0.116165      0.252573
  O       0.170418     -1.202608      0.560725
  O      -1.984252      1.424727     -0.081696
  C      -2.498821      1.395432     -1.414207
  C      -2.784841     -0.080832     -1.692005
  N      -1.728844     -0.787100     -0.964306
  C      -1.679672     -2.229101     -1.208022
  N      -1.427652      0.098336      1.864700
  C      -0.523031     -0.230426      2.974807
  C      -2.753223      0.537552      2.322650
  H       3.829334      2.670597     -1.498660
  H       2.128615      2.593459     -2.017528
  H       2.517273      3.100412     -0.375526
  H       4.822374      0.499098     -1.042552
  H       4.648438     -1.845234     -0.274508
  H       2.451685     -2.774701      0.516117
  H      -3.398961      2.020247     -1.452289
  H      -1.751611      1.792874     -2.120571
  H      -2.730936     -0.315600     -2.765675
  H      -3.786719     -0.377666     -1.329849
  H      -1.445936     -2.429022     -2.265053
  H      -2.658171     -2.686669     -0.984189
  H      -0.920957     -2.697534     -0.584626
  H       0.519943     -0.235377      2.659303
  H      -0.757867     -1.213539      3.412900
  H      -0.634726      0.533446      3.759230
  H      -2.736085      1.568284      2.711109
  H      -3.082228     -0.133350      3.130355
  H      -3.485491      0.487695      1.516542
>
37
-1145.16638086; 31P isotropic shielding: 302.533037 ppm
  C       2.596639     -0.878861     -2.604113
  C       2.699273     -0.252617     -1.235124
  C       3.925902      0.120538     -0.647539
  C       3.984199      0.701755      0.625085
  C       2.820625      0.940218      1.374685
  C       1.605658      0.576580      0.799846
  C       1.566681     -0.005155     -0.469160
  O       0.266474     -0.285816     -0.860803
  P      -0.918733      0.132988      0.276939
  O       0.373252      0.700865      1.350519
  O      -1.465103      1.690580      0.360263
  C      -2.633139      1.991627     -0.444293
  C      -2.676926      0.933421     -1.544610
  N      -2.184376     -0.249837     -0.861081
  C      -2.146400     -1.477372     -1.647912
  N      -1.349755     -1.062925      1.377014
  C      -0.402781     -1.633522      2.349689
  C      -2.739128     -1.449725      1.662973
  H       3.589659     -1.007324     -3.049411
  H       2.109304     -1.862963     -2.558386
  H       1.993126     -0.258906     -3.282220
  H       4.846161     -0.051001     -1.204217
  H       4.951087      0.976301      1.043021
  H       2.853981      1.393210      2.362698
  H      -3.523730      1.938936      0.197956
  H      -2.512942      3.012278     -0.822967
  H      -2.045060      1.224661     -2.409059
  H      -3.701717      0.779365     -1.915254
  H      -3.166546     -1.758518     -1.951549
  H      -1.731943     -2.291677     -1.044867
  H      -1.527638     -1.376615     -2.556373
  H      -0.684631     -2.682565      2.519668
  H      -0.427593     -1.104572      3.314600
  H       0.619913     -1.618310      1.970925
  H      -2.868196     -2.537933      1.552160
  H      -3.422653     -0.945385      0.980912
  H      -2.999245     -1.179826      2.699486
>
37
-1145.16142618; 31P isotropic shielding: 286.522637 ppm
  C       3.195823      2.390310      0.307729
  C       2.952190      0.958432     -0.098763
  C       3.981289      0.076158     -0.481588
  C       3.725798     -1.249328     -0.855471
  C       2.414948     -1.757579     -0.862625
  C       1.405550     -0.887120     -0.484426
  C       1.657365      0.434829     -0.113913
  O       0.527852      1.103746      0.231016
  P      -0.931865      0.114080      0.051509
  O       0.052266     -1.179369     -0.432547
  O      -1.385255      1.254488     -1.055988
  C      -2.637539      1.002130     -1.742374
  C      -2.890802     -0.499609     -1.629047
  N      -2.369035     -0.806075     -0.307998
  C      -2.508664     -2.190076      0.131549
  N      -1.249813      0.234341      1.698253
  C      -0.195844      0.457446      2.701659
  C      -2.596864      0.409726      2.260738
  H       2.610877      3.083000     -0.313212
  H       2.888067      2.567319      1.348368
  H       4.256459      2.650503      0.214437
  H       5.006678      0.444548     -0.487720
  H       4.551722     -1.895642     -1.145455
  H       2.193932     -2.782706     -1.150632
  H      -3.430649      1.581218     -1.248286
  H      -2.518351      1.349114     -2.774407
  H      -2.371575     -1.058128     -2.434773
  H      -3.964104     -0.733614     -1.695333
  H      -2.021322     -2.902391     -0.556447
  H      -3.575215     -2.452410      0.205538
  H      -2.056458     -2.312718      1.121027
  H       0.757011      0.031572      2.384527
  H      -0.499360     -0.049175      3.629120
  H      -0.048522      1.526167      2.920002
  H      -3.350173      0.325015      1.478334
  H      -2.679699      1.400872      2.735789
  H      -2.798315     -0.353473      3.028908
>
37
-1145.16160943; 31P isotropic shielding: 286.394030 ppm
  C       3.004495     -2.312016      0.569781
  C       2.817725     -0.936877     -0.021784
  C       3.868461     -0.196134     -0.599129
  C       3.668022      1.080621     -1.137487
  C       2.397127      1.681317     -1.122491
  C       1.364830      0.950685     -0.554687
  C       1.565141     -0.322757     -0.020968
  O       0.422511     -0.848192      0.506004
  P      -0.985837      0.177250      0.204558
  O       0.051086      1.358794     -0.437863
  O      -2.280577      1.209260     -0.135122
  C      -2.862367      0.958428     -1.416192
  C      -2.848327     -0.564067     -1.561374
  N      -1.625209     -0.972592     -0.867824
  C      -1.288787     -2.389259     -1.009464
  N      -1.315972      0.212710      1.848626
  C      -0.281535      0.180483      2.891440
  C      -2.667939      0.400928      2.391976
  H       2.397441     -3.061205      0.041243
  H       4.053868     -2.622952      0.513590
  H       2.691470     -2.340309      1.622954
  H       4.864430     -0.637020     -0.623147
  H       4.507621      1.618306     -1.573394
  H       2.221116      2.672900     -1.532528
  H      -3.874441      1.379717     -1.426325
  H      -2.262594      1.436607     -2.207681
  H      -2.810993     -0.876655     -2.615760
  H      -3.741240     -1.027479     -1.102140
  H      -1.063207     -2.626859     -2.060692
  H      -2.141950     -3.014391     -0.696219
  H      -0.425245     -2.641609     -0.397805
  H      -0.254536     -0.791385      3.409608
  H      -0.505649      0.961669      3.633509
  H       0.709321      0.382819      2.485267
  H      -2.842958      1.439459      2.715497
  H      -2.788789     -0.260228      3.263348
  H      -3.428015      0.140135      1.655276
