71
-2241.31840797; 31P isotropic shielding: 174.309092 ppm
  C      -0.266011     -3.797547     -0.008744
  C      -0.529574     -2.565264      0.878278
  N      -1.160048     -1.406790      0.150427
  P      -0.308378      0.044672      0.308335
  C       1.316560     -0.020195     -0.051361
  Si      1.963558     -0.925245     -1.540079
  C       3.062937     -2.384365     -1.027991
  C       0.621267     -1.552021     -2.733260
  C       3.009856      0.191034     -2.672211
  Si      2.535533      0.840664      1.075620
  C       2.037574      2.611418      1.539065
  C       2.856436     -0.182248      2.640840
  C       4.248767      1.043207      0.283495
  N      -1.210595      1.293391     -0.383181
  C      -2.408153      1.883613      0.297114
  C      -3.627583      2.082250     -0.620196
  C      -2.103541      3.183516      1.074671
  C      -0.668072      1.865019     -1.656506
  C      -1.467954      1.437598     -2.904076
  C      -0.442437      3.384330     -1.627376
  Cl     -0.577562      0.480461      2.437302
  C      -2.593934     -1.413368     -0.257556
  C      -3.619002     -1.355456      0.900971
  C      -2.955559     -2.557239     -1.221347
  C      -1.247152     -2.989674      2.173968
  H       0.437050     -4.458143      0.515526
  H       0.179231     -3.528283     -0.968027
  H      -1.175171     -4.376910     -0.198493
  H       0.454148     -2.175992      1.165560
  H       2.500606     -3.142961     -0.470532
  H       3.509709     -2.873036     -1.906014
  H       3.884007     -2.046403     -0.382536
  H       1.033115     -2.377028     -3.332473
  H      -0.288935     -1.906487     -2.248618
  H       0.341616     -0.756924     -3.435386
  H       2.527974      1.165588     -2.831862
  H       3.102340     -0.294696     -3.654901
  H       4.020839      0.376111     -2.298766
  H       2.817908      3.064561      2.167786
  H       1.943729      3.228614      0.635172
  H       1.093236      2.664570      2.088889
  H       3.598254      0.314104      3.283635
  H       3.261383     -1.166584      2.366058
  H       1.948752     -0.343389      3.231036
  H       4.247459      1.751353     -0.553005
  H       4.692186      0.102498     -0.062428
  H       4.914961      1.450354      1.058307
  H      -2.696646      1.144750      1.045719
  H      -3.882587      1.175862     -1.179407
  H      -3.479229      2.897894     -1.335957
  H      -4.491803      2.347784      0.002418
  H      -2.916773      3.370273      1.789148
  H      -1.173435      3.094193      1.640320
  H      -2.033467      4.054720      0.416858
  H       0.323706      1.411718     -1.739483
  H      -2.411949      1.982165     -3.004976
  H      -1.686235      0.365051     -2.883499
  H      -0.870916      1.640748     -3.803284
  H      -1.381642      3.948801     -1.645503
  H       0.127365      3.671308     -2.521059
  H       0.132167      3.684698     -0.745791
  H      -2.699796     -0.489390     -0.829413
  H      -3.806266     -2.344114      1.332389
  H      -3.289746     -0.693526      1.706924
  H      -4.575868     -0.978714      0.515534
  H      -3.001662     -3.526558     -0.714202
  H      -3.952241     -2.360493     -1.638633
  H      -2.248641     -2.631663     -2.053920
  H      -1.481265     -2.131709      2.809179
  H      -0.580201     -3.655660      2.737292
  H      -2.167800     -3.548916      1.971016
>
71
-2241.32020590; 31P isotropic shielding: 177.419301 ppm
  C      -0.266639     -3.798319     -0.021068
  C      -0.533811     -2.567491      0.867141
  N      -1.158755     -1.406476      0.138712
  P      -0.307910      0.044618      0.306707
  C       1.319761     -0.019636     -0.040766
  Si      1.977152     -0.919383     -1.528014
  C       3.072854     -2.380515     -1.013279
  C       0.643798     -1.544969     -2.731918
  C       3.030225      0.201059     -2.649603
  Si      2.530614      0.837294      1.097892
  C       2.029973      2.606842      1.562823
  C       2.839079     -0.191276      2.661753
  C       4.249281      1.041080      0.317945
  N      -1.205148      1.294657     -0.389429
  C      -2.407439      1.884193      0.282993
  C      -3.620195      2.084645     -0.642787
  C      -2.107664      3.182923      1.064336
  C      -0.652836      1.868412     -1.657522
  C      -1.443212      1.444105     -2.912097
  C      -0.426275      3.387505     -1.623457
  Cl     -0.593010      0.475926      2.433551
  C      -2.589809     -1.411366     -0.279278
  C      -3.623041     -1.354019      0.872077
  C      -2.945556     -2.553785     -1.246882
  C      -1.259315     -2.994412      2.157597
  H       0.436328     -4.458500      0.503882
  H       0.180211     -3.527789     -0.979229
  H      -1.174552     -4.378872     -0.213070
  H       0.448697     -2.180208      1.161053
  H       2.504586     -3.142808     -0.467022
  H       3.528601     -2.863364     -1.889930
  H       3.887163     -2.047262     -0.356966
  H       1.058820     -2.373490     -3.324022
  H      -0.271550     -1.895164     -2.253838
  H       0.372229     -0.752060     -3.439556
  H       4.038436      0.386620     -2.268945
  H       2.548009      1.175372     -2.809720
  H       3.129975     -0.281616     -3.633077
  H       2.808332      3.060619      2.193474
  H       1.936764      3.224700      0.659342
  H       1.084411      2.657738      2.110771
  H       3.574833      0.303013      3.313053
  H       3.247332     -1.174025      2.386188
  H       1.926513     -0.355803      3.243409
  H       4.693977      0.101347     -0.028899
  H       4.911225      1.445070      1.098011
  H       4.253095      1.752295     -0.515962
  H      -2.701631      1.144375      1.028401
  H      -4.488631      2.350067     -0.026021
  H      -3.871725      1.179033     -1.204793
  H      -3.466174      2.901019     -1.356493
  H      -2.926237      3.369814      1.772638
  H      -1.181939      3.092221      1.636912
  H      -2.031694      4.054652      0.407846
  H       0.339297      1.414761     -1.733735
  H      -0.839479      1.649802     -3.806231
  H      -2.386563      1.988681     -3.018677
  H      -1.661382      0.371466     -2.896076
  H      -1.364796      3.952910     -1.648022
  H       0.151059      3.675837     -2.511845
  H       0.141343      3.685675     -0.736586
  H      -2.690838     -0.486512     -0.850631
  H      -3.814020     -2.343018      1.301035
  H      -3.298979     -0.693215      1.681006
  H      -4.576970     -0.976200      0.480464
  H      -2.996057     -3.523546     -0.741072
  H      -3.939061     -2.355754     -1.671052
  H      -2.232741     -2.628008     -2.074425
  H      -2.179743     -3.551407      1.947631
  H      -1.495718     -2.137945      2.793992
  H      -0.596781     -3.663230      2.722762
>
71
-2241.32020318; 31P isotropic shielding: 177.539213 ppm
  C      -1.576697     -1.813465      3.163910
  C      -2.123556     -1.265184      1.826557
  N      -1.111949     -1.245671      0.721886
  P      -0.244184      0.148471      0.328994
  C       1.277954     -0.049365     -0.317146
  Si      1.556489     -0.242922     -2.144726
  C       2.485574     -1.850645     -2.565685
  C      -0.023189     -0.422298     -3.182587
  C       2.576981      1.197544     -2.839540
  Si      2.761213     -0.077672      0.821719
  C       4.319949     -0.754099     -0.024960
  C       3.238781      1.676904      1.361092
  C       2.548244     -1.202875      2.334182
  N      -1.263217      1.225330     -0.483148
  C      -2.732257      0.984612     -0.562901
  C      -3.338596      1.308295     -1.940492
  C      -3.580245      1.642606      0.552368
  C      -0.660377      2.591168     -0.688885
  C      -0.653842      3.061607     -2.155678
  C      -1.229285      3.699282      0.218104
  Cl     -0.089564      1.094592      2.298468
  C      -0.718172     -2.494016     -0.004718
  C      -1.742244     -2.926281     -1.073940
  C      -0.327256     -3.667784      0.906421
  C      -3.444742     -1.967006      1.465872
  H      -0.580815     -1.416980      3.373287
  H      -1.532978     -2.906358      3.177679
  H      -2.244135     -1.496379      3.976627
  H      -2.361409     -0.215957      2.006368
  H       3.560880     -1.798853     -2.373373
  H       2.085982     -2.705699     -2.003120
  H       2.349659     -2.068408     -3.635226
  H      -0.806515      0.300013     -2.953362
  H       0.245252     -0.308933     -4.243039
  H      -0.449355     -1.425772     -3.065370
  H       2.792227      1.054034     -3.908328
  H       3.538131      1.286629     -2.317050
  H       2.055431      2.155762     -2.726458
  H       5.151477     -0.630921      0.684493
  H       4.244593     -1.822074     -0.259278
  H       4.594825     -0.219999     -0.941686
  H       3.485692      2.281451      0.476862
  H       4.126820      1.656725      2.009677
  H       2.433241      2.183592      1.902144
  H       3.455334     -1.170896      2.955270
  H       2.409601     -2.243344      2.010003
  H       1.699970     -0.926689      2.967344
  H      -2.818088     -0.097135     -0.442272
  H      -4.355387      0.895106     -1.980524
  H      -2.759411      0.863719     -2.755474
  H      -3.419148      2.386277     -2.114588
  H      -4.530255      1.100681      0.650079
  H      -3.073302      1.622431      1.521477
  H      -3.820358      2.685443      0.321177
  H       0.389403      2.448822     -0.406479
  H      -1.643094      3.384298     -2.495279
  H      -0.289219      2.288709     -2.834169
  H       0.017421      3.926532     -2.239998
  H      -0.562223      4.569576      0.161057
  H      -1.282089      3.384757      1.263307
  H      -2.222256      4.029814     -0.107584
  H       0.195175     -2.204113     -0.531660
  H      -2.619246     -3.421580     -0.644709
  H      -2.083955     -2.068527     -1.662524
  H      -1.266399     -3.637059     -1.762793
  H      -1.187947     -4.108619      1.421853
  H       0.120698     -4.456236      0.287084
  H       0.411749     -3.361603      1.653245
  H      -3.871447     -1.602212      0.525737
  H      -4.172598     -1.772779      2.264227
  H      -3.326046     -3.053274      1.390184
>
71
-2241.32076104; 31P isotropic shielding: 177.438548 ppm
  C      -3.718001     -1.321738      0.650857
  C      -2.518352     -1.506810     -0.312291
  N      -1.165312     -1.388452      0.301611
  P      -0.305493      0.064137      0.302671
  C       1.324579     -0.047539     -0.017261
  Si      1.974453     -1.073866     -1.424813
  C       0.667896     -1.996825     -2.448441
  C       2.832640      0.009670     -2.731244
  C       3.221488     -2.371737     -0.825791
  Si      2.539214      0.937383      1.010335
  C       2.871853      0.064713      2.660268
  C       4.243588      1.105413      0.187176
  C       2.027198      2.737737      1.320871
  N      -1.182217      1.239764     -0.533456
  C      -2.442356      1.816896      0.032018
  C      -3.605062      1.891576     -0.972613
  C      -2.255386      3.180272      0.736314
  C      -0.555481      1.790562     -1.776862
  C      -1.230044      1.294383     -3.071736
  C      -0.386867      3.317729     -1.793081
  Cl     -0.605229      0.725517      2.376262
  C      -0.645951     -2.383901      1.306854
  C      -0.173768     -3.715100      0.697225
  C      -1.586143     -2.645968      2.498498
  C      -2.711278     -2.798123     -1.127752
  H      -3.993207     -2.259677      1.143852
  H      -4.591875     -0.984378      0.078274
  H      -3.515405     -0.581872      1.429933
  H      -2.543303     -0.681649     -1.028363
  H      -0.180006     -1.361734     -2.724259
  H       1.147947     -2.323137     -3.382415
  H       0.270025     -2.886919     -1.957003
  H       2.129767      0.737848     -3.159296
  H       3.692050      0.564033     -2.345134
  H       3.188175     -0.624355     -3.556824
  H       2.751363     -3.075670     -0.127082
  H       4.072155     -1.916244     -0.304534
  H       3.620997     -2.951665     -1.670372
  H       1.964398     -0.033515      3.265909
  H       3.267447     -0.944217      2.476768
  H       3.618871      0.614377      3.251385
  H       4.694840      0.157607     -0.125630
  H       4.917436      1.556397      0.930435
  H       4.220514      1.776700     -0.679654
  H       1.953706      3.284659      0.371166
  H       2.796933      3.237787      1.926975
  H       1.073397      2.833085      1.847722
  H      -2.740028      1.116393      0.813224
  H      -3.448647      2.673568     -1.723636
  H      -4.525786      2.140454     -0.429156
  H      -3.766981      0.942644     -1.493859
  H      -1.351497      3.189613      1.349562
  H      -2.211321      4.012497      0.027966
  H      -3.113672      3.354368      1.399326
  H       0.454416      1.373445     -1.756936
  H      -0.559362      1.475661     -3.922424
  H      -2.173840      1.809058     -3.280894
  H      -1.429767      0.218911     -3.029366
  H       0.257895      3.586080     -2.640477
  H       0.090239      3.677987     -0.877009
  H      -1.337268      3.846669     -1.927650
  H       0.252684     -1.902236      1.708803
  H       0.346329     -4.289262      1.475537
  H      -1.002756     -4.330131      0.333664
  H       0.526965     -3.555592     -0.123160
  H      -1.021887     -3.182951      3.272102
  H      -1.954324     -1.715520      2.938320
  H      -2.439041     -3.276174      2.221700
  H      -3.637966     -2.708448     -1.710677
  H      -2.819476     -3.677134     -0.482964
  H      -1.885302     -2.969853     -1.822464
>
71
-2241.32054860; 31P isotropic shielding: 176.116243 ppm
  C      -3.366202     -1.608138      1.632120
  C      -2.671607     -1.299763      0.293661
  N      -1.180322     -1.321441      0.343374
  P      -0.321460      0.134502      0.313197
  C       1.271593     -0.025759     -0.162495
  Si      1.790331     -1.112029     -1.584260
  C       0.373091     -1.930411     -2.563764
  C       2.716840     -0.151804     -2.937050
  C       2.921680     -2.522725     -0.996984
  Si      2.621420      0.842380      0.792286
  C       2.998213     -0.065183      2.415817
  C       4.272821      0.881926     -0.146189
  C       2.296502      2.673154      1.167843
  N      -1.289850      1.278456     -0.475743
  C      -1.069008      1.280146     -1.959590
  C      -0.241908      2.484840     -2.435758
  C      -2.385071      1.127393     -2.741308
  C      -2.084681      2.445540      0.034694
  C      -3.302464      2.069714      0.896318
  C      -1.253584      3.572501      0.681198
  Cl     -0.458395      0.854781      2.333136
  C      -0.430792     -2.516380      0.876366
  C      -0.897056     -3.856115      0.285100
  C      -0.359441     -2.616890      2.415324
  C      -3.270332     -2.136380     -0.857046
  H      -4.433348     -1.362766      1.546161
  H      -2.944056     -1.011557      2.447190
  H      -3.295896     -2.667883      1.902796
  H      -2.902838     -0.264342      0.049511
  H       0.046003     -1.295568     -3.397984
  H       0.753934     -2.861867     -3.007056
  H      -0.506407     -2.175387     -1.967408
  H       2.161090      0.750050     -3.225993
  H       3.727451      0.153644     -2.653012
  H       2.801017     -0.789963     -3.829379
  H       3.734109     -2.155535     -0.358681
  H       3.375587     -3.039197     -1.855189
  H       2.364992     -3.272163     -0.418430
  H       3.278472     -1.108038      2.212102
  H       3.837803      0.410239      2.943782
  H       2.136951     -0.077319      3.092662
  H       5.018843      1.314277      0.536688
  H       4.230096      1.525450     -1.032786
  H       4.647604     -0.100406     -0.454142
  H       3.184257      3.101786      1.655799
  H       1.440905      2.838523      1.827802
  H       2.126958      3.238868      0.241445
  H      -0.478645      0.387473     -2.171960
  H       0.707695      2.528195     -1.892467
  H      -0.776860      3.431812     -2.290964
  H      -0.024115      2.388784     -3.507614
  H      -2.948048      0.252302     -2.401572
  H      -3.031739      2.009654     -2.650074
  H      -2.163130      0.996830     -3.808486
  H      -2.498660      2.875613     -0.883730
  H      -3.842528      2.986429      1.167970
  H      -3.013353      1.565562      1.822531
  H      -3.998159      1.427000      0.344340
  H      -0.346026      3.776771      0.106719
  H      -0.961972      3.336517      1.706701
  H      -1.858043      4.490054      0.703457
  H       0.593373     -2.351001      0.537252
  H      -0.947485     -3.839084     -0.806600
  H      -0.170962     -4.626298      0.575165
  H      -1.871582     -4.166384      0.678647
  H      -1.324744     -2.873522      2.862818
  H       0.351382     -3.412103      2.677203
  H      -0.004142     -1.688385      2.866435
  H      -4.310262     -1.820569     -1.018099
  H      -3.284115     -3.209116     -0.645254
  H      -2.720824     -1.977494     -1.790846
>
71
-2241.31680550; 31P isotropic shielding: 200.200829 ppm
  C      -0.765294     -3.896547      0.067064
  C      -0.416482     -2.561270      0.742135
  N      -1.150574     -1.376406      0.165141
  P      -0.349302      0.108007      0.272899
  C       1.291939      0.017508     -0.022918
  Si      2.491562      0.884484      1.115705
  C       2.697762     -0.076508      2.738971
  C       4.240454      0.996328      0.383541
  C       2.065067      2.689863      1.510707
  Si      2.006637     -0.989732     -1.416676
  C       3.112696     -2.395546     -0.770615
  C       0.738763     -1.811108     -2.581185
  C       3.047554      0.059661     -2.611617
  N      -1.263722      1.247140     -0.583958
  C      -2.156416      2.365962     -0.129601
  C      -1.446417      3.497125      0.643362
  C      -3.448523      1.917221      0.573592
  C      -0.879121      1.313054     -2.031496
  C      -2.090146      1.121764     -2.960306
  C      -0.069766      2.572857     -2.376778
  Cl     -0.742156      0.755388      2.286572
  C      -2.627428     -1.404974     -0.049105
  C      -3.449509     -1.772603      1.198568
  C      -3.063768     -2.233626     -1.275681
  C      -0.501101     -2.702635      2.276917
  H      -1.759397     -4.260221      0.351492
  H      -0.038562     -4.647162      0.403273
  H      -0.708778     -3.842298     -1.023162
  H       0.630711     -2.349010      0.519625
  H       3.032426     -1.102626      2.532081
  H       3.453152      0.398227      3.382277
  H       1.762471     -0.137851      3.305868
  H       4.664571      0.035010      0.073385
  H       4.291192      1.684168     -0.468768
  H       4.893536      1.401361      1.170421
  H       1.143675      2.801658      2.088550
  H       1.962214      3.279132      0.589374
  H       2.884135      3.134444      2.094943
  H       3.823441     -2.050157     -0.010240
  H       2.517765     -3.201502     -0.320053
  H       3.692066     -2.837466     -1.594410
  H       0.466639     -1.147682     -3.412677
  H      -0.183517     -2.125302     -2.090915
  H       1.206221     -2.700896     -3.027244
  H       3.248553     -0.529598     -3.518729
  H       4.011374      0.370945     -2.199556
  H       2.504524      0.963860     -2.916703
  H      -2.478743      2.815922     -1.074994
  H      -2.079748      4.394860      0.618854
  H      -0.485381      3.745192      0.185538
  H      -1.268740      3.237495      1.688867
  H      -3.247469      1.382797      1.506045
  H      -4.047092      2.804827      0.817845
  H      -4.055892      1.277209     -0.077274
  H      -0.220085      0.460554     -2.201871
  H      -2.635987      0.204938     -2.715789
  H      -1.746956      1.046728     -4.000447
  H      -2.793263      1.963599     -2.910896
  H      -0.665966      3.487421     -2.268234
  H       0.271320      2.523087     -3.419216
  H       0.809809      2.645799     -1.728644
  H      -2.868406     -0.372248     -0.295183
  H      -3.135991     -1.185746      2.067729
  H      -4.509793     -1.560354      1.005885
  H      -3.369782     -2.836904      1.448105
  H      -4.088374     -1.946644     -1.549514
  H      -2.416632     -2.038387     -2.137281
  H      -3.066282     -3.310454     -1.085750
  H       0.179923     -3.505891      2.588781
  H      -1.506146     -2.964914      2.621545
  H      -0.189545     -1.786024      2.781730
>
71
-2241.31695357; 31P isotropic shielding: 199.732221 ppm
  C      -3.185444     -1.817680      1.722046
  C      -2.628048     -1.326133      0.374910
  N      -1.139467     -1.356771      0.268706
  P      -0.261798      0.085580      0.356963
  C       1.263171     -0.007671     -0.317642
  Si      1.592226     -0.852835     -1.944748
  C       2.735319     -2.356647     -1.725851
  C       0.061393     -1.494703     -2.882082
  C       2.394670      0.310954     -3.214015
  Si      2.734513      0.675241      0.607262
  C       4.283439      0.823832     -0.482805
  C       2.509684      2.432563      1.285233
  C       3.244382     -0.481560      2.022833
  N      -1.291364      1.337597     -0.133562
  C      -1.242326      1.564023     -1.614590
  C      -0.462794      2.831403     -1.999644
  C      -2.640427      1.520627     -2.255036
  C      -2.002116      2.413397      0.635701
  C      -3.117929      1.911769      1.568512
  C      -1.082642      3.431135      1.341474
  Cl     -0.150459      0.498337      2.462419
  C      -0.358636     -2.617197      0.546384
  C      -0.886276     -3.853197     -0.198874
  C      -0.153682     -2.952533      2.040141
  C      -3.351614     -1.999702     -0.810240
  H      -2.667445     -1.346222      2.563314
  H      -3.107152     -2.905685      1.828305
  H      -4.250792     -1.558358      1.786953
  H      -2.867578     -0.266596      0.298353
  H       3.109484     -2.703230     -2.700211
  H       3.603497     -2.130866     -1.095225
  H       2.203806     -3.198397     -1.261300
  H       0.388902     -2.303462     -3.551556
  H      -0.728174     -1.888158     -2.240759
  H      -0.380558     -0.718581     -3.520545
  H       3.440403      0.545630     -2.997294
  H       1.843895      1.258573     -3.277373
  H       2.358746     -0.162841     -4.206239
  H       4.183987      1.609108     -1.241437
  H       5.112694      1.112245      0.179840
  H       4.579988     -0.102905     -0.986185
  H       2.260265      3.132782      0.476262
  H       3.455312      2.771526      1.733276
  H       1.732003      2.506824      2.049819
  H       3.477074     -1.481459      1.630506
  H       2.455976     -0.592355      2.774908
  H       4.145036     -0.103924      2.528804
  H      -0.688633      0.717347     -2.023081
  H      -0.373979      2.897132     -3.092067
  H       0.545092      2.799920     -1.572932
  H      -0.964937      3.743864     -1.654438
  H      -3.263497      2.374936     -1.959673
  H      -2.542604      1.553574     -3.348001
  H      -3.170564      0.600626     -1.989070
  H      -2.511990      2.976548     -0.153700
  H      -2.731649      1.279540      2.372611
  H      -3.881287      1.353505      1.014448
  H      -3.610662      2.777567      2.030552
  H      -0.241753      3.717168      0.703785
  H      -0.681223      3.045967      2.281172
  H      -1.663821      4.336163      1.567108
  H       0.634044     -2.397371      0.148522
  H      -1.816339     -4.237125      0.236161
  H      -1.047686     -3.665681     -1.263489
  H      -0.135845     -4.649216     -0.109698
  H       0.564950     -3.779908      2.112666
  H       0.255161     -2.105127      2.593777
  H      -1.078737     -3.273133      2.529292
  H      -2.895485     -1.720296     -1.765619
  H      -4.397190     -1.662498     -0.822526
  H      -3.361110     -3.090979     -0.740809
>
71
-2241.31696617; 31P isotropic shielding: 200.058631 ppm
  C       0.001292     -3.845267     -0.260908
  C      -0.478640     -2.719656      0.675125
  N      -1.085988     -1.540362     -0.040770
  P      -0.338303     -0.068844      0.320154
  C       1.311273     -0.009647      0.098357
  Si      2.132965     -0.717659     -1.410511
  C       0.944546     -1.345659     -2.753497
  C       3.149089      0.583765     -2.359549
  C       3.320424     -2.122979     -0.947509
  Si      2.382077      0.811583      1.393798
  C       1.732520      2.493875      1.982338
  C       2.653817     -0.343605      2.872642
  C       4.126704      1.207823      0.757941
  N      -1.253944      1.193383     -0.327779
  C      -0.634072      1.935923     -1.470820
  C      -0.505657      3.451236     -1.252967
  C      -1.285773      1.614591     -2.831233
  C      -2.545331      1.634696      0.289550
  C      -2.409087      2.863079      1.217443
  C      -3.689866      1.850520     -0.716195
  Cl     -0.803755      0.140111      2.451526
  C      -2.454085     -1.589085     -0.631313
  C      -3.621458     -1.676257      0.381975
  C      -2.619881     -2.674328     -1.710067
  C      -1.345827     -3.303221      1.806254
  H      -0.827009     -4.444057     -0.652783
  H       0.651715     -4.520383      0.310700
  H       0.577377     -3.459352     -1.103088
  H       0.422124     -2.300546      1.138722
  H       0.542265     -0.506782     -3.334463
  H       1.512077     -1.977731     -3.451935
  H       0.102170     -1.927344     -2.379930
  H       2.603077      1.532461     -2.453867
  H       4.118134      0.801523     -1.901516
  H       3.339048      0.210571     -3.376654
  H       3.877267     -2.478301     -1.826762
  H       2.790555     -2.980896     -0.515963
  H       4.054026     -1.786395     -0.203673
  H       2.396585      2.896353      2.761246
  H       1.732889      3.210577      1.149731
  H       0.721207      2.449186      2.396584
  H       1.716016     -0.609481      3.371158
  H       3.316556      0.122173      3.616675
  H       3.133654     -1.273332      2.535459
  H       4.672081      0.338984      0.372277
  H       4.701147      1.599972      1.610053
  H       4.122002      1.981300     -0.018465
  H       0.387017      1.546441     -1.504666
  H      -1.471106      3.967107     -1.304194
  H       0.128735      3.867085     -2.046917
  H      -0.037843      3.676735     -0.289712
  H      -0.617946      1.945622     -3.637925
  H      -1.442771      0.537263     -2.949137
  H      -2.246215      2.121075     -2.970673
  H      -2.841102      0.805899      0.933686
  H      -1.524835      2.780731      1.853507
  H      -3.290790      2.912704      1.870585
  H      -2.356325      3.802594      0.659718
  H      -3.538670      2.749236     -1.323629
  H      -4.625015      1.987550     -0.157855
  H      -3.821290      0.997052     -1.389076
  H      -2.542264     -0.630392     -1.146758
  H      -3.437062     -1.076200      1.277466
  H      -4.539302     -1.306745     -0.094416
  H      -3.810279     -2.705995      0.701757
  H      -1.811204     -2.644414     -2.446686
  H      -2.666377     -3.679903     -1.279109
  H      -3.567413     -2.501917     -2.238064
  H      -0.729893     -3.992663      2.398485
  H      -2.193892     -3.876969      1.416037
  H      -1.718665     -2.523311      2.475083
>
71
-2241.32053384; 31P isotropic shielding: 177.208045 ppm
  C      -1.454258     -1.956373      3.105951
  C      -2.070523     -1.330090      1.832599
  N      -1.117127     -1.223335      0.680637
  P      -0.273120      0.212412      0.334209
  C       1.228027      0.092238     -0.385791
  Si      1.446223     -0.261388     -2.204783
  C       2.234792     -1.970923     -2.514694
  C      -0.163429     -0.345382     -3.206311
  C       2.576087      1.003354     -3.070788
  Si      2.758097      0.008386      0.693058
  C       4.299655     -0.569939     -0.256896
  C       3.223414      1.722617      1.357761
  C       2.646052     -1.232374      2.125354
  N      -1.362902      1.281908     -0.377237
  C      -2.829301      0.993165     -0.406428
  C      -3.437074      1.226803     -1.800952
  C      -3.610566      1.751755      0.684253
  C      -1.028394      2.736121     -0.642662
  C      -0.464848      3.526341      0.550733
  C      -0.141649      2.948086     -1.874165
  Cl     -0.043970      0.961419      2.364963
  C      -0.744028     -2.420767     -0.128508
  C      -1.822283     -2.838810     -1.150177
  C      -0.261436     -3.625216      0.695355
  C      -3.399767     -2.035164      1.502326
  H      -0.438946     -1.593437      3.277064
  H      -1.435063     -3.049420      3.058533
  H      -2.064974     -1.671816      3.973449
  H      -2.317832     -0.297838      2.088519
  H       1.836064     -2.751953     -1.854397
  H       2.020273     -2.273707     -3.550388
  H       3.322562     -1.960951     -2.395354
  H      -0.879780      0.437288     -2.954669
  H       0.089283     -0.243085     -4.271742
  H      -0.661720     -1.313111     -3.083867
  H       1.998197      1.829329     -3.502480
  H       3.123313      0.520222     -3.892953
  H       3.315967      1.439566     -2.389609
  H       4.264418     -1.639571     -0.492497
  H       4.504130     -0.022596     -1.183453
  H       5.160506     -0.412724      0.409587
  H       3.396715      2.415993      0.522806
  H       4.152360      1.667320      1.943875
  H       2.444786      2.150317      1.996998
  H       3.585925     -1.226436      2.696762
  H       2.507751     -2.249456      1.734194
  H       1.829726     -1.019855      2.821627
  H      -2.913551     -0.074174     -0.209927
  H      -3.381632      2.276786     -2.114094
  H      -4.498678      0.946722     -1.783756
  H      -2.935128      0.614577     -2.557021
  H      -4.639754      1.373398      0.738992
  H      -3.144403      1.627654      1.667581
  H      -3.667250      2.827080      0.471189
  H      -2.002665      3.181683     -0.867244
  H       0.546308      3.203908      0.813178
  H      -1.096907      3.438514      1.438719
  H      -0.416921      4.585344      0.263290
  H       0.863913      2.563050     -1.692863
  H      -0.064034      4.024570     -2.077841
  H      -0.551766      2.463871     -2.764637
  H       0.123839     -2.084494     -0.699188
  H      -2.646682     -3.393628     -0.691125
  H      -2.237988     -1.967296     -1.665891
  H      -1.368551     -3.491451     -1.908122
  H       0.182992     -4.363223      0.014226
  H       0.501649     -3.328916      1.421143
  H      -1.078815     -4.124428      1.227842
  H      -3.885039     -1.630356      0.608427
  H      -4.085462     -1.897006      2.348477
  H      -3.269109     -3.113610      1.362734
>
71
-2241.31776046; 31P isotropic shielding: 197.243718 ppm
  C      -3.268608     -2.017247      1.480514
  C      -2.682410     -1.356509      0.219878
  N      -1.191054     -1.395498      0.121066
  P      -0.319883      0.025724      0.403509
  C       1.259315     -0.022103     -0.142205
  Si      1.748718     -0.859439     -1.741949
  C       2.737798     -2.467304     -1.486013
  C       0.328401     -1.314884     -2.926504
  C       2.833279      0.275378     -2.814317
  Si      2.642997      0.966024      0.642257
  C       2.915498      2.661364     -0.174679
  C       2.523361      1.344797      2.496332
  C       4.282994      0.012056      0.511288
  N      -1.328222      1.302342     -0.077464
  C      -1.347727      1.473009     -1.567184
  C      -0.428661      2.606701     -2.049780
  C      -2.777692      1.627776     -2.116248
  C      -1.886000      2.459492      0.692329
  C      -3.092418      2.092355      1.574752
  C      -0.841150      3.316639      1.432993
  Cl     -0.458542      0.241144      2.530227
  C      -0.435122     -2.684729      0.297479
  C      -0.989402     -3.844524     -0.543120
  C      -0.215766     -3.129842      1.759481
  C      -3.388162     -1.861820     -1.056783
  H      -2.789116     -1.638338      2.388332
  H      -3.174839     -3.108905      1.461039
  H      -4.340112     -1.782392      1.537061
  H      -2.912311     -0.292426      0.291186
  H       3.279035     -2.716321     -2.410814
  H       3.474775     -2.380945     -0.680706
  H       2.090841     -3.323158     -1.253865
  H       0.684625     -2.104396     -3.603990
  H      -0.571878     -1.683042     -2.429398
  H       0.045895     -0.459987     -3.554746
  H       3.068527     -0.255402     -3.748699
  H       3.783457      0.565219     -2.354842
  H       2.295251      1.193380     -3.083082
  H       2.061875      3.329118     -0.001015
  H       3.800849      3.145622      0.262965
  H       3.073705      2.595258     -1.256565
  H       3.483235      1.800046      2.783637
  H       2.382627      0.445010      3.105453
  H       1.730754      2.053907      2.753364
  H       4.226698     -0.929196      1.074538
  H       5.077572      0.621350      0.965834
  H       4.598819     -0.227563     -0.509070
  H      -0.957355      0.538568     -1.975215
  H      -0.396523      2.623879     -3.147352
  H       0.587007      2.459772     -1.675332
  H      -0.788018      3.588530     -1.715531
  H      -3.233268      2.580461     -1.818621
  H      -2.748107      1.611238     -3.213534
  H      -3.430146      0.815614     -1.782416
  H      -2.283296      3.109006     -0.094734
  H      -2.815493      1.420895      2.391500
  H      -3.878027      1.612220      0.978305
  H      -3.516316      3.005810      2.013542
  H       0.006293      3.541802      0.777679
  H      -0.462978      2.827701      2.332925
  H      -1.302412      4.267921      1.731788
  H       0.558371     -2.462062     -0.088289
  H      -1.136141     -3.565105     -1.590208
  H      -0.261317     -4.665236     -0.514347
  H      -1.933825     -4.236435     -0.148481
  H      -1.144750     -3.422253      2.257744
  H       0.453095     -4.001175      1.759150
  H       0.259718     -2.341713      2.348229
  H      -2.902400     -1.474324     -1.958465
  H      -4.429072     -1.510534     -1.053611
  H      -3.412372     -2.953322     -1.124004
>
71
-2241.31363056; 31P isotropic shielding: 203.961897 ppm
  C      -1.655660     -1.635377      3.209284
  C      -2.193896     -1.100379      1.861459
  N      -1.187647     -1.111964      0.751171
  P      -0.284547      0.266498      0.326642
  C       1.235693      0.064249     -0.336030
  Si      1.474622     -0.555477     -2.079529
  C       2.048881     -2.379824     -2.099774
  C      -0.087633     -0.550944     -3.172591
  C       2.790545      0.420078     -3.044155
  Si      2.730783      0.032083      0.794852
  C       2.562138     -1.223010      2.208522
  C       4.326477     -0.461780     -0.113960
  C       3.181052      1.734625      1.501882
  N      -1.311059      1.310261     -0.500413
  C      -2.789618      1.106094     -0.522916
  C      -3.377289      1.298022     -1.932828
  C      -3.528893      1.974828      0.514101
  C      -0.880496      2.695899     -0.932349
  C      -0.031058      3.481660      0.077719
  C      -0.213082      2.701965     -2.312516
  Cl     -0.102169      1.156651      2.301618
  C      -0.816250     -2.381361      0.061669
  C      -1.838939     -2.837756     -1.000393
  C      -0.430988     -3.538592      0.997647
  C      -3.522661     -1.800260      1.519555
  H      -0.643657     -1.274648      3.403271
  H      -1.655427     -2.728603      3.249117
  H      -2.303515     -1.273351      4.019177
  H      -2.423829     -0.045618      2.022962
  H       2.609498     -2.577796     -3.025528
  H       2.697461     -2.641982     -1.257296
  H       1.196855     -3.072061     -2.089010
  H      -0.071392      0.281652     -3.884299
  H      -0.118479     -1.481598     -3.755425
  H      -1.019908     -0.480865     -2.607774
  H       3.808881      0.117974     -2.778506
  H       2.712083      1.502622     -2.885041
  H       2.662072      0.231143     -4.120086
  H       1.678497     -1.040076      2.828918
  H       2.489230     -2.241946      1.803992
  H       3.445124     -1.189279      2.863140
  H       4.286520     -1.416151     -0.648333
  H       5.110681     -0.550118      0.652330
  H       4.652009      0.311440     -0.819240
  H       4.110820      1.648330      2.083633
  H       2.412700      2.159223      2.153331
  H       3.370411      2.445339      0.685224
  H      -2.936181      0.057967     -0.265401
  H      -2.870869      0.659630     -2.664079
  H      -3.307321      2.337566     -2.275538
  H      -4.441611      1.028688     -1.919421
  H      -3.084275      1.874384      1.509920
  H      -3.504655      3.038238      0.242524
  H      -4.583391      1.674750      0.572384
  H      -1.823466      3.245513     -1.027675
  H       0.946240      3.017603      0.233669
  H      -0.529013      3.577641      1.046072
  H       0.132817      4.488928     -0.327803
  H      -0.821939      2.185361     -3.058670
  H       0.768643      2.225658     -2.267190
  H      -0.073226      3.740293     -2.643062
  H       0.100540     -2.124642     -0.469506
  H      -1.356478     -3.550290     -1.682657
  H      -2.708281     -3.339092     -0.562317
  H      -2.192999     -1.993747     -1.600505
  H       0.310897     -3.222069      1.736936
  H      -1.293271     -3.965485      1.521936
  H       0.012654     -4.340637      0.392892
  H      -4.245049     -1.587181      2.318209
  H      -3.409848     -2.888198      1.464044
  H      -3.953860     -1.453198      0.574914
>
71
-2241.31662247; 31P isotropic shielding: 196.161557 ppm
  C      -2.051731     -2.197701      2.540877
  C      -2.282009     -1.653174      1.112907
  N      -1.020006     -1.392138      0.351062
  P      -0.349513      0.154231      0.245845
  C       1.299626      0.265684      0.045477
  Si      2.094958      0.231659     -1.633834
  C       0.912794     -0.060944     -3.088747
  C       3.057951      1.830363     -1.973604
  C       3.305580     -1.226389     -1.815913
  Si      2.403623      0.400685      1.549365
  C       2.405126      2.172380      2.225845
  C       1.985455     -0.826389      2.934728
  C       4.224325      0.024351      1.161889
  N      -1.291556      1.102792     -0.787534
  C      -0.942902      2.568846     -0.739253
  C      -1.983416      3.457239     -0.031153
  C      -0.572080      3.175247     -2.105231
  C      -2.590722      0.610484     -1.327503
  C      -3.847618      0.986721     -0.505151
  C      -2.817788      0.960785     -2.809020
  Cl     -0.908613      0.970136      2.204391
  C      -0.213396     -2.507022     -0.237997
  C      -0.795755     -3.050582     -1.558941
  C       0.109958     -3.650640      0.736401
  C      -3.302335     -2.530557      0.366636
  H      -1.829291     -3.268540      2.546042
  H      -2.966610     -2.044830      3.129184
  H      -1.238867     -1.665806      3.040488
  H      -2.739207     -0.670958      1.236829
  H       1.495722      0.024986     -4.017567
  H       0.496806     -1.074742     -3.064897
  H       0.080493      0.639949     -3.152854
  H       3.582038      1.778789     -2.938967
  H       2.392042      2.701952     -1.998413
  H       3.810138      2.018318     -1.197204
  H       4.243566     -1.093233     -1.269975
  H       3.555484     -1.352743     -2.879580
  H       2.850158     -2.165661     -1.472748
  H       3.074615      2.259369      3.094091
  H       2.767162      2.867218      1.454961
  H       1.406236      2.499363      2.532910
  H       2.666401     -0.671468      3.784425
  H       2.128526     -1.857661      2.584542
  H       0.961311     -0.728083      3.305878
  H       4.651025      0.637086      0.359914
  H       4.386887     -1.030323      0.911165
  H       4.800067      0.237290      2.074611
  H      -0.028479      2.593907     -0.135234
  H      -2.868968      3.626732     -0.654085
  H      -1.529125      4.437503      0.163858
  H      -2.293729      3.033804      0.927237
  H      -0.136966      4.169302     -1.936824
  H       0.168327      2.572383     -2.633239
  H      -1.443754      3.305503     -2.753835
  H      -2.486051     -0.475717     -1.285257
  H      -3.660027      0.965723      0.572033
  H      -4.650799      0.271339     -0.726623
  H      -4.219319      1.984089     -0.761156
  H      -3.062054      2.018989     -2.949963
  H      -3.671988      0.377676     -3.178719
  H      -1.947291      0.715548     -3.424136
  H       0.742299     -2.032283     -0.475437
  H      -0.022717     -3.624647     -2.087153
  H      -1.648805     -3.717628     -1.398108
  H      -1.116881     -2.236768     -2.217275
  H       0.856035     -4.306059      0.267777
  H       0.530623     -3.272060      1.672787
  H      -0.765932     -4.267906      0.966656
  H      -4.253772     -2.505289      0.913558
  H      -2.983778     -3.577366      0.315959
  H      -3.489706     -2.178211     -0.652799
>
71
-2241.32078313; 31P isotropic shielding: 177.083831 ppm
  C      -3.226666     -1.995655      1.582138
  C      -2.677872     -1.336501      0.303829
  N      -1.191250     -1.389419      0.152383
  P      -0.299943      0.023401      0.411700
  C       1.263653     -0.037537     -0.175150
  Si      1.708285     -0.884802     -1.782490
  C       2.698668     -2.494998     -1.541750
  C       0.256660     -1.338442     -2.928919
  C       2.769286      0.238930     -2.890033
  Si      2.670043      0.951748      0.566209
  C       2.924431      2.640370     -0.270025
  C       2.600641      1.340856      2.420549
  C       4.303380     -0.007401      0.396212
  N      -1.309984      1.307710     -0.044186
  C      -1.386534      1.460156     -1.534069
  C      -0.463300      2.566843     -2.068198
  C      -2.834367      1.640160     -2.026931
  C      -1.830496      2.476524      0.733313
  C      -3.020404      2.130479      1.646277
  C      -0.756381      3.321187      1.445684
  Cl     -0.384431      0.241703      2.540982
  C      -0.442330     -2.686544      0.297670
  C      -1.054443     -3.844780     -0.503949
  C      -0.154225     -3.122024      1.750237
  C      -3.431938     -1.826674     -0.950832
  H      -4.293221     -1.750606      1.676210
  H      -2.712196     -1.622694      2.473043
  H      -3.144150     -3.088095      1.558039
  H      -2.893936     -0.270530      0.388361
  H       2.053170     -3.352167     -1.310147
  H       3.234999     -2.739772     -2.470490
  H       3.439535     -2.412259     -0.739725
  H       0.598136     -2.120842     -3.622086
  H      -0.627546     -1.715343     -2.409968
  H      -0.047407     -0.479922     -3.541783
  H       2.973663     -0.298264     -3.828009
  H       3.734517      0.524574     -2.460244
  H       2.230044      1.159169     -3.148185
  H       3.070453      2.563324     -1.352939
  H       2.070080      3.306426     -0.094253
  H       3.812913      3.132504      0.152126
  H       2.469739      0.444480      3.036777
  H       1.819583      2.056172      2.694895
  H       3.570500      1.790969      2.681082
  H       4.583561     -0.262764     -0.630637
  H       4.263405     -0.940590      0.974086
  H       5.114171      0.605994      0.815103
  H      -1.033275      0.511626     -1.944473
  H       0.567019      2.388495     -1.751981
  H      -0.773011      3.558256     -1.713404
  H      -0.492782      2.585178     -3.165904
  H      -3.247649      2.616790     -1.745493
  H      -2.854685      1.583362     -3.123040
  H      -3.494938      0.861868     -1.634059
  H      -2.236055      3.129031     -0.047103
  H      -2.732752      1.457632      2.458260
  H      -3.826854      1.660059      1.070366
  H      -3.420338      3.051181      2.092396
  H       0.080314      3.528784      0.771216
  H      -0.366609      2.831922      2.340496
  H      -1.196213      4.281363      1.748167
  H       0.532234     -2.480491     -0.141466
  H      -1.984887     -4.216634     -0.060591
  H      -1.246764     -3.572910     -1.545677
  H      -0.338678     -4.676676     -0.501592
  H       0.484785     -4.015047      1.725057
  H       0.379349     -2.342407      2.299410
  H      -1.063180     -3.375397      2.303566
  H      -3.476077     -2.917373     -1.020466
  H      -2.967299     -1.443364     -1.865276
  H      -4.466350     -1.458503     -0.914613
>
71
-2241.31373810; 31P isotropic shielding: 204.426311 ppm
  C      -1.813519     -1.218409      3.294731
  C      -2.161167     -0.998656      1.806028
  N      -0.981625     -1.102449      0.888135
  P      -0.260622      0.311011      0.302985
  C       1.279280      0.151645     -0.310412
  Si      1.704382      0.126421     -2.127183
  C       1.273688     -1.562684     -2.884683
  C       0.961249      1.455251     -3.268954
  C       3.562425      0.375256     -2.433897
  Si      2.670990     -0.331522      0.856764
  C       3.998072      1.018300      0.931806
  C       2.208824     -0.635781      2.672569
  C       3.462215     -1.974912      0.306072
  N      -1.441058      1.129761     -0.572551
  C      -2.501135      0.349652     -1.288969
  C      -2.317683      0.333582     -2.816702
  C      -3.943032      0.757643     -0.934076
  C      -1.495225      2.629155     -0.715905
  C      -2.439218      3.316071      0.298119
  C      -0.131272      3.344137     -0.678092
  Cl     -0.191239      1.513064      2.140654
  C      -0.412917     -2.421502      0.464485
  C      -1.197926     -3.101499     -0.677455
  C      -0.174156     -3.417019      1.610825
  C      -3.355772     -1.886700      1.410963
  H      -1.658633     -2.276010      3.528947
  H      -2.648292     -0.860043      3.912381
  H      -0.920939     -0.657061      3.578763
  H      -2.490706      0.042008      1.710850
  H       1.726692     -2.378621     -2.306448
  H       0.192578     -1.744128     -2.910891
  H       1.646133     -1.636055     -3.916724
  H       1.534270      2.388219     -3.192178
  H       1.064862      1.097543     -4.304257
  H      -0.089434      1.693569     -3.106716
  H       4.218411     -0.347017     -1.939015
  H       3.882947      1.382568     -2.140075
  H       3.730689      0.282541     -3.517117
  H       4.526386      1.170574     -0.014220
  H       3.537570      1.973038      1.220147
  H       4.745510      0.763445      1.697495
  H       3.030993     -1.208177      3.127631
  H       1.289116     -1.209521      2.812010
  H       2.100573      0.300798      3.228040
  H       4.396865     -2.139682      0.861878
  H       3.699701     -2.025667     -0.761402
  H       2.797358     -2.818973      0.536146
  H      -2.367692     -0.676535     -0.947994
  H      -1.356160     -0.101127     -3.099022
  H      -2.384106      1.336972     -3.255659
  H      -3.112221     -0.273869     -3.270241
  H      -4.213289      1.727706     -1.367547
  H      -4.633744      0.011913     -1.348987
  H      -4.102241      0.800859      0.147658
  H      -1.908999      2.785589     -1.721705
  H      -2.491022      4.387704      0.061336
  H      -2.051029      3.211563      1.314983
  H      -3.456013      2.921418      0.272830
  H      -0.271138      4.363083     -1.062262
  H       0.619247      2.847634     -1.288219
  H       0.253785      3.418842      0.341804
  H       0.564112     -2.160933      0.050177
  H      -0.602738     -3.935733     -1.071105
  H      -2.160356     -3.505657     -0.348274
  H      -1.377188     -2.409646     -1.505894
  H      -1.109900     -3.816743      2.017886
  H       0.398677     -4.267360      1.218352
  H       0.401113     -2.974812      2.428200
  H      -3.654265     -1.755707      0.367263
  H      -4.213717     -1.618012      2.040825
  H      -3.149027     -2.948820      1.580492
>
71
-2241.31489880; 31P isotropic shielding: 188.864075 ppm
  C      -0.156772     -3.842254      0.288120
  C      -0.599790     -2.592832      1.069090
  N      -1.156590     -1.486057      0.210160
  P      -0.305616     -0.035810      0.358822
  C       1.319133     -0.099118     -0.002005
  Si      1.941560     -0.949179     -1.533415
  C       0.605027     -1.721712     -2.637756
  C       2.787910      0.274820     -2.718924
  C       3.191491     -2.316048     -1.123411
  Si      2.548650      0.767377      1.110126
  C       2.042612      2.524733      1.614670
  C       2.903901     -0.275774      2.653569
  C       4.243662      1.017243      0.288166
  N      -1.211401      1.215589     -0.324356
  C      -2.442371      1.744868      0.344917
  C      -3.644107      1.931036     -0.598038
  C      -2.205717      3.030193      1.170152
  C      -0.635538      1.872944     -1.539448
  C      -1.394535      1.531199     -2.839289
  C      -0.421268      3.389244     -1.410937
  Cl     -0.565333      0.388389      2.496972
  C      -2.530801     -1.536268     -0.363545
  C      -3.693921     -1.475246      0.656825
  C      -2.753108     -2.718254     -1.324598
  C      -1.495146     -2.996560      2.255760
  H       0.523373     -3.591164     -0.527017
  H      -1.001484     -4.405183     -0.120657
  H       0.380196     -4.508591      0.976451
  H       0.315448     -2.159577      1.488702
  H       0.151418     -2.624329     -2.224365
  H      -0.200641     -1.015799     -2.864709
  H       1.076935     -1.996001     -3.592373
  H       3.105329     -0.262037     -3.625119
  H       2.092480      1.064242     -3.036863
  H       3.671004      0.761225     -2.296166
  H       4.054357     -1.927482     -0.569090
  H       3.571843     -2.788301     -2.040829
  H       2.735964     -3.100744     -0.505881
  H       1.095947      2.563231      2.161452
  H       2.819917      2.963490      2.257252
  H       1.953524      3.163267      0.725504
  H       2.004552     -0.447460      3.254256
  H       3.652134      0.215826      3.292450
  H       3.308231     -1.254694      2.359609
  H       4.216669      1.779767     -0.499314
  H       4.683322      0.106261     -0.132322
  H       4.929956      1.379408      1.067770
  H      -2.718802      0.972514      1.063789
  H      -3.512853      2.790463     -1.264379
  H      -4.539442      2.121456      0.007784
  H      -3.834037      1.045205     -1.212299
  H      -3.031627      3.149604      1.884317
  H      -1.275838      2.968213      1.739715
  H      -2.177819      3.926338      0.543450
  H       0.360473      1.430472     -1.618910
  H      -0.752253      1.751991     -3.702187
  H      -2.314103      2.114028     -2.953589
  H      -1.656400      0.468861     -2.881290
  H       0.111276      3.642526     -0.489631
  H      -1.362863      3.949219     -1.439414
  H       0.185811      3.729465     -2.260425
  H      -2.584044     -0.630466     -0.971514
  H      -3.926162     -2.461435      1.071134
  H      -3.480826     -0.803054      1.492693
  H      -4.597668     -1.112183      0.149717
  H      -2.837610     -3.670878     -0.790551
  H      -3.699208     -2.561570     -1.860227
  H      -1.951603     -2.797834     -2.063411
  H      -2.352869     -3.599660      1.936736
  H      -1.855110     -2.125115      2.808327
  H      -0.902128     -3.611836      2.944897
>
71
-2241.32052247; 31P isotropic shielding: 176.310959 ppm
  C      -1.465714     -1.850394      3.188736
  C      -2.081282     -1.283218      1.889545
  N      -1.115917     -1.200045      0.745109
  P      -0.289256      0.226527      0.333812
  C       1.235786      0.070718     -0.323472
  Si      1.522329     -0.271196     -2.130098
  C       2.378608     -1.946341     -2.440269
  C      -0.064791     -0.440129     -3.167728
  C       2.655770      1.030914     -2.925000
  Si      2.709860      0.003477      0.833398
  C       3.203323      1.729690      1.444584
  C       2.491792     -1.159676      2.317153
  C       4.277955     -0.665131     -0.004634
  N      -1.366990      1.240074     -0.474422
  C      -2.839131      0.984129     -0.394977
  C      -3.549308      1.184898     -1.744515
  C      -3.535089      1.792694      0.719577
  C      -1.021670      2.656287     -0.892500
  C       0.063807      3.361782     -0.065264
  C      -0.692430      2.772012     -2.390226
  Cl     -0.149008      1.121044      2.321102
  C      -0.744953     -2.413002     -0.047056
  C      -1.797365     -2.805921     -1.103768
  C      -0.322042     -3.622216      0.801670
  C      -3.393729     -2.021508      1.566285
  H      -1.371391     -2.939867      3.162101
  H      -2.119991     -1.593169      4.032933
  H      -0.482471     -1.417026      3.382102
  H      -2.349749     -0.248559      2.108872
  H       1.926746     -2.755925     -1.850869
  H       2.254452     -2.207126     -3.501900
  H       3.451165     -1.937727     -2.226911
  H       0.137260     -0.110994     -4.196892
  H      -0.361913     -1.494387     -3.218562
  H      -0.914589      0.131301     -2.795413
  H       2.257499      2.049720     -2.853484
  H       2.811201      0.804669     -3.989995
  H       3.641701      1.037798     -2.443823
  H       3.494359      2.365657      0.596720
  H       2.397207      2.234148      1.985956
  H       4.071154      1.656613      2.116396
  H       1.655677     -0.888714      2.967617
  H       3.407207     -1.151675      2.926904
  H       2.338066     -2.190845      1.971910
  H       5.102642     -0.528267      0.710241
  H       4.558654     -0.143490     -0.925925
  H       4.210843     -1.736750     -0.223172
  H      -2.927740     -0.074521     -0.157924
  H      -3.089195      0.578443     -2.532360
  H      -3.549362      2.233591     -2.064523
  H      -4.597450      0.873277     -1.644392
  H      -4.556705      1.418514      0.866667
  H      -2.996662      1.713158      1.669302
  H      -3.611367      2.857693      0.464988
  H      -1.948345      3.217978     -0.723490
  H       0.183317      4.378227     -0.462308
  H       1.026514      2.849883     -0.142835
  H      -0.206980      3.435950      0.990074
  H       0.281564      2.335498     -2.616660
  H      -0.653909      3.835750     -2.662090
  H      -1.440152      2.289907     -3.024101
  H       0.151810     -2.101597     -0.588273
  H      -1.345226     -3.501505     -1.823437
  H      -2.668553     -3.305032     -0.667523
  H      -2.143363     -1.929939     -1.661291
  H       0.432109     -3.341037      1.542756
  H      -1.166834     -4.091258      1.318495
  H       0.116491     -4.380068      0.138899
  H      -3.881273     -1.640199      0.663180
  H      -4.086625     -1.882163      2.406237
  H      -3.241646     -3.099205      1.444760
>
71
-2241.31627008; 31P isotropic shielding: 194.305783 ppm
  C      -0.407729     -3.889810     -0.420000
  C      -0.561930     -2.742385      0.596404
  N      -1.112266     -1.474692      0.001267
  P      -0.224996     -0.072114      0.347646
  C       1.356419     -0.007325     -0.167412
  Si      2.067868     -1.126212     -1.471156
  C       2.838344     -2.711728     -0.761328
  C       0.830135     -1.499281     -2.859551
  C       3.508919     -0.328926     -2.420104
  Si      2.528574      1.257228      0.574934
  C       3.078340      2.560473     -0.697598
  C       1.865578      2.312901      2.001305
  C       4.066892      0.373059      1.242656
  N      -1.148171      1.293145     -0.006331
  C      -2.334045      1.685296      0.824079
  C      -3.603362      2.005390      0.012881
  C      -2.041341      2.819757      1.828131
  C      -0.729124      2.080255     -1.214175
  C      -1.527884      1.723879     -2.484188
  C      -0.664988      3.597202     -0.987224
  Cl     -0.332096     -0.068062      2.558334
  C      -2.524846     -1.373301     -0.467882
  C      -3.603796     -1.559627      0.624124
  C      -2.855029     -2.259790     -1.684332
  C      -1.295382     -3.268390      1.848870
  H       0.231389     -4.665813      0.020515
  H       0.055678     -3.563640     -1.352151
  H      -1.368963     -4.358715     -0.652611
  H       0.446473     -2.456646      0.916479
  H       3.134760     -3.397739     -1.568196
  H       3.747720     -2.445314     -0.205210
  H       2.191601     -3.263920     -0.073946
  H       1.218367     -2.279386     -3.529891
  H      -0.150648     -1.813248     -2.501476
  H       0.688911     -0.589701     -3.459759
  H       3.874026     -1.077162     -3.139763
  H       4.360219     -0.039352     -1.794867
  H       3.191647      0.548914     -2.995725
  H       2.222392      3.136129     -1.073267
  H       3.753016      3.274381     -0.202252
  H       3.609180      2.149332     -1.560038
  H       0.925938      2.817057      1.752041
  H       2.615275      3.092365      2.201888
  H       1.707460      1.744380      2.921874
  H       4.761829      1.094087      1.696571
  H       4.616417     -0.174835      0.467865
  H       3.776014     -0.349168      2.017404
  H      -2.555787      0.803394      1.428181
  H      -4.441924      2.125193      0.710602
  H      -3.865513      1.209164     -0.690414
  H      -3.510174      2.940939     -0.548475
  H      -1.927159      3.791263      1.338643
  H      -2.883605      2.896620      2.529196
  H      -1.141604      2.605068      2.409115
  H       0.295291      1.744998     -1.395142
  H      -1.045376      2.187839     -3.355133
  H      -2.563108      2.078287     -2.451097
  H      -1.534570      0.640761     -2.648631
  H      -0.065444      3.846273     -0.106403
  H      -1.654152      4.056068     -0.879017
  H      -0.186499      4.059180     -1.860620
  H      -2.600413     -0.346310     -0.824522
  H      -3.805291     -2.617083      0.823501
  H      -3.319818     -1.086483      1.568618
  H      -4.543549     -1.105740      0.282895
  H      -2.956100     -3.316302     -1.417303
  H      -3.819060     -1.934354     -2.098176
  H      -2.102510     -2.169965     -2.473394
  H      -2.232200     -3.773228      1.589724
  H      -1.501837     -2.473937      2.568833
  H      -0.649982     -4.009197      2.339189
>
71
-2241.31806824; 31P isotropic shielding: 173.076858 ppm
  C      -2.577299     -2.914207      0.661731
  C      -2.571424     -1.506739      0.025371
  N      -1.232443     -1.082633     -0.497140
  P      -0.286020     -0.020773      0.417463
  C       1.334090      0.043268      0.034107
  Si      2.407228     -1.471214      0.325506
  C       3.820401     -1.081932      1.525065
  C       1.555809     -2.993305      1.074072
  C       3.119524     -2.109427     -1.322256
  Si      2.111476      1.421170     -0.954759
  C       1.657764      1.265123     -2.794138
  C       1.767135      3.222499     -0.445445
  C       4.009118      1.374119     -0.886765
  N      -1.167240      1.404812      0.572176
  C      -1.066995      2.327757      1.760127
  C       0.301352      2.342873      2.470114
  C      -2.168713      2.095913      2.820640
  C      -2.105589      1.815779     -0.521452
  C      -3.560684      2.037756     -0.066235
  C      -1.617626      3.038997     -1.318659
  Cl     -0.531773     -0.888139      2.418675
  C      -0.687251     -1.585867     -1.797471
  C      -1.278918     -0.882345     -3.037222
  C      -0.752356     -3.111507     -1.971873
  C      -3.719286     -1.389079     -0.994732
  H      -3.488444     -3.029091      1.264556
  H      -1.718629     -3.053094      1.321982
  H      -2.578164     -3.706316     -0.093288
  H      -2.784318     -0.795562      0.831016
  H       4.549284     -0.368255      1.129039
  H       3.410275     -0.665813      2.455296
  H       4.358610     -2.006448      1.780506
  H       0.570586     -3.206839      0.651488
  H       2.200559     -3.862450      0.875479
  H       1.436168     -2.901464      2.158096
  H       3.898255     -2.860523     -1.125260
  H       3.562388     -1.330199     -1.951246
  H       2.334829     -2.602962     -1.911662
  H       2.220138      1.992417     -3.397428
  H       1.894792      0.262279     -3.172947
  H       0.590959      1.439418     -2.977760
  H       0.736492      3.454918     -0.178824
  H       2.044873      3.866675     -1.293051
  H       2.405587      3.509765      0.400002
  H       4.464852      0.434140     -1.211952
  H       4.374112      1.596357      0.123670
  H       4.382316      2.167948     -1.550446
  H      -1.215754      3.328959      1.333275
  H       0.415741      1.483330      3.134944
  H       0.359063      3.254291      3.079148
  H       1.136219      2.340904      1.773338
  H      -3.177849      2.224094      2.426124
  H      -2.085971      1.092505      3.247598
  H      -2.033965      2.823161      3.632971
  H      -2.110798      0.972080     -1.211332
  H      -4.200887      2.124237     -0.953984
  H      -3.671704      2.967026      0.504657
  H      -3.934031      1.208084      0.541532
  H      -0.644270      2.858834     -1.779663
  H      -1.541705      3.937791     -0.693916
  H      -2.338049      3.256954     -2.118115
  H       0.368199     -1.305281     -1.759146
  H      -0.679402     -1.147011     -3.917978
  H      -2.313029     -1.178689     -3.236870
  H      -1.242648      0.206369     -2.935033
  H      -0.335241     -3.643028     -1.112940
  H      -1.775734     -3.467340     -2.138023
  H      -0.165082     -3.388260     -2.857238
  H      -4.670922     -1.540361     -0.468823
  H      -3.653462     -2.157028     -1.773263
  H      -3.756116     -0.409024     -1.477832
>
71
-2241.31462121; 31P isotropic shielding: 188.135143 ppm
  C      -1.795520     -1.268558      3.278202
  C      -2.149650     -1.021784      1.795169
  N      -0.973757     -1.108698      0.870799
  P      -0.254658      0.314795      0.308420
  C       1.283367      0.166203     -0.312815
  Si      1.700047      0.170417     -2.132237
  C       1.262390     -1.503424     -2.919200
  C       0.955548      1.522292     -3.245601
  C       3.557719      0.420795     -2.442544
  Si      2.679252     -0.336868      0.840443
  C       4.007832      1.010361      0.932872
  C       2.224349     -0.670457      2.652690
  C       3.465358     -1.971790      0.259504
  N      -1.438166      1.147793     -0.549320
  C      -2.500814      0.379903     -1.275121
  C      -2.323207      0.391456     -2.803600
  C      -3.941502      0.781199     -0.907297
  C      -1.493061      2.649444     -0.666691
  C      -2.434483      3.318665      0.361326
  C      -0.129034      3.364048     -0.619888
  Cl     -0.179565      1.485798      2.166072
  C      -0.404900     -2.420025      0.423854
  C      -1.193322     -3.081806     -0.726407
  C      -0.161862     -3.433859      1.553007
  C      -3.345412     -1.903166      1.389048
  H      -1.641039     -2.330431      3.492371
  H      -2.626814     -0.920144      3.906122
  H      -0.900740     -0.713621      3.567889
  H      -2.479698      0.020403      1.720380
  H       0.181143     -1.683514     -2.947273
  H       1.633319     -1.557009     -3.952993
  H       1.715569     -2.330619     -2.357335
  H       1.529476      2.453067     -3.151579
  H       1.057048      1.184718     -4.287882
  H      -0.094704      1.758062     -3.076976
  H       3.880774      1.422071     -2.131251
  H       3.722679      0.348082     -3.527747
  H       4.214619     -0.311119     -1.963236
  H       4.756700      0.743306      1.692936
  H       4.534212      1.176519     -0.011923
  H       3.548707      1.960963      1.236675
  H       2.115140      0.256321      3.224076
  H       3.050232     -1.247531      3.095032
  H       1.307144     -1.249703      2.786153
  H       4.404337     -2.146771      0.804676
  H       3.692927     -2.007586     -0.810686
  H       2.800372     -2.817522      0.483316
  H      -2.366432     -0.652076     -0.952462
  H      -1.362569     -0.037627     -3.097129
  H      -2.392033      1.402633     -3.223679
  H      -3.119248     -0.208241     -3.264783
  H      -4.214164      1.758407     -1.322733
  H      -4.633594      0.042244     -1.331864
  H      -4.095688      0.805846      0.175758
  H      -1.909478      2.822947     -1.668525
  H      -3.452052      2.926457      0.330349
  H      -2.484613      4.394678      0.144972
  H      -2.044455      3.193946      1.375187
  H       0.623235      2.871612     -1.231083
  H       0.253291      3.430575      0.401633
  H      -0.267314      4.385896     -0.996772
  H       0.570454     -2.151767      0.010506
  H      -0.599751     -3.910057     -1.134776
  H      -2.154914     -3.490484     -0.400411
  H      -1.375019     -2.376846     -1.543141
  H      -1.096099     -3.843797      1.953431
  H       0.413914     -4.275327      1.145887
  H       0.412148     -3.004018      2.377736
  H      -3.648023     -1.754015      0.348978
  H      -4.201037     -1.646361      2.026968
  H      -3.137412     -2.968004      1.539022
>
71
-2241.31488626; 31P isotropic shielding: 188.763540 ppm
  C      -1.290640     -0.871827      3.605470
  C      -1.899334     -0.665982      2.202745
  N      -0.943337     -0.961258      1.084246
  P      -0.147477      0.274182      0.260097
  C       1.289285     -0.167235     -0.453601
  Si      1.623194     -0.086389     -2.281389
  C       0.140659     -0.603963     -3.339984
  C       2.291569      1.600148     -2.839497
  C       2.961452     -1.319476     -2.829788
  Si      2.721599     -0.728677      0.624415
  C       3.153754     -2.558321      0.333222
  C       4.249732      0.333062      0.259747
  C       2.477038     -0.645435      2.501496
  N      -1.265748      1.158301     -0.656472
  C      -2.701667      0.751063     -0.686928
  C      -3.272805      0.518586     -2.099116
  C      -3.658307      1.642972      0.132132
  C      -0.814454      2.529419     -1.080414
  C      -1.056857      2.832266     -2.570564
  C      -1.352217      3.707619     -0.235588
  Cl      0.228887      1.684530      1.928113
  C      -0.676307     -2.360717      0.611003
  C      -1.724352     -2.873259     -0.397544
  C      -0.427148     -3.371127      1.739370
  C      -3.251795     -1.395763      2.100552
  H      -1.171453     -1.930288      3.854979
  H      -1.962217     -0.427251      4.352636
  H      -0.322549     -0.373616      3.687203
  H      -2.106296      0.404104      2.117070
  H      -0.743834      0.016194     -3.195458
  H       0.411655     -0.563971     -4.404857
  H      -0.135414     -1.641779     -3.107669
  H       3.232233      1.810898     -2.312994
  H       2.507500      1.594917     -3.917832
  H       1.613239      2.435171     -2.640618
  H       2.635419     -2.359185     -2.703764
  H       3.926760     -1.201066     -2.326951
  H       3.131083     -1.157672     -3.904595
  H       3.377493     -2.806509     -0.707282
  H       4.038462     -2.815387      0.934403
  H       2.337936     -3.213333      0.666630
  H       4.038269      1.384339      0.497929
  H       4.572778      0.288256     -0.786841
  H       5.096486      0.011066      0.882897
  H       1.564120     -1.147765      2.836923
  H       2.457116      0.377850      2.886468
  H       3.329073     -1.169116      2.959907
  H      -2.696355     -0.230040     -0.215102
  H      -2.632929     -0.143496     -2.688706
  H      -3.421603      1.447873     -2.656858
  H      -4.254659      0.035436     -2.000916
  H      -4.591919      1.093427      0.311547
  H      -3.234024      1.918527      1.102282
  H      -3.921000      2.563150     -0.400441
  H       0.270260      2.500499     -0.927584
  H      -0.499353      3.739502     -2.837919
  H      -2.113402      3.034728     -2.775906
  H      -0.719908      2.027364     -3.226127
  H      -0.711444      4.580828     -0.417123
  H      -1.326751      3.492783      0.833914
  H      -2.371279      3.985959     -0.523981
  H       0.259001     -2.271098      0.053113
  H      -1.849328     -2.162820     -1.222608
  H      -1.376325     -3.822067     -0.828038
  H      -2.703889     -3.054943      0.056609
  H       0.355722     -3.027445      2.422443
  H      -1.328227     -3.590706      2.322423
  H      -0.090743     -4.315286      1.291650
  H      -3.747086     -1.243092      1.136822
  H      -3.916389     -1.004551      2.881387
  H      -3.153251     -2.473508      2.266909
