31
-883.24404407; 31P isotropic shielding: 269.264022 ppm
  C       2.605340     -1.781910      0.788878
  C       2.415105     -0.308130      1.174770
  C       2.427651      0.646417     -0.024793
  O       1.413281      0.230833     -1.015916
  P      -0.144933      0.605621     -1.050926
  O      -0.891281     -0.197169     -2.046115
  O      -0.655191      0.559271      0.477314
  C      -1.751770     -0.305073      0.982408
  C      -3.088718      0.038575      0.315587
  C      -3.471186      1.521682      0.418645
  C      -1.372255     -1.779952      0.864923
  C       2.291034      2.117252      0.369766
  H       1.816136     -2.117870      0.107301
  H       3.568854     -1.936954      0.283758
  H       2.586747     -2.423912      1.678770
  H       3.225603      0.008745      1.849223
  H       1.474667     -0.169629      1.723660
  H       3.363494      0.507532     -0.583598
  H      -0.160587      1.995986     -1.283646
  H      -1.792071     -0.014299      2.041262
  H      -3.052102     -0.275828     -0.734722
  H      -3.855034     -0.576771      0.811600
  H      -2.753581      2.157761     -0.113547
  H      -3.501713      1.856702      1.465210
  H      -4.461066      1.698113     -0.020374
  H      -0.414231     -1.978435      1.358512
  H      -1.299620     -2.078980     -0.186636
  H      -2.140013     -2.395795      1.352223
  H       2.281322      2.765343     -0.514862
  H       3.149397      2.405134      0.990362
  H       1.378420      2.293740      0.951760
>
31
-883.24185330; 31P isotropic shielding: 279.618040 ppm
  C       2.355842     -0.651952      2.149283
  C       2.027796      0.666491      1.434317
  C       2.307233      0.632899     -0.071987
  O       1.570641     -0.486664     -0.699480
  P       0.068641     -0.515494     -1.240183
  O      -0.436675     -1.874751     -1.532560
  O      -0.755771      0.336924     -0.143809
  C      -2.208851      0.118876      0.048334
  C      -2.433228     -0.273236      1.509884
  C      -1.752323     -1.589876      1.910522
  C      -2.928546      1.400053     -0.362031
  C       2.042924      1.965525     -0.772664
  H       3.418075     -0.910563      2.036538
  H       2.140818     -0.577161      3.222710
  H       1.767348     -1.481248      1.741101
  H       2.636316      1.481384      1.856524
  H       0.976670      0.939603      1.591412
  H       3.352372      0.337375     -0.237656
  H       0.084094      0.331771     -2.369600
  H      -2.504072     -0.715794     -0.601595
  H      -2.086185      0.551237      2.151744
  H      -3.520404     -0.353488      1.663137
  H      -0.662591     -1.514674      1.829146
  H      -2.073111     -2.414987      1.261958
  H      -1.996465     -1.852603      2.947726
  H      -2.729292      1.641995     -1.413103
  H      -2.600043      2.244262      0.257999
  H      -4.012902      1.280772     -0.238200
  H       2.230641      1.888971     -1.850466
  H       2.719117      2.728084     -0.365214
  H       1.012530      2.304366     -0.612286
>
31
-883.24388110; 31P isotropic shielding: 278.637604 ppm
  C       3.723391     -0.318929     -1.511940
  C       3.130596     -0.760260     -0.166412
  C       2.395629      0.356307      0.584380
  O       1.351647      0.962690     -0.277031
  P      -0.036505      0.263176     -0.652226
  O      -0.052650     -1.204269     -0.884880
  O      -1.032183      0.811142      0.491913
  C      -2.318376      0.166805      0.852574
  C      -3.215057     -0.050633     -0.372229
  C      -3.569152      1.240265     -1.126301
  C      -2.065175     -1.107461      1.656778
  C       1.821664     -0.090098      1.927819
  H       4.278629     -1.142268     -1.978585
  H       2.935733     -0.008909     -2.208249
  H       4.415070      0.526419     -1.387544
  H       3.935407     -1.112647      0.497555
  H       2.440648     -1.600820     -0.314119
  H       3.078055      1.203280      0.737915
  H      -0.353703      1.045077     -1.780435
  H      -2.776174      0.927314      1.500131
  H      -2.732771     -0.776049     -1.042412
  H      -4.138081     -0.529307     -0.011904
  H      -2.676206      1.736464     -1.524730
  H      -4.078560      1.957025     -0.467344
  H      -4.237041      1.027053     -1.970384
  H      -1.413450     -0.898008      2.513177
  H      -1.594421     -1.873905      1.032300
  H      -3.018714     -1.494774      2.040366
  H       2.644275     -0.368746      2.599505
  H       1.169511     -0.962614      1.805487
  H       1.248163      0.717281      2.396224
>
31
-883.24518272; 31P isotropic shielding: 270.605899 ppm
  C       2.206157     -1.332906      1.550028
  C       3.084081     -0.339746      0.774499
  C       2.393973      0.278275     -0.442559
  O       1.284639      1.134023      0.048194
  P      -0.221702      0.896509     -0.441754
  O      -0.413559      0.298613     -1.788058
  O      -0.892308      0.108122      0.791786
  C      -2.035342     -0.830133      0.669389
  C      -3.243834     -0.174936     -0.009123
  C      -3.744691      1.094774      0.696440
  C      -1.587880     -2.130920      0.004473
  C       3.304745      1.165747     -1.285421
  H       1.886793     -2.159741      0.900170
  H       2.759078     -1.766445      2.393027
  H       1.305912     -0.845149      1.939414
  H       3.992483     -0.846693      0.415272
  H       3.414626      0.474923      1.435836
  H       1.956565     -0.506799     -1.073859
  H      -0.706194      2.208676     -0.289397
  H      -2.276975     -1.019898      1.724450
  H      -2.992355      0.036060     -1.057702
  H      -4.047314     -0.926799     -0.021410
  H      -3.984434      0.894867      1.750069
  H      -4.652153      1.475168      0.210910
  H      -2.994863      1.894732      0.674730
  H      -0.719529     -2.548396      0.527158
  H      -1.324791     -1.959218     -1.044452
  H      -2.401947     -2.866645      0.052961
  H       4.165299      0.588608     -1.648282
  H       3.676915      2.008976     -0.689181
  H       2.760905      1.558849     -2.152009
>
31
-883.24745669; 31P isotropic shielding: 269.953558 ppm
  C       4.265946     -0.385920     -0.799263
  C       2.856781     -0.674845     -0.254827
  C       1.798984      0.301163     -0.788407
  O       0.430139     -0.174910     -0.474874
  P      -0.067435     -0.573016      1.008520
  O       0.593901      0.093391      2.152844
  O      -1.644629     -0.323900      0.956106
  C      -2.590942     -0.570535     -0.152177
  C      -2.559474      0.587739     -1.156277
  C      -2.744289      1.969077     -0.512421
  C      -2.375172     -1.940428     -0.794274
  C       1.961503      1.744684     -0.316599
  H       4.276350     -0.377055     -1.898537
  H       4.647401      0.581734     -0.451043
  H       4.971191     -1.157351     -0.466226
  H       2.860979     -0.636405      0.842803
  H       2.556390     -1.692155     -0.545443
  H       1.807969      0.267494     -1.886706
  H       0.066404     -1.978443      1.024812
  H      -3.556681     -0.563185      0.371654
  H      -1.615114      0.550753     -1.713509
  H      -3.367101      0.401053     -1.881294
  H      -3.690519      2.026691      0.043557
  H      -2.757040      2.754904     -1.278373
  H      -1.932510      2.189522      0.189664
  H      -2.389554     -2.735739     -0.039338
  H      -1.423067     -1.981082     -1.336998
  H      -3.183142     -2.137333     -1.510786
  H       1.148568      2.365302     -0.711900
  H       2.910477      2.156410     -0.682763
  H       1.944688      1.797886      0.777275
>
31
-883.24094064; 31P isotropic shielding: 278.925961 ppm
  C       3.825072      0.871062     -1.201076
  C       3.542702      0.165690      0.133060
  C       2.113476      0.369242      0.642571
  O       1.208558     -0.218595     -0.363141
  P      -0.093689      0.577556     -0.875426
  O      -0.739084     -0.092376     -2.026738
  O      -1.002428      0.875588      0.419882
  C      -2.201154      0.082540      0.794032
  C      -3.363616      0.378363     -0.160307
  C      -3.707600      1.869787     -0.276136
  C      -1.870379     -1.405318      0.905932
  C       1.841747     -0.286724      1.992929
  H       3.173356      0.487021     -1.994407
  H       3.660147      1.954768     -1.118775
  H       4.865180      0.715419     -1.513532
  H       4.229496      0.536462      0.908795
  H       3.723816     -0.915153      0.038041
  H       1.902625      1.449704      0.705841
  H       0.389125      1.887335     -1.089387
  H      -2.435146      0.486756      1.788596
  H      -3.123108     -0.035581     -1.147423
  H      -4.235230     -0.175852      0.221130
  H      -3.946744      2.304192      0.705103
  H      -4.576605      2.017037     -0.929565
  H      -2.871056      2.438448     -0.698994
  H      -1.025365     -1.572357      1.583022
  H      -1.624751     -1.827394     -0.075382
  H      -2.741048     -1.941772      1.305691
  H       2.525667      0.114514      2.752387
  H       1.993134     -1.371462      1.926381
  H       0.814102     -0.092601      2.317394
>
31
-883.24583022; 31P isotropic shielding: 266.747761 ppm
  C       3.822781      0.931890     -1.194926
  C       3.542237      0.174619      0.110848
  C       2.118164      0.369730      0.637484
  O       1.202937     -0.170204     -0.384888
  P      -0.106840      0.645675     -0.845540
  O      -0.751267      0.039269     -2.032291
  O      -1.014021      0.860792      0.466708
  C      -2.197192      0.030932      0.807260
  C      -3.372730      0.362262     -0.119153
  C      -3.734435      1.853679     -0.153385
  C      -1.844545     -1.455717      0.833757
  C       1.849111     -0.334919      1.963799
  H       4.858348      0.776756     -1.522355
  H       3.160140      0.589361     -1.998134
  H       3.672142      2.013146     -1.066022
  H       4.237388      0.506412      0.896677
  H       3.712143     -0.902998     -0.030341
  H       1.916722      1.448807      0.743600
  H       0.367021      1.969602     -0.981080
  H      -2.428058      0.375980      1.824577
  H      -3.137509      0.003674     -1.128937
  H      -4.233961     -0.221401      0.241316
  H      -4.613938      2.024128     -0.786784
  H      -2.910029      2.452766     -0.557586
  H      -3.964572      2.234430      0.851995
  H      -1.602701     -1.820044     -0.171406
  H      -2.704350     -2.025497      1.210373
  H      -0.991354     -1.648046      1.493597
  H       0.824748     -0.145855      2.301214
  H       2.540289      0.032862      2.733565
  H       1.992328     -1.417493      1.856057
>
31
-883.24577430; 31P isotropic shielding: 266.490431 ppm
  C       3.838122      0.799566     -1.193250
  C       3.544308      0.146470      0.164933
  C       2.110821      0.369346      0.653915
  O       1.213891     -0.255418     -0.336529
  P      -0.079385      0.524699     -0.894368
  O      -0.721343     -0.192367     -2.018985
  O      -0.994747      0.885943      0.379508
  C      -2.207600      0.125505      0.775166
  C      -3.355423      0.389461     -0.206209
  C      -3.679222      1.877803     -0.396651
  C      -1.895330     -1.358939      0.960047
  C       1.827118     -0.235393      2.025499
  H       3.670093      1.885262     -1.155227
  H       4.881612      0.634399     -1.489160
  H       3.195034      0.382963     -1.977132
  H       4.224362      0.547515      0.931494
  H       3.726575     -0.937147      0.113434
  H       1.900304      1.451537      0.674928
  H       0.413865      1.820196     -1.164955
  H      -2.448567      0.578943      1.746550
  H      -3.108887     -0.073164     -1.169921
  H      -4.237993     -0.135734      0.190721
  H      -3.924372      2.361279      0.559842
  H      -4.538346      2.004543     -1.067225
  H      -2.830478      2.415326     -0.835652
  H      -1.060020     -1.503284      1.654265
  H      -1.642864     -1.827963      0.002017
  H      -2.776318     -1.867503      1.373364
  H       2.505065      0.193993      2.774901
  H       1.978299     -1.321949      2.001248
  H       0.796926     -0.029287      2.334432
>
31
-883.24579282; 31P isotropic shielding: 266.892401 ppm
  C       3.591779     -0.838601      1.703672
  C       2.287255     -0.732169      0.894749
  C       2.354674      0.337535     -0.204838
  O       1.258116      0.132767     -1.170716
  P      -0.261811      0.632143     -1.062548
  O      -1.127676      0.024918     -2.098395
  O      -0.686273      0.427960      0.478213
  C      -1.843753     -0.374687      0.943830
  C      -3.168665      0.173505      0.400809
  C      -3.382187      1.669110      0.677994
  C      -1.622105     -1.855015      0.635913
  C       2.399836      1.773808      0.319170
  H       4.457091     -1.003920      1.046225
  H       3.785211      0.067036      2.292691
  H       3.542104     -1.681334      2.404468
  H       1.443336     -0.510125      1.559547
  H       2.074247     -1.693725      0.408454
  H       3.246082      0.152492     -0.819853
  H      -0.170774      2.038092     -1.123758
  H      -1.806603     -0.210426      2.029647
  H      -3.220434     -0.025075     -0.676834
  H      -3.970199     -0.409677      0.879466
  H      -3.274032      1.898629      1.747677
  H      -4.386687      1.981191      0.365991
  H      -2.658623      2.285641      0.131017
  H      -2.414652     -2.451748      1.107126
  H      -0.657832     -2.194078      1.032013
  H      -1.643596     -2.032160     -0.445172
  H       2.401122      2.492871     -0.508765
  H       3.318989      1.927188      0.897292
  H       1.546156      1.986654      0.974715
>
31
-883.24066242; 31P isotropic shielding: 280.198939 ppm
  C       3.989266     -0.726813      0.145040
  C       3.392261      0.687312      0.181320
  C       1.952317      0.758362     -0.332797
  O       1.132472     -0.081445      0.563441
  P       0.048788     -1.112168     -0.025816
  O      -0.539909     -1.996231      1.003950
  O      -0.983018     -0.219473     -0.883671
  C      -2.437986     -0.200337     -0.593372
  C      -2.786095      1.094585      0.144733
  C      -2.139469      1.226140      1.531865
  C      -3.148721     -0.349798     -1.933964
  C       1.372108      2.169511     -0.354089
  H       3.416133     -1.411964      0.780404
  H       3.990408     -1.130575     -0.877454
  H       5.026583     -0.722450      0.502297
  H       3.999205      1.369553     -0.432685
  H       3.410325      1.081812      1.207992
  H       1.908529      0.323570     -1.345355
  H       0.762315     -1.752099     -1.064113
  H      -2.646714     -1.062971      0.052584
  H      -2.508478      1.947802     -0.493207
  H      -3.882071      1.123347      0.244848
  H      -2.387835      0.366430      2.167070
  H      -2.490140      2.136355      2.035015
  H      -1.047455      1.280129      1.465487
  H      -2.856943     -1.285573     -2.424952
  H      -2.899500      0.486437     -2.600122
  H      -4.236143     -0.362453     -1.784503
  H       0.342681      2.158238     -0.726452
  H       1.973108      2.812921     -1.010271
  H       1.378476      2.600445      0.654977
>
31
-883.24724523; 31P isotropic shielding: 266.784737 ppm
  C       2.131730     -1.997835      0.240898
  C       2.834110     -0.710132      0.697013
  C       2.448119      0.534393     -0.105713
  O       1.012169      0.830981      0.122478
  P      -0.115787      0.498194     -0.979133
  O       0.361578     -0.047894     -2.268449
  O      -1.180106     -0.451681     -0.239194
  C      -1.888440     -0.002062      0.976219
  C      -3.363833     -0.367055      0.795724
  C      -4.028797      0.329076     -0.400485
  C      -1.237671     -0.650729      2.194535
  C       3.219650      1.786448      0.296408
  H       1.047280     -1.939032      0.383990
  H       2.312425     -2.190060     -0.824309
  H       2.499126     -2.860378      0.811595
  H       3.924215     -0.831091      0.602028
  H       2.632747     -0.516678      1.761924
  H       2.567430      0.335771     -1.178693
  H      -0.793484      1.736567     -1.040954
  H      -1.793082      1.094561      1.042717
  H      -3.437553     -1.459498      0.689828
  H      -3.888152     -0.101518      1.726025
  H      -3.975368      1.422721     -0.302575
  H      -5.088068      0.052896     -0.473957
  H      -3.540375      0.047588     -1.340610
  H      -0.187859     -0.351745      2.279169
  H      -1.288353     -1.744016      2.116758
  H      -1.762078     -0.342699      3.108777
  H       2.894200      2.649278     -0.296588
  H       4.294020      1.637423      0.127318
  H       3.064007      2.014507      1.358957
>
31
-883.24728646; 31P isotropic shielding: 267.073104 ppm
  C       4.439346     -0.984600     -0.174894
  C       3.097333     -0.453819     -0.706370
  C       2.351428      0.416955      0.312629
  O       1.225536      1.101719     -0.367148
  P      -0.171616      0.410797     -0.728261
  O      -0.173382     -1.013211     -1.152756
  O      -1.083219      0.768824      0.553436
  C      -2.329368      0.049642      0.911855
  C      -3.318747     -0.001856     -0.258608
  C      -3.742042      1.379360     -0.781515
  C      -2.000308     -1.324398      1.493925
  C       1.887570     -0.322491      1.566623
  H       4.980451     -1.518042     -0.966189
  H       5.084981     -0.166410      0.175738
  H       4.302092     -1.684706      0.658819
  H       2.444989     -1.282756     -1.009900
  H       3.271522      0.159319     -1.601532
  H       2.990676      1.261157      0.605268
  H      -0.596117      1.323295     -1.713984
  H      -2.741718      0.695466      1.699470
  H      -2.886697     -0.610824     -1.065484
  H      -4.206345     -0.546779      0.096660
  H      -4.203162      1.979520      0.015039
  H      -4.472612      1.280877     -1.594257
  H      -2.887177      1.946751     -1.168290
  H      -1.278493     -1.230049      2.313644
  H      -1.579152     -1.980437      0.725158
  H      -2.914894     -1.782087      1.894410
  H       1.287137     -1.202454      1.307379
  H       1.291737      0.338046      2.205890
  H       2.760550     -0.657708      2.140146
>
31
-883.24375032; 31P isotropic shielding: 269.955970 ppm
  C       2.743366     -2.016661      0.863430
  C       3.325468     -0.685186      0.368236
  C       2.354589      0.141811     -0.474660
  O       1.193023      0.441530      0.393223
  P      -0.189384      0.967555     -0.254806
  O      -0.434835      0.520471     -1.649871
  O      -1.276741      0.627238      0.866802
  C      -2.096396     -0.609435      0.895519
  C      -3.149915     -0.589799     -0.218710
  C      -4.041316      0.659923     -0.209425
  C      -1.216424     -1.857264      0.880242
  C       2.964448      1.442722     -0.995040
  H       1.892941     -1.846743      1.532324
  H       2.393225     -2.632378      0.023302
  H       3.498575     -2.593672      1.412048
  H       4.215154     -0.872929     -0.251527
  H       3.658017     -0.074933      1.221473
  H       1.978621     -0.457136     -1.315173
  H      -0.143502      2.363998     -0.071302
  H      -2.596050     -0.522304      1.869903
  H      -2.643965     -0.686761     -1.187542
  H      -3.768747     -1.490198     -0.082097
  H      -4.805551      0.595560     -0.994117
  H      -3.452782      1.566919     -0.389596
  H      -4.556660      0.778373      0.754406
  H      -0.465867     -1.815633      1.676671
  H      -0.703840     -1.966946     -0.082903
  H      -1.841570     -2.745754      1.039601
  H       2.250896      1.987157     -1.625250
  H       3.849913      1.223903     -1.606122
  H       3.268810      2.088472     -0.161138
>
31
-883.24705647; 31P isotropic shielding: 267.809127 ppm
  C       3.571999     -0.994607      1.563371
  C       2.183896     -0.370415      1.343092
  C       1.954540      0.102359     -0.095045
  O       0.542218      0.544196     -0.166952
  P      -0.378260      0.189811     -1.445679
  O       0.165298     -0.815821     -2.385670
  O      -1.797933     -0.217462     -0.833061
  C      -2.506580      0.369685      0.323422
  C      -1.959860     -0.192724      1.641499
  C      -1.885561     -1.725322      1.680235
  C      -2.511408      1.897411      0.274659
  C       2.841891      1.261714     -0.537814
  H       4.377838     -0.262197      1.429065
  H       3.656639     -1.395095      2.581223
  H       3.749036     -1.822711      0.863292
  H       2.035294      0.479907      2.025638
  H       1.406504     -1.109189      1.579949
  H       2.065071     -0.742500     -0.786813
  H      -0.602631      1.456485     -2.024986
  H      -3.528856     -0.002957      0.172086
  H      -0.971010      0.242082      1.832629
  H      -2.626766      0.169553      2.439449
  H      -1.535137     -2.071120      2.661041
  H      -1.198775     -2.108071      0.917058
  H      -2.870069     -2.177357      1.496107
  H      -2.892303      2.260539     -0.687415
  H      -1.505783      2.303962      0.437897
  H      -3.165148      2.284655      1.066931
  H       2.695994      2.131697      0.116102
  H       2.608124      1.552894     -1.568831
  H       3.899738      0.973298     -0.503574
>
31
-883.24292776; 31P isotropic shielding: 278.568417 ppm
  C       3.789160     -1.035783     -1.270820
  C       3.166851     -0.913808      0.127164
  C       2.512799      0.445852      0.400023
  O       1.518171      0.766662     -0.652810
  P       0.086851      0.068666     -0.791088
  O      -0.028464     -1.382058     -0.492389
  O      -0.860485      1.047234      0.073625
  C      -2.225467      0.680422      0.517562
  C      -3.069228      0.168010     -0.658656
  C      -4.563146      0.037826     -0.316468
  C      -2.148697     -0.270446      1.710812
  C       1.905735      0.559717      1.797346
  H       4.545201     -0.256526     -1.443425
  H       4.277469     -2.010839     -1.392618
  H       3.026302     -0.943454     -2.052402
  H       3.945173     -1.050790      0.894101
  H       2.419248     -1.702836      0.278622
  H       3.254381      1.243237      0.255277
  H      -0.180031      0.420325     -2.128828
  H      -2.627248      1.649423      0.844721
  H      -2.948360      0.872868     -1.494040
  H      -2.675183     -0.803441     -0.988844
  H      -4.970948      0.986593      0.060246
  H      -4.741553     -0.732218      0.444043
  H      -5.137962     -0.240523     -1.208461
  H      -3.147740     -0.417311      2.140165
  H      -1.505878      0.154005      2.490997
  H      -1.742372     -1.241233      1.407154
  H       1.393504      1.519700      1.924142
  H       2.705497      0.489862      2.546515
  H       1.190618     -0.250136      1.984134
>
31
-883.24416320; 31P isotropic shielding: 268.855378 ppm
  C       4.507700      0.286449      0.137855
  C       3.120657     -0.160843     -0.354007
  C       1.993890      0.777265      0.100907
  O       0.733712      0.479770     -0.618268
  P       0.049329     -0.979534     -0.687623
  O       0.353016     -1.893204      0.443281
  O      -1.485411     -0.624545     -0.974887
  C      -2.353989     -0.182120      0.144528
  C      -3.190916      0.986650     -0.375451
  C      -2.359582      2.219796     -0.758006
  C      -3.172172     -1.382069      0.609433
  C       1.742278      0.794926      1.607458
  H       5.290424     -0.354910     -0.285719
  H       4.724238      1.320790     -0.164828
  H       4.590580      0.230031      1.230221
  H       2.905059     -1.178811     -0.002568
  H       3.115765     -0.184783     -1.453585
  H       2.218981      1.795137     -0.246320
  H       0.387896     -1.465955     -1.965133
  H      -1.703897      0.165597      0.961019
  H      -3.774136      0.634982     -1.239685
  H      -3.916372      1.249019      0.409427
  H      -1.810103      2.610144      0.109562
  H      -3.004384      3.022847     -1.137028
  H      -1.625089      1.973366     -1.532598
  H      -3.833326     -1.090276      1.436321
  H      -2.510301     -2.183229      0.955821
  H      -3.791107     -1.763821     -0.212719
  H       1.516762     -0.212028      1.974566
  H       0.897930      1.455096      1.840237
  H       2.625066      1.180062      2.133189
>
31
-883.24695146; 31P isotropic shielding: 268.427400 ppm
  C       4.545768      0.341548     -0.391876
  C       3.088404      0.604678      0.023571
  C       2.277530     -0.684919      0.218763
  O       0.976234     -0.401173      0.867766
  P      -0.057915      0.718056      0.336992
  O      -0.109193      0.914139     -1.134895
  O      -1.406340      0.331865      1.103960
  C      -2.453272     -0.567214      0.559176
  C      -3.254290      0.144359     -0.537598
  C      -3.865403      1.480808     -0.093584
  C      -1.865542     -1.904538      0.111951
  C       2.058990     -1.500331     -1.054827
  H       5.109632      1.281726     -0.430597
  H       5.051661     -0.321527      0.324205
  H       4.608063     -0.122497     -1.383624
  H       2.591400      1.231111     -0.730204
  H       3.075683      1.159673      0.972862
  H       2.778653     -1.306807      0.973355
  H       0.273046      1.870573      1.076408
  H      -3.094281     -0.720921      1.437891
  H      -2.603632      0.295491     -1.408349
  H      -4.054418     -0.546732     -0.845678
  H      -4.462978      1.920490     -0.901997
  H      -3.085426      2.201860      0.176918
  H      -4.521540      1.351170      0.778869
  H      -1.252924     -2.348083      0.904477
  H      -1.248225     -1.781162     -0.785543
  H      -2.682554     -2.598236     -0.126430
  H       3.021224     -1.852002     -1.447852
  H       1.558229     -0.896099     -1.818831
  H       1.442316     -2.380605     -0.838579
>
31
-883.24418210; 31P isotropic shielding: 268.586852 ppm
  C       2.165315     -1.318767      1.453342
  C       2.522365      0.155814      1.214685
  C       2.181160      0.660226     -0.189465
  O       0.710574      0.597613     -0.368179
  P       0.026331     -0.472711     -1.364870
  O       0.908831     -1.534394     -1.897593
  O      -1.237361     -1.041947     -0.563137
  C      -2.209102     -0.292405      0.261504
  C      -1.688691     -0.208457      1.702274
  C      -2.754546      0.272186      2.701782
  C      -2.580858      1.055048     -0.357890
  C       2.599516      2.104980     -0.440748
  H       2.658255     -1.969201      0.720115
  H       2.476302     -1.633941      2.457629
  H       1.086650     -1.487734      1.366378
  H       3.603503      0.303888      1.359632
  H       2.016278      0.799548      1.950664
  H       2.627796     -0.007151     -0.937977
  H      -0.538403      0.359081     -2.354207
  H      -3.088407     -0.950915      0.239839
  H      -1.342875     -1.211222      1.986751
  H      -0.813185      0.452342      1.729707
  H      -3.657007     -0.353826      2.657510
  H      -3.056181      1.310342      2.513764
  H      -2.367304      0.223289      3.727044
  H      -2.913355      0.931344     -1.395409
  H      -1.735911      1.754177     -0.334105
  H      -3.408324      1.502282      0.205634
  H       2.114798      2.779973      0.276631
  H       2.324876      2.419242     -1.454808
  H       3.687164      2.206798     -0.331799
>
31
-883.24214365; 31P isotropic shielding: 278.367433 ppm
  C       2.165268     -1.302892      1.465154
  C       2.519305      0.170502      1.215649
  C       2.178257      0.663722     -0.192430
  O       0.708188      0.596132     -0.371897
  P       0.027125     -0.480288     -1.363865
  O       0.911355     -1.545053     -1.887593
  O      -1.238470     -1.044376     -0.561662
  C      -2.212400     -0.290125      0.255876
  C      -1.695834     -0.198194      1.697472
  C      -2.763207      0.291683      2.690741
  C      -2.582044      1.053839     -0.372101
  C       2.593793      2.107495     -0.453730
  H       1.087089     -1.475078      1.378492
  H       2.660546     -1.957950      0.737646
  H       2.476042     -1.609747      2.472094
  H       3.599974      0.322093      1.360491
  H       2.011337      0.818702      1.946380
  H       2.626874     -0.008122     -0.935763
  H      -0.534687      0.344834     -2.360257
  H      -3.091671     -0.948745      0.235392
  H      -1.353086     -1.199905      1.989377
  H      -0.818777      0.460626      1.722857
  H      -3.057180      1.331286      2.498739
  H      -2.381547      0.242648      3.718069
  H      -3.669557     -0.328519      2.643583
  H      -2.910436      0.924504     -1.410222
  H      -1.737467      1.753392     -0.348646
  H      -3.411946      1.503800      0.185694
  H       2.318654      2.414379     -1.469905
  H       3.681209      2.212317     -0.345475
  H       2.107791      2.786544      0.258944
>
31
-883.24215590; 31P isotropic shielding: 278.409530 ppm
  C       3.749911      0.851490     -1.443778
  C       3.710729      0.357850      0.009718
  C       2.306677      0.344084      0.617228
  O       1.496475     -0.599795     -0.181603
  P       0.036741     -0.211913     -0.711074
  O      -0.575601     -1.225362     -1.597540
  O      -0.743027      0.159081      0.651685
  C      -2.220934      0.169422      0.776268
  C      -2.860605      1.019461     -0.330743
  C      -4.356952      1.285291     -0.093211
  C      -2.738458     -1.264772      0.861585
  C       2.266378     -0.101397      2.075697
  H       3.155385      0.201156     -2.096012
  H       3.352691      1.873072     -1.527491
  H       4.778580      0.862110     -1.825276
  H       4.340678      1.000124      0.643516
  H       4.125643     -0.658714      0.076729
  H       1.857816      1.346141      0.520858
  H       0.234279      1.050124     -1.318928
  H      -2.366763      0.674872      1.740923
  H      -2.323978      1.978274     -0.376757
  H      -2.718782      0.517298     -1.297893
  H      -4.946405      0.361619     -0.139949
  H      -4.751174      1.967763     -0.856252
  H      -4.529738      1.747554      0.889054
  H      -2.196171     -1.815618      1.639092
  H      -2.602891     -1.782352     -0.094267
  H      -3.803699     -1.265747      1.124905
  H       2.683137     -1.111432      2.177039
  H       1.235896     -0.108262      2.445613
  H       2.858561      0.584379      2.696164
