34
-1631.88085632; 31P isotropic shielding: 339.291535 ppm
  F   0.67439865458261      2.30461618960092      1.35160346637993
  C   1.78161344419365      1.71116917853373      0.81659791820755
  C   3.01802551231438      2.17847749527487      1.25682166342370
  C   4.18229072736593      1.59206388031424      0.75692778102491
  C   4.10315036349036      0.55099194232939     -0.17345371719748
  C   2.84487958262060      0.13377516489392     -0.58137107884971
  C   1.63489039975258      0.67917298029263     -0.12124512968762
  P   0.10568291904890      0.07783512224473     -0.96043595633766
  C   -1.26275011574062      1.06328931995203     -0.21169221629229
  C   -1.92605403180657      0.81298463569789      0.99881077237125
  F   -1.45049729491170     -0.16165483413545      1.82490330443051
  C   -3.04508310841393      1.52034045462049      1.42343899409586
  C   -3.52819885297416      2.55728439475021      0.61957780656016
  C   -2.89579644996777      2.87406784907306     -0.58484752965377
  C   -1.78871613192450      2.12286476879129     -0.96569957324783
  F   -1.17058311609717      2.44991754763428     -2.13880802890761
  C   -0.20560938638378     -1.59465599315842     -0.23791489694949
  C   0.53344768762575     -2.30117836810183      0.72176157130947
  F   1.56245092614543     -1.68337397118019      1.37053679553796
  C   0.26788240985089     -3.62094309340236      1.07693840336549
  C   -0.79972216529643     -4.28554183010950      0.46937235697575
  C   -1.58615572586586     -3.63045027707486     -0.48272180324274
  C   -1.26490597060772     -2.31930667940271     -0.80738467883692
  F   -2.04074320814685     -1.67840221912456     -1.73715209298452
  F   2.76588425908443     -0.89802275259451     -1.47796003058939
  H   3.04822469144521      2.98316386482995      1.98698347499097
  H   5.15444382917355      1.94478198075579      1.09407171085332
  H   4.98787755227377      0.06483299215612     -0.57588514368645
  H   -3.50754046353147      1.26620734648377      2.37371742930765
  H   -4.39947131244489      3.12559627587347      0.93809605448467
  H   -3.24154228835313      3.68183436119078     -1.22437765421323
  H   0.88832893161285     -4.09942022571275      1.83040958588690
  H   -1.02261477907854     -5.31492024977678      0.74114324323693
  H   -2.42948748903580     -4.11319725151963     -0.96946280176628
