48
-1360.10981008; 31P isotropic shielding: 309.097966 ppm
  C       1.984269     -2.099825     -0.325497
  C       0.566838     -1.869963     -0.883409
  C       0.513797     -2.307316     -2.350443
  O       0.237832     -0.461425     -0.839932
  P      -0.431175      0.066953      0.638812
  O      -0.736086     -1.502581      1.073756
  C      -0.549395     -2.503880      0.018140
  C      -1.897253     -2.658717     -0.703693
  C      -0.157633     -3.812354      0.706231
  O      -1.073435      0.554560      2.178149
  C      -2.454260      0.894088      2.159488
  C      -2.809112      1.285818      0.743691
  C      -1.806837      0.948527     -0.170114
  C      -1.967562      1.231461     -1.532535
  C      -3.132541      1.871665     -1.963657
  C      -4.139896      2.201900     -1.044298
  C      -3.985564      1.903459      0.313352
  N       0.974126      0.892129      1.096669
  C       2.247823      1.044921      0.492712
  C       2.405120      1.416612     -0.852787
  C       3.683148      1.571321     -1.392040
  C       4.823565      1.385988     -0.600193
  C       4.669649      1.048389      0.748074
  C       3.393113      0.873512      1.288593
  H       2.693136     -1.471775     -0.873272
  H       2.052683     -1.841474      0.735679
  H       2.286366     -3.147246     -0.446975
  H      -0.433311     -2.023587     -2.818623
  H       1.328454     -1.825978     -2.904618
  H       0.640232     -3.394268     -2.438586
  H      -2.672900     -2.877955      0.039416
  H      -2.177629     -1.741345     -1.230827
  H      -1.869024     -3.484003     -1.425290
  H       0.702269     -3.675134      1.367791
  H      -0.996566     -4.182205      1.307635
  H       0.090630     -4.578176     -0.040078
  H      -2.621587      1.723431      2.863456
  H      -3.069208      0.038236      2.494023
  H      -1.192738      0.946993     -2.238605
  H      -3.261997      2.111368     -3.017873
  H      -5.046910      2.695452     -1.390258
  H      -4.769990      2.158332      1.025993
  H       0.920045      1.216925      2.056915
  H       1.526745      1.568729     -1.470368
  H       3.788794      1.852772     -2.438972
  H       5.817006      1.512274     -1.026458
  H       5.544757      0.906542      1.380587
  H       3.275609      0.581351      2.331737
>
48
-1360.10986807; 31P isotropic shielding: 310.616675 ppm
  C       1.981831     -2.099391     -0.323006
  C       0.564577     -1.869371     -0.881299
  C       0.511537     -2.307922     -2.347964
  O       0.236190     -0.460638     -0.839111
  P      -0.432632      0.069378      0.639121
  O      -0.738435     -1.499633      1.075383
  C      -0.552067     -2.501967      0.020674
  C      -1.899906     -2.656798     -0.701177
  C      -0.160989     -3.810005      0.709969
  O      -1.074743      0.558577      2.178046
  C      -2.455186      0.899596      2.158951
  C      -2.809579      1.290300      0.742754
  C      -1.807545      0.951276     -0.170666
  C      -1.967948      1.233057     -1.533372
  C      -3.132343      1.873864     -1.965167
  C      -4.139464      2.205853     -1.046177
  C      -3.985465      1.908568      0.311760
  N       0.973092      0.894318      1.096379
  C       2.246945      1.045785      0.492414
  C       2.404585      1.416001     -0.853468
  C       3.682750      1.569448     -1.392740
  C       4.822990      1.384311     -0.600580
  C       4.668745      1.048227      0.748021
  C       3.392053      0.874615      1.288594
  H       2.050203     -1.840343      0.738006
  H       2.283534     -3.147015     -0.443717
  H       2.691032     -1.471993     -0.871091
  H      -0.435448     -2.024357     -2.816495
  H       1.326363     -1.827216     -2.902441
  H       0.637729     -3.394976     -2.435232
  H      -1.871938     -3.482650     -1.422139
  H      -2.675731     -2.875152      0.042008
  H      -2.179843     -1.739714     -1.229048
  H       0.086845     -4.576640     -0.035648
  H       0.699002     -3.672653      1.371385
  H      -1.000107     -4.178842      1.311739
  H      -2.621678      1.729833      2.862070
  H      -3.071116      0.044774      2.494322
  H      -1.193332      0.947247     -2.239125
  H      -3.261535      2.112665     -3.019620
  H      -5.046032      2.699864     -1.392654
  H      -4.769710      2.164785      1.024119
  H       0.919185      1.219721      2.056427
  H       1.526363      1.567979     -1.471294
  H       3.788665      1.849748     -2.439954
  H       5.816548      1.509581     -1.026870
  H       5.543711      0.906571      1.380774
  H       3.274299      0.583633      2.332040
>
48
-1360.10986816; 31P isotropic shielding: 310.600221 ppm
  C       2.045130     -2.062841     -0.314733
  C       0.616223     -1.842462     -0.845662
  C       0.527299     -2.314932     -2.300217
  O       0.294124     -0.431539     -0.829828
  P      -0.356513      0.131441      0.644688
  O      -0.647583     -1.423096      1.129447
  C      -0.481534     -2.452227      0.095501
  C      -1.844245     -2.626891     -0.592538
  C      -0.074832     -3.741337      0.810885
  O      -0.971975      0.673546      2.177461
  C      -2.354360      1.008619      2.172454
  C      -2.735644      1.350687      0.750978
  C      -1.749333      0.983191     -0.168482
  C      -1.934647      1.220494     -1.536409
  C      -3.108202      1.844516     -1.968067
  C      -4.099458      2.204738     -1.042674
  C      -3.920285      1.952739      0.321352
  N       1.055950      0.969867      1.055491
  C       2.323849      1.094988      0.432638
  C       3.476965      0.930675      1.218446
  C       4.748465      1.079247      0.658528
  C       4.888910      1.382776     -0.699210
  C       3.740745      1.560941     -1.481500
  C       2.468059      1.432433     -0.923126
  H       2.742711     -1.449997     -0.893392
  H       2.138522     -1.778853      0.737982
  H       2.342370     -3.113661     -0.417490
  H      -0.429749     -2.036855     -2.751133
  H       1.330327     -1.850511     -2.884845
  H       0.646422     -3.404284     -2.366368
  H      -2.603349     -2.828350      0.172393
  H      -2.138294     -1.724362     -1.137319
  H      -1.830232     -3.470668     -1.292885
  H       0.156094     -4.527907      0.080779
  H       0.800303     -3.585979      1.447889
  H      -0.899867     -4.093474      1.441310
  H      -2.511258      1.860877      2.850819
  H      -2.960379      0.163116      2.547292
  H      -1.171637      0.914064     -2.246071
  H      -3.256540      2.048330     -3.027335
  H      -5.013141      2.685749     -1.388749
  H      -4.691904      2.231685      1.038918
  H       1.015162      1.327361      2.004671
  H       3.369189      0.664818      2.269618
  H       5.629844      0.943385      1.283600
  H       5.878152      1.488451     -1.140590
  H       3.836525      1.815917     -2.536129
  H       1.583423      1.578474     -1.533290
>
48
-1360.10980156; 31P isotropic shielding: 310.936962 ppm
  C      -1.780171     -2.829868     -0.582741
  C      -0.420804     -2.586106      0.091808
  C       0.061735     -3.855180      0.796241
  O      -0.634873     -1.573573      1.130584
  P      -0.411006     -0.001360      0.667489
  O       0.221844     -0.525954     -0.829842
  C       0.630084     -1.913486     -0.857669
  C       2.075498     -2.056862     -0.345134
  C       0.552717     -2.383088     -2.313814
  O      -1.045362      0.450520      2.221342
  C      -2.264878      1.176618      2.227399
  C      -2.663966      1.454907      0.800257
  C      -1.775917      0.910349     -0.129571
  C      -2.006321      1.077634     -1.503011
  C      -3.124796      1.798648     -1.926899
  C      -4.015903      2.340398     -0.987655
  C      -3.789941      2.168364      0.380744
  N       0.995648      0.845934      1.092356
  C       2.222386      1.089564      0.426683
  C       3.416130      0.993456      1.162523
  C       4.648235      1.260377      0.560663
  C       4.710321      1.616109     -0.790388
  C       3.521187      1.725503     -1.522282
  C       2.285555      1.478550     -0.921759
  H      -1.729917     -3.666546     -1.289996
  H      -2.518882     -3.074921      0.189138
  H      -2.126522     -1.939568     -1.117591
  H       0.317352     -4.627870      0.059580
  H       0.939435     -3.658891      1.418357
  H      -0.733968     -4.248082      1.440076
  H       2.731067     -1.401527     -0.926333
  H       2.165721     -1.778641      0.709166
  H       2.427731     -3.088877     -0.462344
  H      -0.423545     -2.159999     -2.754052
  H       1.321343     -1.870868     -2.904819
  H       0.733795     -3.463461     -2.386036
  H      -2.127477      2.119027      2.785704
  H      -3.044503      0.594483      2.749633
  H      -1.316949      0.644304     -2.220997
  H      -3.308741      1.938014     -2.991006
  H      -4.888753      2.896114     -1.327180
  H      -4.483641      2.585266      1.110907
  H       0.977408      1.131350      2.066137
  H       3.371817      0.688259      2.207669
  H       5.561755      1.176381      1.147568
  H       5.669694      1.814498     -1.264478
  H       3.553677      2.019816     -2.570518
  H       1.369502      1.574086     -1.494207
>
48
-1360.10869180; 31P isotropic shielding: 309.010659 ppm
  C       1.461489     -2.867337     -1.347083
  C      -0.055543     -2.646582     -1.174145
  C      -0.812651     -3.411742     -2.264876
  O      -0.369969     -1.245806     -1.322151
  P      -0.187550     -0.329084      0.139599
  O      -0.236896     -1.721975      1.016909
  C      -0.551212     -2.949386      0.282912
  C      -2.072795     -3.144098      0.374797
  C       0.180132     -4.092093      0.989032
  O      -0.053332      0.483785      1.634363
  C      -0.721786      1.737533      1.721613
  C      -1.751015      1.787384      0.618986
  C      -1.623270      0.724187     -0.279164
  C      -2.499321      0.613064     -1.367480
  C      -3.502511      1.571265     -1.537178
  C      -3.624033      2.638010     -0.634315
  C      -2.744463      2.753019      0.447101
  N       1.317959      0.229950     -0.426236
  C       2.226736      1.179642      0.106615
  C       2.703255      2.204733     -0.729849
  C       3.643203      3.126411     -0.261866
  C       4.107356      3.051398      1.055369
  C       3.634779      2.030907      1.889982
  C       2.714326      1.091093      1.421843
  H       1.771797     -2.441610     -2.309332
  H       2.037458     -2.379699     -0.555127
  H       1.709889     -3.935669     -1.355267
  H      -0.700519     -4.495906     -2.133355
  H      -1.878458     -3.165605     -2.260172
  H      -0.405336     -3.146599     -3.248115
  H      -2.607770     -2.347608     -0.153315
  H      -2.377499     -4.110825     -0.043605
  H      -2.368931     -3.115501      1.429654
  H       0.052891     -5.029200      0.431742
  H       1.249282     -3.883288      1.086914
  H      -0.233733     -4.234835      1.994276
  H       0.003319      2.564756      1.622904
  H      -1.187012      1.813836      2.716215
  H      -2.387438     -0.208620     -2.067937
  H      -4.193271      1.489721     -2.374994
  H      -4.409719      3.378952     -0.774636
  H      -2.840972      3.580547      1.149976
  H       1.421413      0.070738     -1.422800
  H       2.324017      2.278320     -1.749007
  H       4.002155      3.911574     -0.925713
  H       4.832473      3.773854      1.425317
  H       3.999293      1.953508      2.913450
  H       2.361785      0.293981      2.067547
>
48
-1360.10983845; 31P isotropic shielding: 309.023884 ppm
  C       1.468998     -2.862329     -1.357384
  C      -0.048271     -2.644432     -1.182762
  C      -0.804860     -3.406533     -2.275985
  O      -0.364768     -1.243541     -1.325309
  P      -0.182837     -0.332117      0.139857
  O      -0.229810     -1.728377      1.011872
  C      -0.542742     -2.953441      0.273388
  C      -2.063982     -3.150777      0.365285
  C       0.190594     -4.097799      0.974771
  O      -0.048985      0.475309      1.637616
  C      -0.719204      1.727774      1.729893
  C      -1.749245      1.780157      0.628134
  C      -1.620407      0.720526     -0.274062
  C      -2.497007      0.612055     -1.362204
  C      -3.501843      1.569277     -1.527657
  C      -3.624462      2.632455     -0.620744
  C      -2.744350      2.744840      0.460508
  N       1.321581      0.231148     -0.424651
  C       2.229002      1.180442      0.111261
  C       2.702951      2.209775     -0.721430
  C       3.641510      3.131332     -0.250413
  C       4.106786      3.051874      1.066165
  C       3.636763      2.027142      1.897017
  C       2.717729      1.087497      1.425763
  H       2.044696     -2.376912     -0.563864
  H       1.718969     -3.930251     -1.369833
  H       1.778068     -2.432383     -2.318147
  H      -0.690919     -4.491024     -2.148738
  H      -1.871057     -3.162127     -2.269640
  H      -0.398593     -3.136941     -3.258446
  H      -2.367370     -4.116266     -0.056901
  H      -2.359637     -3.126907      1.420396
  H      -2.600460     -2.352983     -0.159330
  H      -0.222587     -4.244972      1.979653
  H       0.064397     -5.032943      0.413951
  H       1.259496     -3.887858      1.072926
  H       0.004648      2.556390      1.633674
  H      -1.183823      1.799786      2.725094
  H      -2.384310     -0.206804     -2.065832
  H      -4.193045      1.489767     -2.365305
  H      -4.411429      3.372657     -0.757754
  H      -2.841709      3.569584      1.166531
  H       1.424591      0.075982     -1.421902
  H       2.322808      2.286772     -1.739999
  H       3.998494      3.919849     -0.911339
  H       4.830829      3.774191      1.438486
  H       4.002176      1.946310      2.919899
  H       2.367129      0.287127      2.068493
>
48
-1360.10984146; 31P isotropic shielding: 309.027014 ppm
  C       1.470164     -2.861385     -1.359196
  C      -0.047125     -2.644058     -1.184002
  C      -0.803801     -3.405799     -2.277416
  O      -0.364092     -1.243185     -1.325694
  P      -0.182018     -0.332509      0.139929
  O      -0.228305     -1.729256      1.011186
  C      -0.541075     -2.954010      0.272121
  C      -2.062227     -3.151877      0.364349
  C       0.192811     -4.098533      0.972663
  O      -0.048016      0.474149      1.638088
  C      -0.718587      1.726367      1.731209
  C      -1.748971      1.779002      0.629783
  C      -1.620050      0.719891     -0.273011
  C      -2.496943      0.611699     -1.360945
  C      -3.502149      1.568673     -1.525593
  C      -3.624848      2.631334     -0.618085
  C      -2.744448      2.743443      0.462962
  N       1.322066      0.231525     -0.424693
  C       2.229322      1.180823      0.111491
  C       2.702673      2.210802     -0.720741
  C       3.641055      3.132407     -0.249459
  C       4.106744      3.052340      1.066936
  C       3.637317      2.026963      1.897328
  C       2.718466      1.087279      1.425795
  H       1.720469     -3.929221     -1.372337
  H       1.778800     -2.430776     -2.319801
  H       2.045944     -2.376248     -0.565565
  H      -1.870075     -3.161744     -2.270604
  H      -0.397922     -3.135531     -3.259851
  H      -0.689465     -4.490323     -2.150802
  H      -2.365419     -4.117221     -0.058307
  H      -2.357592     -3.128709      1.419558
  H      -2.599117     -2.353955     -0.159653
  H      -0.220037     -4.246375      1.977583
  H       0.066726     -5.033408      0.411368
  H       1.261679     -3.888330      1.070622
  H       0.004989      2.555248      1.635197
  H      -1.182927      1.797726      2.726587
  H      -2.384191     -0.206749     -2.065042
  H      -4.193580      1.489374     -2.363071
  H      -4.412105      3.371344     -0.754464
  H      -2.841868      3.567783      1.169449
  H       1.424810      0.076977     -1.422068
  H       2.322207      2.288264     -1.739155
  H       3.997576      3.921431     -0.910030
  H       4.830650      3.774687      1.439465
  H       4.003057      1.945659      2.920056
  H       2.368329      0.286413      2.068161
>
48
-1360.10984206; 31P isotropic shielding: 309.027536 ppm
  C       2.034287     -2.090430     -0.314381
  C       0.606365     -1.913149     -0.864221
  C       0.559768     -2.368038     -2.326333
  O       0.225752     -0.517907     -0.833628
  P      -0.432923      0.006142      0.652832
  O      -0.701408     -1.566730      1.094340
  C      -0.482258     -2.573050      0.050584
  C      -1.828306     -2.781745     -0.661323
  C      -0.044293     -3.859143      0.753382
  O      -1.088859      0.460071      2.196759
  C      -2.334298      1.140675      2.182946
  C      -2.691492      1.453576      0.751484
  C      -1.771896      0.937219     -0.163815
  C      -1.961212      1.135817     -1.539198
  C      -3.069816      1.862131     -1.979640
  C      -3.993036      2.375220     -1.055396
  C      -3.809186      2.169675      0.314723
  N       0.976805      0.826573      1.114524
  C       2.225019      1.047897      0.481823
  C       3.396929      0.923710      1.247965
  C       4.649620      1.167185      0.679677
  C       4.754395      1.527399     -0.667574
  C       3.587353      1.665069     -1.429472
  C       2.331546      1.441478     -0.862525
  H       2.718767     -1.444865     -0.872711
  H       2.101746     -1.821720      0.744069
  H       2.368522     -3.128635     -0.429952
  H      -0.399227     -2.122205     -2.791795
  H       1.354424     -1.865925     -2.891006
  H       0.722078     -3.451042     -2.403681
  H      -2.143764     -1.878418     -1.193444
  H      -1.776443     -3.610737     -1.377440
  H      -2.591028     -3.021587      0.088551
  H      -0.864367     -4.242533      1.371879
  H       0.215062     -4.629261      0.015267
  H       0.820491     -3.687524      1.400314
  H      -2.248407      2.066316      2.777375
  H      -3.112214      0.515095      2.655990
  H      -1.248730      0.721575     -2.245909
  H      -3.221285      2.027840     -3.045084
  H      -4.857877      2.935203     -1.408137
  H      -4.528060      2.564018      1.032952
  H       0.937469      1.113215      2.087365
  H       3.319444      0.614958      2.290136
  H       5.545492      1.061204      1.289765
  H       5.729701      1.707765     -1.115645
  H       3.653351      1.963334     -2.475013
  H       1.432899      1.558283     -1.458179
>
48
-1360.10877144; 31P isotropic shielding: 309.174399 ppm
  C      -0.036790     -3.535329     -2.202229
  C      -0.688409     -2.683728     -1.107115
  C      -2.223451     -2.766123     -1.224720
  O      -0.271245     -1.316887     -1.297769
  P      -0.177921     -0.372548      0.164308
  O      -0.381949     -1.744976      1.052488
  C      -0.180727     -3.009012      0.340174
  C      -0.992038     -4.068205      1.088417
  C       1.318279     -3.344646      0.402270
  O      -0.103198      0.446727      1.660699
  C      -0.792164      1.686642      1.754770
  C      -1.694458      1.808258      0.553750
  C      -1.507228      0.771737     -0.364398
  C      -2.241095      0.755220     -1.558783
  C      -3.172591      1.766646     -1.805660
  C      -3.364418      2.796852     -0.872984
  C      -2.619495      2.825289      0.309674
  N       1.390783      0.080828     -0.310016
  C       2.219144      1.125209      0.182165
  C       2.670047      2.116369     -0.706354
  C       3.530891      3.126261     -0.268011
  C       3.937026      3.172819      1.069307
  C       3.488128      2.186384      1.956471
  C       2.648254      1.160391      1.519306
  H       1.047055     -3.388856     -2.228287
  H      -0.244376     -4.602250     -2.046780
  H      -0.443004     -3.250799     -3.180454
  H      -2.718538     -2.181535     -0.441994
  H      -2.528766     -2.363578     -2.197125
  H      -2.575265     -3.802828     -1.162189
  H      -2.033022     -3.758954      1.218226
  H      -0.972094     -5.021378      0.544421
  H      -0.558931     -4.235211      2.081706
  H       1.639390     -3.327160      1.450180
  H       1.516047     -4.344836     -0.001672
  H       1.917119     -2.613731     -0.149044
  H      -0.066426      2.517838      1.783863
  H      -1.362744      1.701789      2.696816
  H      -2.072647     -0.033369     -2.283806
  H      -3.750390      1.757152     -2.728583
  H      -4.093940      3.580159     -1.073429
  H      -2.761460      3.629862      1.031274
  H       1.561083     -0.163562     -1.280754
  H       2.333279      2.094627     -1.742527
  H       3.872329      3.884248     -0.971426
  H       4.599769      3.963756      1.415549
  H       3.809268      2.204768      2.997067
  H       2.312290      0.388771      2.203808
>
48
-1360.10932748; 31P isotropic shielding: 304.968448 ppm
  C      -0.009816     -3.502165     -2.261282
  C      -0.691365     -2.653266     -1.182288
  C      -2.220566     -2.691424     -1.375597
  O      -0.230518     -1.294477     -1.327582
  P      -0.187960     -0.377347      0.154242
  O      -0.466665     -1.760114      1.005986
  C      -0.261233     -3.015785      0.280546
  C      -1.131246     -4.068552      0.969620
  C       1.225248     -3.387665      0.406106
  O      -0.164513      0.413489      1.667591
  C      -0.842394      1.659587      1.759192
  C      -1.679313      1.825529      0.516882
  C      -1.465560      0.805806     -0.414209
  C      -2.137221      0.830973     -1.644587
  C      -3.035047      1.866501     -1.915148
  C      -3.254863      2.879285     -0.969571
  C      -2.571217      2.866229      0.249793
  N       1.411287      0.048054     -0.236592
  C       2.226452      1.081525      0.300147
  C       2.599086      1.100853      1.654367
  C       3.428463      2.115472      2.136118
  C       3.921989      3.106070      1.277720
  C       3.571590      3.075554     -0.075746
  C       2.721751      2.077026     -0.559295
  H      -0.359295     -3.187733     -3.252163
  H       1.077563     -3.385808     -2.230982
  H      -0.253763     -4.565601     -2.137916
  H      -2.604363     -3.718467     -1.352544
  H      -2.737891     -2.107705     -0.606693
  H      -2.465540     -2.261221     -2.353228
  H      -1.105661     -5.012785      0.410477
  H      -0.750644     -4.261092      1.979603
  H      -2.170283     -3.737750      1.054272
  H       1.418923     -4.386281     -0.003651
  H       1.864681     -2.662713     -0.106046
  H       1.498815     -3.392197      1.467624
  H      -0.108686      2.479374      1.848936
  H      -1.461555      1.657944      2.670312
  H      -1.946751      0.055361     -2.378128
  H      -3.564575      1.889477     -2.866358
  H      -3.957961      3.681577     -1.188538
  H      -2.734330      3.657338      0.981750
  H       1.622227     -0.187778     -1.201563
  H       2.227969      0.325946      2.316680
  H       3.706129      2.121464      3.189287
  H       4.576266      3.888024      1.658763
  H       3.948225      3.837208     -0.756896
  H       2.428233      2.067357     -1.608710
>
48
-1360.10935891; 31P isotropic shielding: 304.728893 ppm
  C       0.009022     -3.488099     -2.286785
  C      -0.673466     -2.651329     -1.198924
  C      -2.203062     -2.695577     -1.388102
  O      -0.219730     -1.289179     -1.334324
  P      -0.177229     -0.384054      0.154914
  O      -0.446981     -1.775145      0.995906
  C      -0.237417     -3.023735      0.259644
  C      -1.100272     -4.086504      0.942421
  C       1.251198     -3.389423      0.378057
  O      -0.153855      0.394322      1.674698
  C      -0.836969      1.636619      1.778109
  C      -1.677310      1.809238      0.539026
  C      -1.461436      0.798023     -0.400812
  C      -2.136329      0.830096     -1.629255
  C      -3.039292      1.863863     -1.889257
  C      -3.261013      2.868109     -0.935066
  C      -2.574303      2.848208      0.282483
  N       1.419199      0.051523     -0.236237
  C       2.230857      1.084770      0.306230
  C       2.606437      1.095953      1.659718
  C       3.432523      2.110660      2.146929
  C       3.919848      3.109536      1.294605
  C       3.566503      3.087275     -0.058258
  C       2.719874      2.088602     -0.547100
  H      -0.345161     -3.167544     -3.274029
  H       1.095897     -3.366525     -2.258969
  H      -0.229168     -4.553706     -2.171143
  H      -2.453138     -2.258532     -2.361390
  H      -2.581379     -3.724783     -1.372528
  H      -2.721020     -2.121018     -0.612746
  H      -2.140662     -3.761534      1.032901
  H      -1.071710     -5.025863      0.375272
  H      -0.715713     -4.285576      1.949631
  H       1.527836     -3.400544      1.438726
  H       1.448391     -4.384047     -0.039666
  H       1.885750     -2.657694     -0.130507
  H      -0.106743      2.458898      1.873343
  H      -1.454244      1.624590      2.690440
  H      -1.944459      0.061198     -2.369471
  H      -3.571351      1.892175     -2.838906
  H      -3.968055      3.669128     -1.145844
  H      -2.739027      3.632698      1.021176
  H       1.628725     -0.175771     -1.203571
  H       2.240257      0.314629      2.317228
  H       3.712587      2.110234      3.199479
  H       4.571650      3.891511      1.679823
  H       3.938336      3.855414     -0.734749
  H       2.424102      2.085211     -1.595918
>
48
-1360.10935943; 31P isotropic shielding: 304.686560 ppm
  C      -0.013829     -3.510656     -2.247987
  C      -0.696813     -2.655260     -1.175055
  C      -2.225404     -2.690032     -1.373562
  O      -0.231739     -1.298357     -1.324686
  P      -0.191953     -0.374843      0.153187
  O      -0.476974     -1.753123      1.010103
  C      -0.272645     -3.012538      0.290830
  C      -1.147936     -4.059788      0.981583
  C       1.212375     -3.387959      0.422980
  O      -0.171304      0.422609      1.663130
  C      -0.847218      1.670271      1.747495
  C      -1.679743      1.832741      0.501781
  C      -1.465021      0.808765     -0.424402
  C      -2.132413      0.830390     -1.657172
  C      -3.027110      1.866701     -1.934991
  C      -3.248059      2.883740     -0.994250
  C      -2.568575      2.874200      0.227470
  N       1.409517      0.045226     -0.234397
  C       2.224661      1.079910      0.300110
  C       2.593624      1.104499      1.655247
  C       3.422931      2.120126      2.134982
  C       3.919995      3.106492      1.273751
  C       3.573252      3.070695     -0.080524
  C       2.723515      2.071154     -0.562171
  H       1.073755     -3.397208     -2.214237
  H      -0.261236     -4.572864     -2.120996
  H      -0.358854     -3.199454     -3.241444
  H      -2.612287     -3.715842     -1.347214
  H      -2.743821     -2.101329     -0.609211
  H      -2.465716     -2.263571     -2.353991
  H      -0.771490     -4.248707      1.993807
  H      -2.186368     -3.725808      1.060958
  H      -1.122900     -5.006663      0.426901
  H       1.482394     -3.388985      1.485417
  H       1.404690     -4.388718      0.017847
  H       1.855459     -2.666774     -0.089923
  H      -0.112272      2.489050      1.836306
  H      -1.469364      1.673468      2.656580
  H      -1.941016      0.051419     -2.386904
  H      -3.553314      1.886939     -2.888106
  H      -3.948742      3.686586     -1.218857
  H      -2.732461      3.668607      0.955669
  H       1.622997     -0.195270     -1.197660
  H       2.219680      0.332886      2.319813
  H       3.697721      2.130246      3.188874
  H       4.574172      3.889272      1.653271
  H       3.952655      3.829031     -0.763837
  H       2.432785      2.057425     -1.612319
>
48
-1360.10935903; 31P isotropic shielding: 304.734126 ppm
  C      -0.559124     -3.754570      0.472972
  C       0.160256     -2.419867      0.272911
  C       1.615342     -2.519828      0.757657
  O      -0.520228     -1.439429      1.124495
  P      -0.432617      0.132233      0.615656
  O       0.128864     -0.382059     -0.914225
  C       0.025542     -1.801403     -1.162925
  C       1.158423     -2.188926     -2.119829
  C      -1.337676     -2.104060     -1.813818
  O      -0.948455      0.613416      2.206723
  C      -2.333302      0.905070      2.338178
  C      -2.865970      1.218863      0.961264
  C      -1.948203      0.909651     -0.045950
  C      -2.257450      1.177844     -1.385722
  C      -3.491255      1.751914     -1.701710
  C      -4.418973      2.037459     -0.688557
  C      -4.110854      1.769247      0.648915
  N       0.951265      1.073149      0.878233
  C       2.230054      1.073646      0.258437
  C       2.403068      1.281839     -1.119661
  C       3.686309      1.307897     -1.668301
  C       4.817784      1.151737     -0.857621
  C       4.650792      0.968905      0.518212
  C       3.367633      0.922079      1.070583
  H      -0.408282     -4.104814      1.500928
  H      -1.634686     -3.660984      0.298235
  H      -0.155370     -4.514453     -0.208412
  H       2.170092     -1.593745      0.581321
  H       1.613471     -2.718716      1.835736
  H       2.143262     -3.340984      0.257813
  H       0.984929     -1.727095     -3.099389
  H       2.128366     -1.845003     -1.750909
  H       1.194447     -3.277168     -2.261093
  H      -1.444363     -1.491830     -2.716107
  H      -1.412190     -3.158129     -2.106993
  H      -2.169464     -1.867920     -1.142549
  H      -2.451485      1.763219      3.017879
  H      -2.867778      0.046677      2.784446
  H      -1.537821      0.942660     -2.163431
  H      -3.735334      1.977592     -2.738566
  H      -5.380940      2.479112     -0.944584
  H      -4.827776      2.000878      1.436708
  H       0.950881      1.444313      1.823332
  H       1.531753      1.414247     -1.750990
  H       3.803679      1.465424     -2.739675
  H       5.815184      1.179156     -1.292464
  H       5.518679      0.849520      1.165092
  H       3.237821      0.754538      2.139455
>
48
-1360.10958410; 31P isotropic shielding: 305.472828 ppm
  C       1.319707     -2.167578     -2.048054
  C       0.092634     -1.754665     -1.227975
  C      -1.188813     -1.971116     -2.055462
  O       0.226353     -0.350501     -0.915042
  P      -0.507299      0.141947      0.547477
  O      -0.727151     -1.439197      0.982732
  C       0.015574     -2.423221      0.189242
  C      -0.776622     -3.730053      0.246294
  C       1.392655     -2.603480      0.848041
  O      -1.205769      0.597253      2.075792
  C      -2.582986      0.946604      2.038452
  C      -2.917583      1.328784      0.617172
  C      -1.889584      1.010382     -0.273974
  C      -2.009311      1.336431     -1.631186
  C      -3.165817      1.977934     -2.081487
  C      -4.205466      2.272955     -1.186601
  C      -4.086741      1.946509      0.168032
  N       0.868373      1.010698      1.021496
  C       2.222304      0.955658      0.593620
  C       2.606513      1.161847     -0.741549
  C       3.956688      1.128468     -1.094725
  C       4.947892      0.914586     -0.128721
  C       4.571252      0.733896      1.205456
  C       3.220081      0.746535      1.562316
  H       1.295465     -1.665569     -3.022931
  H       2.248875     -1.885865     -1.545900
  H       1.323527     -3.251058     -2.225716
  H      -1.276049     -3.012919     -2.386613
  H      -2.087922     -1.707066     -1.489635
  H      -1.150289     -1.334667     -2.946695
  H      -0.320637     -4.483565     -0.408782
  H      -0.770778     -4.122345      1.270198
  H      -1.817455     -3.584785     -0.057230
  H       1.248518     -2.821681      1.912626
  H       1.938650     -3.440052      0.395489
  H       2.006340     -1.702444      0.761191
  H      -2.753894      1.786911      2.729124
  H      -3.205539      0.099288      2.379237
  H      -1.204713      1.093053     -2.317884
  H      -3.262171      2.249114     -3.131609
  H      -5.106021      2.767561     -1.547619
  H      -4.890064      2.185219      0.865111
  H       0.752389      1.355791      1.969455
  H       1.845869      1.338188     -1.493377
  H       4.237715      1.285456     -2.135321
  H       5.998654      0.895995     -0.411908
  H       5.327519      0.569772      1.971656
  H       2.926632      0.579592      2.598387
>
48
-1360.10947832; 31P isotropic shielding: 304.906282 ppm
  C       1.327433     -2.177780     -2.030653
  C       0.095670     -1.758668     -1.220770
  C      -1.180374     -1.975077     -2.056581
  O       0.230975     -0.353626     -0.912319
  P      -0.513693      0.146529      0.541998
  O      -0.740024     -1.432365      0.982254
  C       0.006608     -2.421276      0.198491
  C      -0.788913     -3.726107      0.254897
  C       1.378325     -2.601937      0.868189
  O      -1.224268      0.609547      2.062432
  C      -2.600397      0.961573      2.011797
  C      -2.922023      1.338510      0.586104
  C      -1.886957      1.014552     -0.294802
  C      -1.994215      1.335529     -1.654284
  C      -3.145540      1.977400     -2.117148
  C      -4.192442      2.277798     -1.232541
  C      -4.086114      1.956536      0.124353
  N       0.859671      1.014690      1.023954
  C       2.217273      0.954485      0.608530
  C       3.205840      0.748724      1.587340
  C       4.560157      0.731354      1.242813
  C       4.949242      0.903835     -0.088879
  C       3.967227      1.114330     -1.064963
  C       2.613971      1.152471     -0.724240
  H       1.329783     -3.261927     -2.204262
  H       1.310980     -1.679417     -3.007555
  H       2.253864     -1.896416     -1.523280
  H      -2.082756     -1.705475     -1.498661
  H      -1.133254     -1.342996     -2.950498
  H      -1.268404     -3.018164     -2.383439
  H      -1.826970     -3.579878     -0.057513
  H      -0.329383     -4.483455     -0.393249
  H      -0.792048     -4.113936      1.280515
  H       1.225763     -2.816448      1.932356
  H       1.925913     -3.441092      0.422405
  H       1.994535     -1.702437      0.783114
  H      -2.775455      1.805180      2.697396
  H      -3.227650      0.117038      2.350856
  H      -1.184159      1.088042     -2.333063
  H      -3.232204      2.244675     -3.169116
  H      -5.088929      2.772546     -1.603361
  H      -4.895060      2.199371      0.813458
  H       0.736082      1.364077      1.969380
  H       2.902750      0.588217      2.621659
  H       5.309094      0.569995      2.016764
  H       6.002486      0.881517     -0.362400
  H       4.257977      1.264934     -2.103833
  H       1.860614      1.326221     -1.483942
>
48
-1360.10947960; 31P isotropic shielding: 304.879100 ppm
  C       1.311120     -2.173400     -2.042451
  C       0.085495     -1.755120     -1.222836
  C      -1.196992     -1.971452     -2.048661
  O       0.222424     -0.350320     -0.914619
  P      -0.510057      0.148269      0.546391
  O      -0.731895     -1.430735      0.987430
  C       0.008268     -2.418945      0.196282
  C      -0.786775     -3.723863      0.258195
  C       1.385206     -2.600011      0.854845
  O      -1.207169      0.610313      2.073235
  C      -2.584485      0.959105      2.035266
  C      -2.919046      1.338065      0.613273
  C      -1.891740      1.015732     -0.277263
  C      -2.011342      1.338565     -1.635145
  C      -3.166914      1.980730     -2.086738
  C      -4.205752      2.279805     -1.192437
  C      -4.087177      1.956712      0.163004
  N       0.866783      1.017048      1.015843
  C       2.220286      0.957583      0.587695
  C       2.604262      1.160381     -0.747929
  C       3.954070      1.122306     -1.101930
  C       4.945111      0.907057     -0.136218
  C       4.568889      0.729694      1.198463
  C       3.218042      0.746939      1.556116
  H       2.240957     -1.890613     -1.542127
  H       1.313514     -3.257608     -2.215436
  H       1.286754     -1.675642     -3.019478
  H      -1.157844     -1.337843     -2.941851
  H      -1.286908     -3.014021     -2.376680
  H      -2.094984     -1.703726     -1.482804
  H      -1.827554     -3.577078     -0.044741
  H      -0.333348     -4.480419     -0.395144
  H      -0.780729     -4.113288      1.283159
  H       1.241630     -2.814908      1.920140
  H       1.929097     -3.439011      0.404252
  H       2.000644     -1.700517      0.764708
  H      -2.755416      1.800352      2.724721
  H      -3.206432      0.111848      2.377434
  H      -1.207143      1.092528     -2.321390
  H      -3.263160      2.249288     -3.137546
  H      -5.105493      2.775138     -1.554472
  H      -4.889775      2.198833      0.859719
  H       0.751627      1.367546      1.961924
  H       1.843522      1.337572     -1.499513
  H       4.235084      1.276676     -2.142914
  H       5.995600      0.884908     -0.420172
  H       5.325097      0.564486      1.964481
  H       2.924748      0.582542      2.592620
>
48
-1360.10948182; 31P isotropic shielding: 305.071089 ppm
  C       1.350010     -2.167471     -2.037009
  C       0.114640     -1.757360     -1.227926
  C      -1.158361     -1.972318     -2.069040
  O       0.244821     -0.354026     -0.909704
  P      -0.505530      0.134363      0.545533
  O      -0.728916     -1.448243      0.974494
  C       0.023122     -2.429530      0.186760
  C      -0.768456     -3.737328      0.232174
  C       1.393475     -2.610747      0.859413
  O      -1.222332      0.584987      2.066587
  C      -2.599221      0.933935      2.014303
  C      -2.917874      1.318844      0.590014
  C      -1.879323      1.003442     -0.289947
  C      -1.983599      1.332786     -1.647699
  C      -3.135530      1.974218     -2.109901
  C      -4.185865      2.266012     -1.226426
  C      -4.082466      1.936463      0.128799
  N       0.863549      1.002149      1.037650
  C       2.222025      0.951495      0.623535
  C       3.210260      0.740591      1.601756
  C       4.565078      0.732307      1.258910
  C       4.955149      0.919261     -0.070677
  C       3.973559      1.134935     -1.046042
  C       2.619616      1.163975     -0.706691
  H       1.335142     -1.661938     -3.010264
  H       2.274268     -1.887501     -1.524888
  H       1.355437     -3.250332     -2.218399
  H      -1.242365     -3.013552     -2.402776
  H      -2.062980     -1.708945     -1.511759
  H      -1.110607     -1.334395     -2.958770
  H      -0.773912     -4.131310      1.255458
  H      -1.805915     -3.592485     -0.082939
  H      -0.304169     -4.489186     -0.418969
  H       1.944742     -3.445349      0.409597
  H       2.007462     -1.708950      0.782182
  H       1.238401     -2.832816      1.921675
  H      -2.778291      1.772775      2.704689
  H      -3.225159      0.085663      2.346418
  H      -1.170880      1.091903     -2.325685
  H      -3.219954      2.247762     -3.160454
  H      -5.082723      2.760528     -1.596692
  H      -4.894042      2.172664      0.817142
  H       0.737139      1.344295      1.985372
  H       2.906266      0.569010      2.634054
  H       5.313705      0.566733      2.032277
  H       6.008838      0.904095     -0.343034
  H       4.264930      1.296744     -2.083057
  H       1.866436      1.341944     -1.465643
>
48
-1360.10947601; 31P isotropic shielding: 305.019227 ppm
  C       1.357416     -2.174273     -2.010162
  C       0.135647     -1.738813     -1.193558
  C      -1.149864     -1.960581     -2.013344
  O       0.280592     -0.330615     -0.905219
  P      -0.446781      0.192198      0.549918
  O      -0.675606     -1.379521      1.013347
  C       0.058463     -2.382324      0.234798
  C      -0.742236     -3.682673      0.317093
  C       1.436130     -2.560164      0.893004
  O      -1.138631      0.679021      2.071471
  C      -2.516810      1.024698      2.031209
  C      -2.853314      1.386877      0.605060
  C      -1.827741      1.052047     -0.282999
  C      -1.948508      1.358367     -1.644565
  C      -3.103729      1.996882     -2.102473
  C      -4.141035      2.308272     -1.210488
  C      -4.021227      2.001499      0.148720
  N       0.934136      1.061560      1.003789
  C       2.287245      0.989583      0.575622
  C       3.284657      0.791018      1.547024
  C       4.635256      0.762457      1.189176
  C       5.011522      0.916250     -0.148509
  C       4.020873      1.119438     -1.117259
  C       2.671289      1.168677     -0.763370
  H       1.354784     -3.260920     -2.167285
  H       1.332534     -1.690642     -2.994252
  H       2.289616     -1.887998     -1.516177
  H      -1.245274     -3.007108     -2.326913
  H      -2.045279     -1.681052     -1.449079
  H      -1.109995     -1.339351     -2.915179
  H      -0.735719     -4.056986      1.347684
  H      -1.782988     -3.535568      0.014168
  H      -0.293609     -4.450718     -0.326091
  H       2.055972     -1.665367      0.787647
  H       1.294028     -2.758046      1.961801
  H       1.974712     -3.408730      0.454019
  H      -2.688835      1.873042      2.711522
  H      -3.136997      0.180120      2.383192
  H      -1.145451      1.102516     -2.328621
  H      -3.200967      2.253019     -3.156291
  H      -5.040458      2.800543     -1.577485
  H      -4.822521      2.253090      0.843605
  H       0.821495      1.428141      1.944082
  H       2.991035      0.645167      2.586226
  H       5.391079      0.606880      1.957596
  H       6.061764      0.885222     -0.432585
  H       4.301925      1.255474     -2.160790
  H       1.910804      1.336294     -1.517378
>
48
-1360.10947283; 31P isotropic shielding: 305.152157 ppm
  C       1.356178     -2.176547     -2.006468
  C       0.134976     -1.739081     -1.190133
  C      -1.150987     -1.961568     -2.009001
  O       0.280712     -0.330406     -0.904358
  P      -0.445532      0.195277      0.550264
  O      -0.674950     -1.375455      1.016617
  C       0.058016     -2.380053      0.239445
  C      -0.743496     -3.679731      0.324352
  C       1.435910     -2.557726      0.897259
  O      -1.136322      0.685442      2.071098
  C      -2.514567      1.031308      2.030875
  C      -2.851506      1.391155      0.604268
  C      -1.826463      1.054321     -0.283638
  C      -1.947564      1.358444     -1.645641
  C      -3.102637      1.996834     -2.104168
  C      -4.139424      2.310231     -1.212312
  C      -4.019267      2.005628      0.147360
  N       0.936224      1.064530      1.001974
  C       2.289116      0.990645      0.573281
  C       3.286730      0.793120      1.544670
  C       4.637173      0.762846      1.186334
  C       5.013008      0.913858     -0.151766
  C       4.022136      1.116025     -1.120513
  C       2.672742      1.166978     -0.766206
  H       1.352730     -3.263417     -2.162033
  H       1.331290     -1.694310     -2.991241
  H       2.288743     -1.890192     -1.513227
  H      -1.111073     -1.341970     -2.911961
  H      -1.247138     -3.008611     -2.320598
  H      -2.046016     -1.680409     -1.444932
  H      -1.784239     -3.532549      0.021440
  H      -0.295472     -4.449225     -0.317513
  H      -0.736968     -4.052101      1.355646
  H       1.294220     -2.753550      1.966491
  H       1.973657     -3.407463      0.459532
  H       2.056283     -1.663537      0.789959
  H      -2.686000      1.880844      2.709821
  H      -3.134563      0.187330      2.384553
  H      -1.144956      1.101095     -2.329659
  H      -3.200116      2.251296     -3.158369
  H      -5.038724      2.802402     -1.579743
  H      -4.820203      2.258806      0.842079
  H       0.824500      1.433144      1.941569
  H       2.993350      0.649421      2.584235
  H       5.393229      0.608131      1.954699
  H       6.063124      0.881467     -0.436152
  H       4.302875      1.249915     -2.164407
  H       1.912063      1.333809     -1.520182
>
48
-1360.10947160; 31P isotropic shielding: 305.173975 ppm
  C       1.437913     -2.906924     -1.285584
  C      -0.079615     -2.637623     -1.227960
  C      -0.771743     -3.348964     -2.395431
  O      -0.335379     -1.223220     -1.361351
  P      -0.237873     -0.350930      0.135727
  O      -0.400836     -1.763386      0.966975
  C      -0.700323     -2.958860      0.176035
  C      -2.230465     -3.097389      0.141569
  C      -0.069405     -4.146364      0.904679
  O      -0.189032      0.418573      1.659140
  C      -0.827714      1.688408      1.733548
  C      -1.775079      1.795483      0.563611
  C      -1.609717      0.754701     -0.354434
  C      -2.409293      0.696393     -1.503929
  C      -3.375376      1.684165     -1.714575
  C      -3.535023      2.728012     -0.791122
  C      -2.730955      2.790551      0.351603
  N       1.321152      0.174598     -0.301076
  C       2.213428      1.083853      0.323099
  C       2.604240      0.943160      1.665734
  C       3.512045      1.843672      2.226514
  C       4.067036      2.875775      1.459608
  C       3.698662      3.002896      0.116385
  C       2.772104      2.120595     -0.445038
  H       1.964640     -2.456426     -0.439241
  H       1.650517     -3.982849     -1.299867
  H       1.838680     -2.472740     -2.209982
  H      -0.277133     -3.076949     -3.335797
  H      -0.708903     -4.439218     -2.283041
  H      -1.825289     -3.064128     -2.470221
  H      -2.534687     -4.041120     -0.326696
  H      -2.610020     -3.083582      1.169647
  H      -2.691065     -2.268509     -0.406209
  H       0.995547     -3.981674      1.091771
  H      -0.566624     -4.299036      1.869898
  H      -0.185774     -5.063394      0.312628
  H      -0.075729      2.496812      1.706888
  H      -1.359448      1.753702      2.695053
  H      -2.267874     -0.108318     -2.218642
  H      -4.007546      1.643406     -2.600244
  H      -4.291710      3.492007     -0.963482
  H      -2.857389      3.600107      1.070470
  H       1.496204      0.033115     -1.290249
  H       2.185692      0.137435      2.259212
  H       3.801537      1.726331      3.269944
  H       4.781658      3.567218      1.902119
  H       4.122168      3.798183     -0.495328
  H       2.466693      2.235453     -1.484960
