23
-671.08528861; 31P isotropic shielding: 308.046263 ppm
  C      -0.486255      1.607364     -1.045469
  C      -1.504904      1.246987      0.067194
  N      -1.276575     -0.001893      0.806374
  C      -1.501370     -1.251215      0.066841
  C      -0.481677     -1.608428     -1.045876
  C       0.994964     -1.493690     -0.605735
  P       1.516534      0.002074      0.416226
  C       0.990726      1.496606     -0.605420
  C      -0.004908     -0.000212      1.534344
  H      -0.656613      0.978129     -1.925675
  H      -0.689429      2.641250     -1.368031
  H      -2.515471      1.205946     -0.364105
  H      -1.509087      2.057283      0.813979
  H      -1.503318     -2.061725      0.813406
  H      -2.512025     -1.212878     -0.364498
  H      -0.681958     -2.642776     -1.368768
  H      -0.653745     -0.979405     -1.925902
  H       1.662607     -1.559287     -1.475837
  H       1.257582     -2.349943      0.036319
  H       1.658149      1.564202     -1.475539
  H       1.251006      2.353456      0.036785
  H       0.037337      0.884798      2.185459
  H       0.039829     -0.885342      2.185128
>
23
-671.09646821; 31P isotropic shielding: 345.983800 ppm
  C      -0.430929      1.674680     -0.991176
  C      -1.467657      1.319177      0.097211
  N      -1.296380      0.006872      0.738599
  C      -1.574471     -1.158821     -0.138714
  C      -0.354138     -2.050657     -0.461872
  C       0.898921     -1.280948     -0.916506
  P       1.507545     -0.015897      0.365900
  C       1.022362      1.594611     -0.486521
  C      -0.033486     -0.089174      1.472640
  H      -0.563271      1.006583     -1.854368
  H      -0.640671      2.690906     -1.360987
  H      -2.480643      1.362175     -0.326279
  H      -1.426268      2.078173      0.894901
  H      -2.348270     -1.789208      0.331428
  H      -2.006012     -0.788170     -1.079232
  H      -0.101882     -2.656330      0.420457
  H      -0.655772     -2.769108     -1.238938
  H       0.711382     -0.767424     -1.869440
  H       1.719348     -1.986257     -1.098482
  H       1.731531      1.765703     -1.308037
  H       1.212233      2.389539      0.252194
  H       0.029740      0.743687      2.186949
  H      -0.010513     -1.012013      2.065474
>
23
-671.09295524; 31P isotropic shielding: 325.488776 ppm
  C      -0.345623      2.154467     -0.327435
  C      -1.593442      1.345710      0.131246
  N      -1.299608     -0.013785      0.628149
  C      -1.425202     -1.073655     -0.411503
  C      -0.327630     -2.145800     -0.340314
  C       1.090486     -1.597508     -0.607513
  P       1.486424      0.032545      0.276375
  C       0.752852      1.280583     -0.962914
  C      -0.048189     -0.032079      1.390323
  H      -0.669207      2.931747     -1.034752
  H       0.084099      2.691985      0.530841
  H      -2.302612      1.247054     -0.700353
  H      -2.113909      1.911367      0.920973
  H      -2.411457     -1.553922     -0.307835
  H      -1.404518     -0.625665     -1.420315
  H      -0.360711     -2.637442      0.641804
  H      -0.566694     -2.929141     -1.074454
  H       1.242678     -1.425328     -1.682783
  H       1.842787     -2.336159     -0.301262
  H       0.366354      0.745184     -1.840507
  H       1.575872      1.914564     -1.314964
  H      -0.043726      0.822226      2.077508
  H       0.021674     -0.928747      2.018185
