41
-1039.80731081; 31P isotropic shielding: 180.875269 ppm
  C      -4.239758     -1.789717      0.000045
  O      -2.899939     -2.310224      0.000031
  C      -1.856989     -1.419697     -0.000067
  C      -2.005539     -0.032535     -0.000086
  C      -0.895119      0.816998     -0.000020
  C       0.422645      0.233262     -0.000187
  C       0.569590     -1.208006     -0.000358
  C      -0.580007     -1.988294     -0.000158
  C       1.944603     -1.926147     -0.000669
  C       2.737568     -1.568878     -1.286880
  C       1.798524     -3.469046      0.000358
  C       2.738902     -1.567152      1.284225
  C       1.570968      1.064403     -0.000108
  P       2.841056      1.980859      0.000148
  C      -1.151917      2.348225      0.000117
  C      -0.565373      2.990188      1.286289
  C      -0.563113      2.990636     -1.284795
  C      -2.662894      2.694962     -0.001085
  H      -4.432224     -1.184710      0.897941
  H      -4.432242     -1.184707     -0.897845
  H      -4.894404     -2.665257      0.000052
  H      -2.999566      0.390213      0.000005
  H      -0.527955     -3.070163     -0.000223
  H       2.187484     -1.909923     -2.173980
  H       3.709783     -2.080037     -1.274897
  H       2.919173     -0.498549     -1.389228
  H       2.800146     -3.916499      0.000165
  H       1.273556     -3.836703     -0.890186
  H       1.274408     -3.835619      0.891844
  H       2.190233     -1.907941      2.172300
  H       2.919688     -0.496553      1.385469
  H       3.711559     -2.077450      1.271451
  H      -1.064236      2.577335      2.173230
  H      -0.741910      4.074327      1.272308
  H       0.507040      2.822838      1.390301
  H      -1.060226      2.577909     -2.172776
  H       0.509548      2.823508     -1.386830
  H      -0.739881      4.074736     -1.270862
  H      -3.178067      2.315127      0.890377
  H      -2.769570      3.786582     -0.000891
  H      -3.176543      2.315597     -0.893625
>
41
-1039.80728710; 31P isotropic shielding: 180.795138 ppm
  C      -3.207117     -3.166233     -1.069132
  O      -3.188406     -1.750078     -0.824854
  C      -1.989362     -1.158528     -0.520451
  C      -2.040249      0.218635     -0.285299
  C      -0.903017      0.950073      0.034150
  C       0.362644      0.250370      0.121050
  C       0.412173     -1.169481     -0.120159
  C      -0.773937     -1.838496     -0.436893
  C       1.719366     -2.003195     -0.046858
  C       1.480930     -3.505356     -0.347776
  C       2.314537     -1.944071      1.386396
  C       2.733052     -1.507484     -1.113049
  C       1.547129      0.960189      0.440962
  P       2.853623      1.747466      0.796443
  C      -1.054766      2.473852      0.282083
  C      -0.641633      2.824417      1.737111
  C      -0.226949      3.273598     -0.760155
  C      -2.521426      2.949283      0.122304
  H      -2.582000     -3.430563     -1.934475
  H      -2.867696     -3.727562     -0.186548
  H      -4.250660     -3.413181     -1.281887
  H      -3.011922      0.690898     -0.363219
  H      -0.752110     -2.902874     -0.620463
  H       1.093178     -3.672568     -1.360876
  H       0.797343     -3.971811      0.373172
  H       2.440919     -4.030789     -0.275008
  H       3.242879     -2.530040      1.426100
  H       1.607816     -2.380792      2.104557
  H       2.542146     -0.927376      1.708052
  H       2.995097     -0.456414     -0.988932
  H       2.314409     -1.640015     -2.119517
  H       3.656447     -2.099143     -1.049430
  H       0.387698      2.544001      1.962566
  H      -1.301327      2.310374      2.448709
  H      -0.744628      3.905816      1.899767
  H      -0.339617      4.350273     -0.573676
  H      -0.597026      3.065167     -1.772799
  H       0.836497      3.034387     -0.729913
  H      -2.562632      4.029423      0.309464
  H      -2.904466      2.775710     -0.891079
  H      -3.195734      2.464819      0.839563
>
41
-1039.80726677; 31P isotropic shielding: 180.716497 ppm
  C      -4.169886     -1.665418      1.080087
  O      -2.856352     -2.223991      0.910457
  C      -1.832736     -1.381646      0.559501
  C      -1.977026     -0.009072      0.355689
  C      -0.888256      0.790796     -0.004241
  C       0.402204      0.170230     -0.166210
  C       0.547039     -1.254087      0.056378
  C      -0.580231     -1.984546      0.411336
  C       1.896913     -2.006089     -0.078183
  C       1.758403     -3.518100      0.233037
  C       2.925561     -1.448770      0.942612
  C       2.422727     -1.912259     -1.536138
  C       1.524584      0.948117     -0.546198
  P       2.763627      1.806208     -0.972193
  C      -1.138318      2.309397     -0.207188
  C      -2.615368      2.704729      0.048804
  C      -0.293538      3.133260      0.801955
  C      -0.835832      2.712863     -1.675597
  H      -4.813098     -2.506365      1.352529
  H      -4.182948     -0.915031      1.883819
  H      -4.532860     -1.210002      0.147272
  H      -2.950548      0.441798      0.481318
  H      -0.528606     -3.052009      0.587722
  H       1.076613     -4.025038     -0.461421
  H       1.413727     -3.701027      1.258540
  H       2.743708     -3.988985      0.128695
  H       3.113863     -0.382362      0.814699
  H       3.880854     -1.979389      0.831445
  H       2.564310     -1.612710      1.966549
  H       3.381172     -2.442653     -1.617473
  H       2.575361     -0.884153     -1.866116
  H       1.712014     -2.391112     -2.222739
  H      -2.931659      2.494209      1.078543
  H      -3.306192      2.204199     -0.641573
  H      -2.719749      3.784831     -0.111051
  H      -0.476981      4.205438      0.648925
  H       0.777384      2.955292      0.700576
  H      -0.586463      2.882785      1.830230
  H      -1.006538      3.790304     -1.804601
  H       0.190802      2.494582     -1.971599
  H      -1.510379      2.179075     -2.358198
>
41
-1039.80737053; 31P isotropic shielding: 180.943589 ppm
  C      -3.193529     -3.212935      0.953978
  O      -3.168600     -1.783499      0.807490
  C      -1.969833     -1.179549      0.527449
  C      -2.014416      0.210810      0.389001
  C      -0.878191      0.955193      0.097279
  C       0.378591      0.254536     -0.069654
  C       0.425089     -1.177091      0.089363
  C      -0.759706     -1.858638      0.383798
  C       1.726959     -2.011110     -0.049844
  C       1.491318     -3.522825      0.201222
  C       2.770762     -1.560121      1.007167
  C       2.285072     -1.897631     -1.494378
  C       1.554651      0.974658     -0.397395
  P       2.852171      1.767845     -0.771350
  C      -1.021447      2.494369     -0.032356
  C      -2.478572      2.965739      0.207557
  C      -0.153828      3.206875      1.039859
  C      -0.646855      2.954355     -1.468829
  H      -2.865000     -3.713921      0.031782
  H      -2.562492     -3.539581      1.793532
  H      -4.236761     -3.468319      1.158737
  H      -2.980646      0.682377      0.519712
  H      -0.740521     -2.932178      0.502276
  H       0.799974     -3.964837     -0.527710
  H       1.113439     -3.723863      1.211930
  H       2.450334     -4.045485      0.101202
  H       3.682598     -2.164268      0.906572
  H       2.372338     -1.713912      2.018818
  H       3.047034     -0.510333      0.905657
  H       2.515993     -0.870350     -1.778199
  H       1.554729     -2.295818     -2.211156
  H       3.205019     -2.491364     -1.582733
  H      -2.843414      2.698540      1.207181
  H      -3.174680      2.561247     -0.538449
  H      -2.509929      4.059160      0.127355
  H      -0.511632      2.948883      2.045536
  H      -0.238292      4.295741      0.920321
  H       0.901856      2.940744      0.974201
  H       0.421766      2.875171     -1.669937
  H      -1.180153      2.349520     -2.213867
  H      -0.944293      4.002165     -1.608517
>
41
-1039.80709417; 31P isotropic shielding: 183.814727 ppm
  C      -3.226056     -3.254628     -0.654366
  O      -3.196353     -1.819658     -0.581753
  C      -1.989002     -1.204318     -0.372107
  C      -2.027523      0.191667     -0.310246
  C      -0.880818      0.948078     -0.102717
  C       0.382156      0.254811      0.050801
  C       0.419066     -1.184321     -0.012664
  C      -0.776372     -1.878021     -0.223803
  C       1.722414     -2.013354      0.141897
  C       2.719935     -1.663367     -0.995451
  C       1.469185     -3.539157      0.033082
  C       2.344894     -1.780978      1.545182
  C       1.575458      0.990244      0.261988
  P       2.892633      1.805183      0.494418
  C      -1.019479      2.491947     -0.048188
  C      -0.207525      3.145563     -1.199199
  C      -2.485991      2.955570     -0.239846
  C      -0.577302      3.021459      1.342568
  H      -2.614955     -3.624781     -1.490419
  H      -2.876854     -3.708933      0.284259
  H      -4.273829     -3.518140     -0.821581
  H      -2.997246      0.658388     -0.432746
  H      -0.763702     -2.957026     -0.273686
  H       2.285721     -1.925076     -1.969599
  H       3.643278     -2.244871     -0.869103
  H       2.985133     -0.605837     -1.013834
  H       2.427938     -4.060394      0.143262
  H       1.053153     -3.823603     -0.941803
  H       0.802877     -3.909128      0.822930
  H       1.645207     -2.109268      2.325270
  H       2.593754     -0.735375      1.729113
  H       3.264655     -2.373289      1.643295
  H      -0.600940      2.815712     -2.169902
  H       0.854478      2.900671     -1.161028
  H      -0.307379      4.238219     -1.147420
  H      -2.516095      4.051091     -0.190728
  H      -3.149466      2.573187      0.546063
  H      -2.891043      2.658824     -1.215462
  H      -1.224038      2.604535      2.126010
  H       0.455547      2.766972      1.582014
  H      -0.674611      4.115300      1.370397
