29
-1003.53758287; 31P isotropic shielding: -58.147778 ppm
  C      -4.318653      0.993086     -0.200093
  N      -2.888489      1.211945      0.001712
  C      -1.990485      0.174347      0.019351
  N      -2.496540     -1.084059     -0.104484
  P      -1.477786     -2.357750     -0.055511
  N       0.046394     -1.802817      0.133065
  C       0.251524     -0.459321      0.205851
  N      -0.688441      0.508215      0.161234
  N       1.552047     -0.037689      0.331108
  C       1.927482      1.374193      0.457105
  C       3.087249      1.684871     -0.496246
  O       4.198477      0.797312     -0.289379
  C       3.800123     -0.572201     -0.483005
  C       2.672954     -0.972955      0.473555
  C      -2.476063      2.606730      0.134359
  H      -4.886218      1.398020      0.651439
  H      -4.655333      1.510232     -1.112030
  H      -4.511538     -0.075568     -0.293384
  H       1.056946      1.990792      0.226205
  H       2.241201      1.578232      1.494996
  H       2.737120      1.610491     -1.542390
  H       3.467160      2.698281     -0.319850
  H       4.694335     -1.179116     -0.299254
  H       3.472709     -0.722464     -1.528072
  H       2.313448     -1.982423      0.261929
  H       3.045474     -0.938811      1.511500
  H      -3.069736      3.095175      0.921062
  H      -2.643494      3.152577     -0.807928
  H      -1.418967      2.652276      0.392954
>
29
-1003.54597340; 31P isotropic shielding: -56.435503 ppm
  C      -2.448162      2.606368      0.049591
  N      -2.879029      1.212297      0.118298
  C      -1.991202      0.167508      0.075329
  N      -2.507866     -1.090481      0.139550
  P      -1.494463     -2.370527      0.125925
  N       0.040973     -1.824029      0.008993
  C       0.248416     -0.480147     -0.060227
  N      -0.683015      0.496173     -0.023129
  N       1.541467     -0.050996     -0.184726
  C       1.857276      1.385807     -0.261667
  C       3.322913      1.562192     -0.655566
  O       4.228492      0.923639      0.260178
  C       3.799843     -0.390891      0.697452
  C       2.680191     -0.977339     -0.160537
  C      -4.322580      0.998276      0.176761
  H      -2.775786      3.066297     -0.896465
  H      -2.897973      3.173525      0.877731
  H      -1.361853      2.656181      0.117256
  H       1.206636      1.867115     -1.002907
  H       1.660420      1.870731      0.707245
  H       3.485384      1.189830     -1.682605
  H       3.582488      2.627357     -0.641589
  H       3.462357     -0.318292      1.744398
  H       4.679991     -1.047913      0.662803
  H       3.040988     -1.174213     -1.182867
  H       2.338917     -1.929407      0.253676
  H      -4.806597      1.427273     -0.714544
  H      -4.741440      1.495015      1.064960
  H      -4.528086     -0.071151      0.223781
>
29
-1003.54040671; 31P isotropic shielding: -55.495756 ppm
  C      -2.440041      2.592114     -0.180914
  N      -2.858812      1.206108      0.012998
  C      -1.965554      0.165232      0.023471
  N      -2.468825     -1.083896      0.222437
  P      -1.451508     -2.361401      0.232562
  N       0.070886     -1.822176     -0.015620
  C       0.268184     -0.484952     -0.179434
  N      -0.666594      0.487900     -0.170030
  N       1.552535     -0.055815     -0.377065
  C       1.852539      1.379968     -0.515129
  C       3.369254      1.574777     -0.602147
  O       4.044011      0.921311      0.480341
  C       3.780728     -0.504847      0.557307
  C       2.693363     -0.971954     -0.416867
  C      -4.285469      1.003793      0.250645
  H      -3.015103      3.043063     -1.003373
  H      -2.628051      3.182133      0.730099
  H      -1.376717      2.620542     -0.416480
  H       1.360610      1.793778     -1.409417
  H       1.452613      1.917408      0.354815
  H       3.758263      1.233128     -1.577669
  H       3.608287      2.640050     -0.506366
  H       3.473755     -0.711983      1.592222
  H       4.716330     -1.050517      0.353557
  H       3.090864     -1.029488     -1.442309
  H       2.340042     -1.968609     -0.142561
  H      -4.866966      1.397893     -0.596415
  H      -4.599111      1.540756      1.159503
  H      -4.485011     -0.061217      0.369040
>
29
-1003.54029562; 31P isotropic shielding: -54.994143 ppm
  C      -2.416362      2.509152     -0.700758
  N      -2.851110      1.178407     -0.284057
  C      -1.967573      0.152234     -0.064486
  N      -2.489617     -1.044493      0.321540
  P      -1.483112     -2.293551      0.625468
  N       0.053380     -1.806611      0.357727
  C       0.267054     -0.526082     -0.052708
  N      -0.658533      0.435609     -0.252243
  N       1.561294     -0.154913     -0.296158
  C       2.694214     -1.052526     -0.035269
  C       3.826350     -0.268175      0.625171
  O       4.268972      0.867743     -0.159261
  C       3.344990      1.267315     -1.186235
  C       1.887505      1.214332     -0.730424
  C      -4.292906      1.003867     -0.130278
  H      -2.768627      3.262994      0.019741
  H      -1.328589      2.535827     -0.753988
  H      -2.839571      2.756610     -1.686806
  H       2.350235     -1.855870      0.621088
  H       3.043346     -1.518341     -0.970667
  H       3.496762      0.093088      1.613415
  H       4.698721     -0.920199      0.769608
  H       3.478561      0.643942     -2.088089
  H       3.612519      2.297707     -1.448802
  H       1.716492      1.926260      0.092256
  H       1.225233      1.507409     -1.554726
  H      -4.502133     -0.019261      0.182009
  H      -4.803045      1.210012     -1.083913
  H      -4.680249      1.706814      0.623046
>
29
-1003.54039497; 31P isotropic shielding: -55.406722 ppm
  C      -2.439435      2.585151     -0.213407
  N      -2.856471      1.199675     -0.011035
  C      -1.960939      0.160924      0.007710
  N      -2.461051     -1.087592      0.218025
  P      -1.441589     -2.363214      0.234220
  N       0.079015     -1.822640     -0.021119
  C       0.273885     -0.486175     -0.193415
  N      -0.662869      0.484728     -0.189758
  N       1.557540     -0.055936     -0.393585
  C       1.854790      1.379347     -0.542069
  C       3.371731      1.576851     -0.622750
  O       4.041474      0.928593      0.465843
  C       3.787163     -0.499411      0.540269
  C       2.699478     -0.970442     -0.432077
  C      -4.281128      0.997401      0.238455
  H      -1.383948      2.611323     -0.482317
  H      -3.039369      3.038975     -1.015946
  H      -2.595920      3.174147      0.704383
  H       1.365919      1.785421     -1.441654
  H       1.449552      1.922503      0.321777
  H       3.766507      1.231839     -1.594808
  H       3.608424      2.642919     -0.530249
  H       3.484562     -0.709669      1.575727
  H       4.725376     -1.039313      0.332779
  H       3.096281     -1.029702     -1.457715
  H       2.347735     -1.966997     -0.155362
  H      -4.869159      1.387306     -0.605928
  H      -4.588741      1.537736      1.147486
  H      -4.478910     -0.067248      0.363120
>
29
-1003.54027610; 31P isotropic shielding: -54.681512 ppm
  C      -2.424051      2.620436      0.177414
  N      -2.848872      1.222922      0.170076
  C      -1.955429      0.184617      0.096436
  N      -2.468194     -1.076588      0.085900
  P      -1.449445     -2.351379      0.032910
  N       0.085869     -1.795107     -0.022224
  C       0.289339     -0.448759     -0.020161
  N      -0.646674      0.521524      0.045307
  N       1.583147     -0.010553     -0.094410
  C       1.895467      1.429058     -0.093789
  C       3.367973      1.628308     -0.449276
  O       4.256771      0.948432      0.452968
  C       3.826049     -0.388865      0.812897
  C       2.724244     -0.934040     -0.094061
  C      -4.292219      1.000695      0.191509
  H      -1.337295      2.670974      0.235881
  H      -2.765198      3.130908     -0.737247
  H      -2.865445      3.139079      1.041427
  H       1.258049      1.945273     -0.823017
  H       1.677555      1.864980      0.893677
  H       3.551947      1.306104     -1.489516
  H       3.623873      2.692082     -0.378639
  H       3.470462     -0.371306      1.856144
  H       4.708849     -1.041179      0.759725
  H       3.104874     -1.080015     -1.117763
  H       2.378340     -1.906143      0.266387
  H      -4.761689      1.468108     -0.688155
  H      -4.730078      1.454498      1.093447
  H      -4.493417     -0.070565      0.185653
>
29
-1003.54041558; 31P isotropic shielding: -55.514224 ppm
  C      -4.296628      0.974019      0.167656
  N      -2.864252      1.194662     -0.020522
  C      -1.964477      0.160431      0.013268
  N      -2.465702     -1.103834      0.075997
  P      -1.432869     -2.367923      0.110475
  N       0.097332     -1.798193      0.039322
  C       0.288071     -0.452107     -0.027096
  N      -0.658839      0.511044     -0.023422
  N       1.578341     -0.003722     -0.101160
  C       2.728736     -0.912211     -0.007598
  C       3.793330     -0.297661      0.899382
  O       4.233604      1.011673      0.459190
  C       3.352854      1.638086     -0.489788
  C       1.875909      1.438248     -0.154022
  C      -2.419416      2.587758     -0.032290
  H      -4.625492      1.371365      1.141564
  H      -4.859511      1.491686     -0.621846
  H      -4.504031     -0.095461      0.127167
  H       2.380921     -1.864750      0.400314
  H       3.144653     -1.115230     -1.007430
  H       3.397100     -0.209880      1.924557
  H       4.680614     -0.945020      0.926611
  H       3.559583      1.267422     -1.509332
  H       3.595547      2.707088     -0.466506
  H       1.631597      1.913550      0.808645
  H       1.248766      1.915660     -0.917439
  H      -2.320025      2.988593      0.989921
  H      -3.162145      3.190382     -0.569667
  H      -1.450672      2.664625     -0.527449
>
29
-1003.54041632; 31P isotropic shielding: -54.810588 ppm
  C      -2.465926      2.614013      0.229384
  N      -2.874118      1.222846      0.055386
  C      -1.971672      0.189096      0.021820
  N      -2.475991     -1.067472     -0.128146
  P      -1.455000     -2.340577     -0.145613
  N       0.074922     -1.788274      0.016036
  C       0.273147     -0.445983      0.124246
  N      -0.668097      0.522176      0.144244
  N       1.575546     -0.040525      0.230308
  C       1.963653      1.371259      0.302104
  C       3.135092      1.641897     -0.644001
  O       4.246185      0.728440     -0.463450
  C       3.996440     -0.319743      0.486125
  C       2.667683     -1.032609      0.233804
  C      -4.310152      1.001672     -0.093432
  H      -2.723265      3.205316     -0.663570
  H      -2.991222      3.053353      1.090935
  H      -1.390651      2.660709      0.396867
  H       1.102953      1.977338      0.011573
  H       2.227107      1.646304      1.336093
  H       2.794813      1.552901     -1.687585
  H       3.507264      2.665822     -0.486893
  H       4.035649      0.069576      1.519001
  H       4.821692     -1.030843      0.367410
  H       2.694559     -1.565207     -0.726976
  H       2.489072     -1.783262      1.015741
  H      -4.500745     -0.063563     -0.223416
  H      -4.688406      1.554486     -0.967172
  H      -4.843332      1.366253      0.797975
