46
-74.68228753; 31P isotropic shielding: 123.044436 ppm
C         -5.05250       -0.98440       -0.22930
C         -3.59890       -1.33550       -0.13730
C         -2.83870       -1.53900       -1.28400
C         -1.48780       -1.82980       -1.19350
C         -0.90750       -1.94170        0.05300
C         -1.63940       -1.74590        1.20880
C         -2.98390       -1.43870        1.10810
S          0.84920       -2.20170        0.19130
O          1.13540       -3.20820        1.16260
O          1.42760       -2.31680       -1.12180
N          1.40520       -0.70900        0.67370
N          1.00090       -0.11710        1.85550
C          0.95240        1.15150        1.70820
N          1.30850        1.64440        0.46960
P          1.50780        0.36520       -0.71450
N          3.17730        0.48510       -0.94760
C          4.11020        0.34270        0.15190
C          3.67820       -0.04090       -2.20290
C          0.85800        2.93410        0.00570
C         -0.60740        2.88340       -0.29420
C         -1.65210        3.70680        0.00090
C         -2.80930        3.07590       -0.52340
C         -2.37950        1.91660       -1.08670
O         -1.04880        1.79100       -0.95140
C          0.57560        2.05060        2.83170
H         -5.43590       -1.16220       -1.23060
H         -5.63370       -1.57040        0.47930
H         -5.19610        0.06890        0.01250
H         -3.30670       -1.46830       -2.25580
H         -0.87370       -1.97720       -2.06750
H         -1.14270       -1.83240        2.16190
H         -3.56780       -1.27780        2.00240
H          5.02790        0.88650       -0.08480
H          4.35740       -0.70700        0.34110
H          3.67210        0.76400        1.05500
H          4.55310        0.53430       -2.51730
H          3.95300       -1.09640       -2.12340
H          2.89680        0.05160       -2.95560
H          1.42210        3.15730       -0.90720
H          1.06450        3.71360        0.74290
H         -1.60670        4.64450        0.51590
H         -3.81460        3.44160       -0.48030
H         -2.89440        1.12480       -1.59130
H          0.43860        1.44840        3.72410
H          1.35660        2.78840        3.00920
H         -0.35230        2.57320        2.60130
>
46
-74.68228397; 31P isotropic shielding: 120.027581 ppm
C         -4.93810       -4.50410        1.07070
C         -3.62220       -3.85970        0.75980
C         -3.47250       -3.06220       -0.37070
C         -2.25150       -2.48360       -0.66870
C         -1.17590       -2.71410        0.16550
C         -1.29890       -3.49700        1.29610
C         -2.52370       -4.06960        1.58860
S          0.36790       -1.89950       -0.17510
O          1.44250       -2.62540        0.43330
O          0.46690       -1.57850       -1.57540
N          0.15970       -0.40840        0.49560
N          0.08620       -0.13480        1.84580
C          0.13680        1.13230        2.01290
N          0.28690        1.89500        0.87560
P          0.34400        0.94700       -0.59540
N          2.01790        1.01720       -0.89580
C          2.41310        0.76610       -2.26840
C          2.96050        0.49280        0.07400
C          0.26500        3.33870        0.88790
C          0.85680        3.85840       -0.37720
C          1.86820        4.73560       -0.62500
C          1.98930        4.80800       -2.03600
C          1.04710        3.96570       -2.53340
O          0.35360        3.39110       -1.53660
C          0.05880        1.74140        3.36810
H         -5.75820       -3.95780        0.61200
H         -4.95090       -5.52280        0.68260
H         -5.10080       -4.55400        2.14470
H         -4.31950       -2.89270       -1.01940
H         -2.10960       -1.86270       -1.53910
H         -0.43340       -3.64540        1.92130
H         -2.63250       -4.68540        2.46940
H          3.31600        1.33880       -2.49740
H          1.60600        1.08630       -2.92470
H          2.59860       -0.29600       -2.45090
H          3.01150       -0.60200        0.05020
H          3.95030        0.90130       -0.14120
H          2.66560        0.80260        1.07630
H          0.85090        3.72310        1.72870
H         -0.76900        3.70530        0.98990
H          2.45390        5.26450        0.09870
H          2.68540        5.40210       -2.59140
H          0.77810        3.70180       -3.53660
H         -0.77630        2.43780        3.42800
H         -0.08010        0.94570        4.09300
H          0.97690        2.27990        3.60090
>
46
-74.68227798; 31P isotropic shielding: 155.728666 ppm
C         -5.03400       -0.92260       -0.22430
C         -3.58630       -1.29630       -0.12960
C         -2.83100       -1.51610       -1.27670
C         -1.48370       -1.82210       -1.18760
C         -0.90200       -1.93420        0.05850
C         -1.62930       -1.72400        1.21440
C         -2.97030       -1.40050        1.11480
S          0.85270       -2.20910        0.19530
O          1.13260       -3.21740        1.16640
O          1.42920       -2.32850       -1.11810
N          1.41680       -0.71850        0.67740
N          1.01270       -0.12880        1.86050
C          0.95130        1.13910        1.71270
N          1.29580        1.63410        0.47200
P          1.50590        0.35670       -0.71180
N          3.17340        0.49230       -0.94890
C          3.67720       -0.03210       -2.20360
C          4.11090        0.36640        0.14860
C          0.83970        2.92310        0.01000
C         -0.62330        2.86450       -0.29760
C         -1.68400        3.64720        0.04740
C         -2.82900        3.02680       -0.51470
C         -2.37670        1.91290       -1.14770
O         -1.04380        1.80560       -1.02000
C          0.57160        2.03510        2.83770
H         -5.44540       -1.19350       -1.19320
H         -5.61100       -1.41540        0.55480
H         -5.14680        0.15420       -0.09370
H         -3.30090       -1.44630       -2.24770
H         -0.87310       -1.98140       -2.06210
H         -1.13200       -1.81190        2.16720
H         -3.54980       -1.22780        2.00990
H          4.54170        0.55500       -2.52480
H          2.89130        0.04400       -2.95340
H          3.96910       -1.08270       -2.11980
H          5.02150        0.91970       -0.09360
H          3.67060        0.78720        1.05090
H          4.37100       -0.67930        0.34250
H          1.40660        3.15240       -0.89940
H          1.03740        3.70050        0.75160
H         -1.65680        4.55300        0.61800
H         -3.84110        3.36980       -0.45010
H         -2.87640        1.14470       -1.70150
H          0.45120        1.43280        3.73250
H          1.34320        2.78470        3.00690
H         -0.36590        2.54320        2.61420
>
46
-74.68226886; 31P isotropic shielding: 120.810256 ppm
C         -4.89300       -4.49180        1.16650
C         -3.58480       -3.87260        0.78080
C         -2.41700       -4.22360        1.45210
C         -1.20710       -3.64390        1.11480
C         -1.16920       -2.71190        0.09690
C         -2.31410       -2.34030       -0.57910
C         -3.52010       -2.92550       -0.23670
S          0.35960       -1.89620       -0.30340
O          1.46400       -2.67390        0.17290
O          0.35780       -1.48470       -1.68380
N          0.22980       -0.44820        0.47150
N          0.25760       -0.25110        1.83640
C          0.31630        1.00530        2.06960
N          0.37360        1.83120        0.96870
P          0.31020        0.96710       -0.55350
N          1.95220        1.06960       -0.99050
C          2.22820        0.90120       -2.40440
C          2.97410        0.49300       -0.13780
C          0.34880        3.27160        1.06440
C          0.82670        3.86550       -0.21600
C          1.81050        4.76240       -0.50140
C          1.80770        4.91410       -1.91130
C          0.82780        4.09400       -2.37120
O          0.22530        3.45980       -1.35160
C          0.34230        1.53770        3.45870
H         -5.61100       -4.42510        0.35340
H         -4.76090       -5.53640        1.43860
H         -5.30820       -3.97150        2.02990
H         -2.45930       -4.95720        2.24400
H         -0.28850       -3.90160        1.61670
H         -2.23700       -1.60820       -1.36750
H         -4.42110       -2.64640       -0.76330
H          1.36800        1.25570       -2.96920
H          2.39660       -0.14750       -2.66420
H          3.10840        1.49040       -2.67570
H          3.94180        0.91950       -0.41090
H          2.76500        0.73980        0.90290
H          3.02350       -0.59800       -0.23260
H          1.00480        3.61270        1.87160
H         -0.67330        3.62420        1.27630
H          2.45590        5.25450        0.19710
H          2.45110        5.54320       -2.49110
H          0.47270        3.88420       -3.36040
H          0.26190        0.70220        4.14670
H          1.27440        2.06860        3.64960
H         -0.48720        2.22440        3.62170
>
46
-74.68225883; 31P isotropic shielding: 154.718544 ppm
C         -4.92580       -4.39120        1.15090
C         -3.59780       -3.81050        0.77310
C         -2.44120       -4.18690        1.44850
C         -1.21670       -3.63530        1.11370
C         -1.15410       -2.70700        0.09450
C         -2.28830       -2.31060       -0.58660
C         -3.50780       -2.86730       -0.24730
S          0.39180       -1.91930       -0.29610
O          1.48000       -2.71560        0.18530
O          0.40480       -1.50400       -1.67540
N          0.28340       -0.47070        0.48010
N          0.29790       -0.27040        1.84450
C          0.33440        0.98750        2.07450
N          0.38050        1.81150        0.97160
P          0.33040        0.94210       -0.54860
N          1.97030        1.07280       -0.98740
C          2.24720        0.91160       -2.40200
C          3.00010        0.50610       -0.13780
C          0.32860        3.25110        1.06550
C          0.77870        3.85370       -0.22090
C          1.73010        4.78170       -0.51700
C          1.71030        4.92930       -1.92720
C          0.75380        4.07650       -2.37670
O          0.18120        3.42570       -1.35030
C          0.34850        1.52370        3.46220
H         -5.42870       -3.73270        1.85950
H         -5.56610       -4.49470        0.27820
H         -4.80610       -5.36390        1.62090
H         -2.50170       -4.91720        2.24210
H         -0.30620       -3.91260        1.61990
H         -2.19160       -1.58160       -1.37580
H         -4.40110       -2.56960       -0.77670
H          1.38270        1.25790       -2.96540
H          2.42770       -0.13420       -2.66510
H          3.12030        1.51180       -2.67210
H          3.96210        0.94600       -0.40950
H          2.78830        0.74550        0.90410
H          3.06340       -0.58390       -0.23730
H          0.98750        3.60650        1.86440
H         -0.69750        3.58410        1.28980
H          2.36500        5.29640        0.17460
H          2.32790        5.57760       -2.51400
H          0.39720        3.85260       -3.36230
H          1.27030        2.07230        3.65280
H         -0.49370        2.19530        3.62260
H          0.28270        0.68850        4.15220
>
46
-74.68224201; 31P isotropic shielding: 154.440233 ppm
C         -4.94850       -4.35650        1.09950
C         -3.60980       -3.78030        0.75370
C         -2.45130       -4.23430        1.37340
C         -1.21830       -3.69310        1.04950
C         -1.15090       -2.69740        0.09720
C         -2.28820       -2.22300       -0.52810
C         -3.51480       -2.76860       -0.19980
S          0.40670       -1.92920       -0.28750
O          1.48310       -2.74740        0.18270
O          0.42040       -1.50300       -1.66390
N          0.32860       -0.48330        0.49560
N          0.34130       -0.28190        1.85960
C          0.36430        0.97680        2.08800
N          0.39600        1.80000        0.98410
P          0.33790        0.92850       -0.53540
N          1.96910        1.08060       -0.99720
C          2.22730        0.92360       -2.41570
C          3.01820        0.52740       -0.16280
C          0.32840        3.23900        1.07760
C          0.75710        3.84500       -0.21450
C          1.69680        4.78090       -0.52260
C          1.65850        4.92750       -1.93260
C          0.70440        4.06570       -2.37000
O          0.14980        3.41080       -1.33620
C          0.37870        1.51480        3.47490
H         -4.84950       -5.18970        1.78970
H         -5.57670       -3.59590        1.56180
H         -5.45610       -4.70360        0.20110
H         -2.51400       -5.01710        2.11510
H         -0.30570       -4.02940        1.51460
H         -2.18760       -1.44260       -1.26620
H         -4.41150       -2.41070       -0.68450
H          2.42200       -0.11910       -2.68120
H          3.08540        1.53890       -2.69960
H          1.34830        1.25390       -2.96600
H          2.81600        0.76040        0.88240
H          3.09650       -0.56130       -0.26680
H          3.97000        0.98250       -0.44560
H          0.99240        3.60250        1.86860
H         -0.69880        3.56070        1.31340
H          2.33550        5.30170        0.16100
H          2.26320        5.58070       -2.52730
H          0.33820        3.83780       -3.35100
H         -0.47030        2.17710        3.63820
H          0.32550        0.67990        4.16620
H          1.29500        2.07420        3.66070
>
46
-74.68225546; 31P isotropic shielding: 153.220234 ppm
C         -4.84880       -4.60270        1.21240
C         -3.55850       -3.95120        0.81930
C         -2.38700       -4.21150        1.52240
C         -1.19900       -3.59650        1.16710
C         -1.18800       -2.72070        0.10050
C         -2.33910       -2.43800       -0.60850
C         -3.52150       -3.05820       -0.24870
S          0.31380       -1.86620       -0.32030
O          1.44160       -2.61080        0.15550
O          0.29430       -1.46740       -1.70380
N          0.14840       -0.41660        0.44780
N          0.18070       -0.22410        1.81380
C          0.26760        1.02970        2.05200
N          0.35070        1.85750        0.95420
P          0.28810        1.00030       -0.57090
N          1.93740        1.06440       -0.98390
C          2.23350        0.88590       -2.39230
C          2.94000        0.48370       -0.11130
C          0.36540        3.29830        1.05060
C          0.89260        3.87540       -0.21810
C          1.93020        4.71600       -0.48330
C          1.95820        4.87410       -1.89230
C          0.94060        4.11300       -2.37160
O          0.28720        3.50910       -1.36510
C          0.29670        1.55690        3.44290
H         -5.43110       -4.86800        0.33290
H         -4.66990       -5.49780        1.80220
H         -5.44410       -3.91370        1.81180
H         -2.40590       -4.90160        2.35310
H         -0.27710       -3.78540        1.69290
H         -2.28330       -1.74710       -1.43490
H         -4.42730       -2.85080       -0.79950
H          1.38640        1.24760       -2.97230
H          2.39390       -0.16590       -2.64440
H          3.12470        1.46350       -2.65250
H          2.97950       -0.60820       -0.19670
H          3.91620        0.89830       -0.37280
H          2.71790        0.74100        0.92410
H          1.01090        3.62020        1.87370
H         -0.65100        3.68020        1.23640
H          2.59160        5.16710        0.22770
H          2.64540        5.46820       -2.45860
H          0.58980        3.92870       -3.36730
H          1.23970        2.06510        3.64190
H         -0.51760        2.26230        3.60250
H          0.19190        0.72140        4.12760
>
46
-74.68224689; 31P isotropic shielding: 155.823858 ppm
C         -4.93160       -4.46650        1.16190
C         -3.60820       -3.86150        0.80660
C         -3.46370       -3.08720       -0.34020
C         -2.24470       -2.51160       -0.65350
C         -1.16660       -2.72200        0.18240
C         -1.28440       -3.48240        1.32910
C         -2.50650       -4.05220        1.63630
S          0.37230       -1.90400       -0.17030
O          1.45060       -2.61050        0.45440
O          0.47710       -1.60280       -1.57440
N          0.14840       -0.40490        0.47700
N          0.02900       -0.11660        1.82060
C          0.06250        1.15290        1.97410
N          0.24330        1.90330        0.83310
P          0.35080        0.93880       -0.62440
N          2.03190        1.01320       -0.87860
C          2.95120        0.51630        0.12720
C          2.46690        0.73890       -2.23470
C          0.20130        3.34670        0.82430
C          0.84930        3.85620       -0.41700
C          1.87170        4.73060       -0.62650
C          2.05850        4.78820       -2.03100
C          1.14020        3.94070       -2.56290
O          0.40050        3.37660       -1.59360
C         -0.06760        1.77670        3.31850
H         -5.41630       -3.86910        1.93420
H         -5.58930       -4.50340        0.29760
H         -4.80270       -5.47340        1.55250
H         -4.31240       -2.93370       -0.99070
H         -2.10670       -1.90960       -1.53770
H         -0.41610       -3.61720        1.95340
H         -2.61150       -4.65140        2.52900
H          2.62610        0.84440        1.11430
H          3.94350        0.92850       -0.06900
H          3.01130       -0.57830        0.12740
H          3.37000        1.31620       -2.45100
H          2.66810       -0.32460       -2.39050
H          1.67460        1.03700       -2.91890
H          0.73950        3.74980        1.68790
H         -0.84110        3.70030        0.86910
H          2.42310        5.26710        0.11830
H          2.78000        5.37660       -2.55940
H          0.91830        3.66630       -3.57480
H         -0.91220        2.46390        3.34210
H         -0.22210        0.98770        4.04760
H          0.83590        2.32840        3.57590
>
46
-74.68224279; 31P isotropic shielding: 155.625845 ppm
C         -4.82770       -4.65790        1.22320
C         -3.55310       -3.98140        0.82150
C         -2.38950       -4.18670        1.55810
C         -1.20970       -3.55790        1.20410
C         -1.19700       -2.72200        0.10490
C         -2.33880       -2.49360       -0.63630
C         -3.51480       -3.12860       -0.27700
S          0.29750       -1.85620       -0.31940
O          1.43050       -2.59020        0.16100
O          0.27590       -1.46620       -1.70510
N          0.12090       -0.40420        0.44280
N          0.15890       -0.21070        1.80860
C          0.25720        1.04230        2.04600
N          0.34740        1.86880        0.94770
P          0.28070        1.01100       -0.57650
N          1.93140        1.05870       -0.98530
C          2.22940        0.87100       -2.39200
C          2.92890        0.47730       -0.10730
C          0.37090        3.30960        1.04350
C          0.91270        3.88370       -0.22040
C          1.95240        4.72510       -0.47490
C          1.99700        4.88020       -1.88380
C          0.98600        4.11690       -2.37360
O          0.32130        3.51470       -1.37360
C          0.29230        1.56970        3.43680
H         -5.28060       -4.12790        2.06130
H         -5.54000       -4.66800        0.40250
H         -4.63770       -5.68080        1.54010
H         -2.41200       -4.84610        2.41350
H         -0.29470       -3.70510        1.75450
H         -2.28220       -1.83300       -1.48690
H         -4.41240       -2.96250       -0.85480
H          3.12440        1.44210       -2.65360
H          1.38530        1.23420       -2.97560
H          2.38430       -0.18300       -2.63810
H          2.70550        0.74080        0.92640
H          2.96330       -0.61510       -0.18720
H          3.90770        0.88590       -0.36830
H          1.01140        3.62740        1.87210
H         -0.64450        3.69820        1.22090
H          2.60460        5.17870        0.24300
H          2.69020        5.47410       -2.44300
H          0.64760        3.92980       -3.37310
H          0.18120        0.73530        4.12180
H          1.23990        2.06980        3.63460
H         -0.51580        2.28200        3.59720
>
46
-74.68224269; 31P isotropic shielding: 156.251342 ppm
C         -4.96930       -4.29800        1.07290
C         -3.62680       -3.71720        0.75040
C         -2.48920       -4.16300        1.41720
C         -1.24240       -3.64890        1.10830
C         -1.13750       -2.68770        0.12300
C         -2.25110       -2.22270       -0.54780
C         -3.49410       -2.74240       -0.23400
S          0.43990       -1.95060       -0.24180
O          1.49320       -2.77940        0.26050
O          0.48590       -1.54340       -1.62350
N          0.37570       -0.49220        0.51850
N          0.35650       -0.26620        1.87830
C          0.35170        0.99680        2.08350
N          0.38450        1.80020        0.96530
P          0.35940        0.89940       -0.53860
N          1.99150        1.07670       -0.98800
C          3.04320        0.55670       -0.13580
C          2.26580        0.90260       -2.40140
C          0.28680        3.23890        1.03220
C          0.71080        3.83080       -0.26790
C          1.62840        4.78500       -0.58640
C          1.59820        4.90410       -1.99920
C          0.66970        4.01030       -2.42750
O          0.12370        3.36060       -1.38590
C          0.33590        1.56020        3.46040
H         -5.76680       -3.61090        0.80240
H         -5.11500       -5.22250        0.51380
H         -5.04590       -4.53270        2.13180
H         -2.58430       -4.91760        2.18430
H         -0.34660       -3.97800        1.60970
H         -2.12210       -1.46850       -1.30840
H         -4.37150       -2.38870       -0.75570
H          3.98720        1.03200       -0.41120
H          3.14890       -0.53070       -0.22890
H          2.82250        0.79390        0.90450
H          3.11690        1.52700       -2.68650
H          2.47940       -0.14080       -2.64930
H          1.38710        1.21080       -2.96490
H          0.93830        3.63010        1.82030
H         -0.74810        3.54370        1.25640
H          2.24790        5.33470        0.09220
H          2.19060        5.56170       -2.60130
H          0.31700        3.75520       -3.40680
H          1.23820        2.14160        3.64760
H         -0.52830        2.20800        3.60010
H          0.29020        0.73730        4.16640
>
46
-74.68222542; 31P isotropic shielding: 152.706605 ppm
C         -5.06320       -4.06630        1.01930
C         -3.68060       -3.56130        0.74260
C         -3.45870       -2.64510       -0.28240
C         -2.18190       -2.19070       -0.55700
C         -1.12310       -2.66250        0.19390
C         -1.31640       -3.56550        1.21950
C         -2.59750       -4.01500        1.48860
S          0.49780       -1.99760       -0.11430
O          1.49120       -2.83450        0.48530
O          0.63700       -1.65510       -1.50740
N          0.44920       -0.50250        0.57300
N          0.29960       -0.20730        1.91120
C          0.22980        1.06350        2.04460
N          0.32120        1.80770        0.88960
P          0.42240        0.82650       -0.56120
N          2.06850        1.04660       -0.93020
C          2.42920        0.80070       -2.31310
C          3.09090        0.62850        0.00870
C          0.15700        3.24190        0.86780
C          0.65110        3.78000       -0.43080
C          1.56390        4.74210       -0.73900
C          1.62640        4.78600       -2.15500
C          0.75210        3.84450       -2.59490
O          0.15370        3.23440       -1.55820
C          0.08250        1.69690        3.38260
H         -5.15590       -4.40460        2.04810
H         -5.80390       -3.29270        0.83120
H         -5.28580       -4.90940        0.36480
H         -4.29440       -2.28690       -0.86570
H         -1.98420       -1.48250       -1.34670
H         -0.46130       -3.90080        1.78380
H         -2.76060       -4.72310        2.28780
H          3.26810        1.44470       -2.59080
H          1.57140        1.03390       -2.94120
H          2.70020       -0.24490       -2.48380
H          2.79520        0.90780        1.01950
H          3.25590       -0.45520       -0.01830
H          4.02530        1.13800       -0.23750
H          0.73170        3.70400        1.67700
H         -0.90350        3.51050        0.99920
H          2.12200        5.34410       -0.05160
H          2.24170        5.42770       -2.75130
H          0.47370        3.52810       -3.58030
H          0.94460        2.32400        3.60770
H         -0.81350        2.31500        3.41780
H          0.01040        0.91080        4.12730
>
46
-74.68221145; 31P isotropic shielding: 150.313837 ppm
C         -5.10980       -3.73940        1.03650
C         -3.69770       -3.32960        0.75120
C         -3.40990       -2.43810       -0.27780
C         -2.10280       -2.07620       -0.55160
C         -1.08210       -2.61710        0.20430
C         -1.34070       -3.49780        1.23560
C         -2.65020       -3.85400        1.50350
S          0.58240       -2.06220       -0.09240
O          1.51320       -2.96250        0.51340
O          0.75500       -1.72470       -1.48330
N          0.63510       -0.56520        0.59760
N          0.40620       -0.26980        1.92540
C          0.24360        0.99410        2.04310
N          0.31600        1.73370        0.88450
P          0.48210        0.74200       -0.55570
N          2.10220        1.07350       -0.94320
C          2.47020        0.83000       -2.32410
C          3.16450        0.77050       -0.00510
C          0.04400        3.15110        0.84350
C          0.50630        3.70610       -0.45950
C          1.36710        4.71200       -0.77690
C          1.42740        4.74610       -2.19320
C          0.60420        3.75550       -2.62400
O          0.03840        3.12440       -1.58160
C          0.01380        1.62670        3.36990
H         -5.27520       -3.83620        2.10700
H         -5.81540       -3.01840        0.63200
H         -5.31320       -4.70760        0.57860
H         -4.21590       -2.02430       -0.86610
H         -1.85480       -1.38720       -1.34440
H         -0.51220       -3.88810        1.80410
H         -2.86610       -4.54420        2.30590
H          1.59050        0.97670       -2.94800
H          2.82730       -0.19240       -2.47690
H          3.24970        1.53580       -2.62410
H          3.44420       -0.28910       -0.02980
H          4.03910        1.37600       -0.25420
H          2.84100        1.01920        1.00480
H          0.57750        3.66410        1.65020
H         -1.03430        3.34200        0.96450
H          1.89230        5.34900       -0.09510
H          2.00780        5.41390       -2.79560
H          0.34310        3.41580       -3.60630
H         -0.02500        0.84360        4.12030
H          0.82300        2.31460        3.61260
H         -0.92380        2.18070        3.37270
>
46
-74.68219903; 31P isotropic shielding: 145.301927 ppm
C         -5.02330       -4.04630        1.08340
C         -3.64960       -3.56650        0.72830
C         -2.53190       -4.09030        1.37110
C         -1.26170       -3.63710        1.06130
C         -1.11410       -2.65890        0.09880
C         -2.20700       -2.11620       -0.54760
C         -3.47340       -2.57500       -0.23270
S          0.49730       -1.99700       -0.26270
O          1.51020       -2.88510        0.21840
O          0.55720       -1.56470       -1.63650
N          0.51770       -0.54910        0.52080
N          0.45510       -0.33790        1.88170
C          0.38930        0.92180        2.09770
N          0.39770        1.73610        0.98740
P          0.39760        0.84610       -0.52490
N          2.00960        1.10760       -0.99940
C          2.26880        0.95320       -2.41780
C          3.10260        0.64590       -0.16640
C          0.23000        3.16790        1.06550
C          0.61680        3.78470       -0.23440
C          1.50830        4.76130       -0.55890
C          1.45300        4.89150       -1.96990
C          0.53780        3.98090       -2.39140
O          0.02300        3.31030       -1.34730
C          0.33280        1.47140        3.47890
H         -5.00500       -5.09340        1.37540
H         -5.41020       -3.47000        1.92420
H         -5.70710       -3.92260        0.24740
H         -2.66010       -4.85890        2.11910
H         -0.38020       -4.02870        1.54270
H         -2.04430       -1.35250       -1.29220
H         -4.33520       -2.16200       -0.73640
H          3.08060        1.62280       -2.71470
H          1.36550        1.21610       -2.96530
H          2.53320       -0.07650       -2.67410
H          4.01030        1.18670       -0.44360
H          2.87720        0.85180        0.87950
H          3.27850       -0.43050       -0.27860
H          0.86800        3.58450        1.85170
H         -0.81660        3.42150        1.29810
H          2.12620        5.31870        0.11470
H          2.02140        5.56670       -2.57560
H          0.17540        3.72630       -3.36730
H         -0.56110        2.07880        3.61370
H          0.31600        0.64100        4.17750
H          1.20580        2.09090        3.68140
>
46
-74.68219296; 31P isotropic shielding: 149.491887 ppm
C         -5.13530       -3.57200        0.99140
C         -3.70260       -3.21960        0.73250
C         -3.37450       -2.34360       -0.29960
C         -2.05480       -2.02490       -0.56050
C         -1.05990       -2.59280        0.21160
C         -1.35810       -3.45650        1.24540
C         -2.68230       -3.77030        1.50040
S          0.62390       -2.08980       -0.07000
O          1.52220       -3.01610        0.54460
O          0.81560       -1.75940       -1.46020
N          0.71440       -0.59200        0.61780
N          0.48630       -0.29470        1.94560
C          0.29130        0.96510        2.05830
N          0.33100        1.70010        0.89530
P          0.50140        0.70350       -0.54130
N          2.10190        1.08020       -0.96000
C          2.45410        0.84070       -2.34550
C          3.19170        0.83020       -0.03840
C          0.01350        3.10790        0.84870
C          0.43500        3.66550       -0.46700
C          1.26780        4.68690       -0.80890
C          1.29700        4.71290       -2.22630
C          0.48580        3.70260       -2.63330
O         -0.04430        3.06670       -1.57540
C          0.06130        1.59890        3.38440
H         -5.48050       -4.28900        0.24650
H         -5.25640       -4.01810        1.97490
H         -5.76810       -2.68990        0.92180
H         -4.16180       -1.90990       -0.89890
H         -1.77560       -1.35000       -1.35500
H         -0.54940       -3.86880        1.82690
H         -2.92670       -4.44810        2.30510
H          3.19670        1.57670       -2.66650
H          1.55730        0.94370       -2.95370
H          2.85210       -0.16660       -2.49680
H          2.87180        1.06360        0.97620
H          3.52180       -0.21450       -0.06750
H          4.03250        1.47690       -0.30100
H          0.54490        3.64390        1.64170
H         -1.06800        3.26580        0.98730
H          1.79400        5.33910       -0.14250
H          1.85030        5.38870       -2.84530
H          0.21110        3.35140       -3.60790
H          0.85210        2.31330        3.61050
H         -0.89290        2.12370        3.39760
H          0.05790        0.82010        4.14020
>
46
-74.68220181; 31P isotropic shielding: 144.089994 ppm
C         -5.13230       -3.60350        0.98320
C         -3.70450       -3.23270        0.72390
C         -3.37270       -2.37000       -0.31640
C         -2.05160       -2.04520       -0.56840
C         -1.06090       -2.59450        0.22090
C         -1.36340       -3.44610        1.26460
C         -2.68680       -3.76520        1.51050
S          0.62270       -2.08610       -0.05170
O          1.52010       -3.00430        0.57650
O          0.82390       -1.76580       -1.44290
N          0.70330       -0.58340        0.62590
N          0.46580       -0.27710        1.94980
C          0.27420        0.98400        2.05300
N          0.32610        1.71170        0.88580
P          0.50480        0.70560       -0.54300
N          2.11040        1.07510       -0.95010
C          3.19110        0.82440       -0.01790
C          2.47350        0.82450       -2.33090
C          0.01540        3.12060        0.82990
C          0.44020        3.66960       -0.48840
C          1.26440        4.69670       -0.83400
C          1.30110        4.71180       -2.25140
C          0.50210        3.69040       -2.65470
O         -0.02730        3.05760       -1.59440
C          0.03560        1.62700        3.37320
H         -5.35690       -4.55960        0.50990
H         -5.31780       -3.70790        2.04960
H         -5.80980       -2.85750        0.57600
H         -4.15540       -1.94960       -0.93090
H         -1.76980       -1.37970       -1.36980
H         -0.55730       -3.84400        1.85960
H         -2.93670       -4.43280        2.32210
H          2.86330        1.06330        0.99300
H          4.03670        1.46660       -0.27560
H          3.51710       -0.22170       -0.03970
H          2.86320       -0.18740       -2.47300
H          1.58350        0.93280       -2.94820
H          3.22600        1.55150       -2.64860
H          0.54880        3.65910        1.62000
H         -1.06530        3.28460        0.96730
H          1.78050        5.35950       -0.17000
H          1.85100        5.38820       -2.87270
H          0.23610        3.32830       -3.62770
H          0.02260        0.85290        4.13370
H          0.82730        2.33960        3.60160
H         -0.91650        2.15570        3.37510
>
46
-74.68219931; 31P isotropic shielding: 144.229826 ppm
C         -5.08850       -3.87070        1.05590
C         -3.68940       -3.42730        0.75620
C         -3.42540       -2.53900       -0.28080
C         -2.12850       -2.13930       -0.55340
C         -1.09490       -2.63970        0.21220
C         -1.33040       -3.51760        1.25190
C         -2.62880       -3.91120        1.51840
S          0.55310       -2.03810       -0.08430
O          1.50770       -2.90480        0.53430
O          0.72250       -1.71000       -1.47770
N          0.55610       -0.53530        0.59130
N          0.33580       -0.22820        1.91740
C          0.20350        1.03990        2.02810
N          0.30000        1.77150        0.86570
P          0.46400        0.77070       -0.56780
N          2.10040        1.05700       -0.92650
C          3.13470        0.71470        0.02950
C          2.48520        0.80280       -2.30110
C          0.05940        3.19420        0.81620
C          0.55740        3.73780       -0.47850
C          1.43010        4.73850       -0.78000
C          1.52440        4.76520       -2.19460
C          0.70710        3.77630       -2.64030
O          0.11360        3.15310       -1.60860
C         -0.01820        1.68430        3.35050
H         -5.19350       -4.93720        0.86070
H         -5.32430       -3.70180        2.10520
H         -5.80890       -3.33500        0.44380
H         -4.24070       -2.15660       -0.87760
H         -1.89880       -1.45200       -1.35300
H         -0.49220       -3.87670        1.82690
H         -2.82770       -4.59970        2.32670
H          2.80880        0.98690        1.03270
H          4.03900        1.27820       -0.21200
H          3.36680       -0.35670        0.01800
H          1.62040        0.97270       -2.93980
H          3.28840        1.48730       -2.58780
H          2.81700       -0.22890       -2.44740
H          0.58820        3.69800        1.63170
H         -1.01670        3.40810        0.91690
H          1.94180        5.37660       -0.08900
H          2.12210        5.42760       -2.78620
H          0.46810        3.43290       -3.62690
H         -0.94480        2.25660        3.34720
H         -0.07500        0.90620        4.10500
H          0.80350        2.35740        3.59250
>
46
-74.68216976; 31P isotropic shielding: 147.232367 ppm
C         -5.08910       -3.61120        1.05410
C         -3.66930       -3.26650        0.72340
C         -2.61150       -3.85980        1.40330
C         -1.30180       -3.52810        1.09980
C         -1.05640       -2.60290        0.10630
C         -2.08940       -1.99180       -0.57820
C         -3.39390       -2.32880       -0.26960
S          0.61160       -2.08280       -0.23220
O          1.53820       -3.04490        0.27650
O          0.73240       -1.66780       -1.60770
N          0.74230       -0.63010        0.54050
N          0.58220       -0.41460        1.89360
C          0.40140        0.83640        2.09320
N          0.38850        1.64210        0.97720
P          0.48120        0.73540       -0.52470
N          2.06230        1.13180       -0.99680
C          2.34450        0.97820       -2.41030
C          3.19340        0.81600       -0.14800
C          0.07920        3.05100        1.03700
C          0.42120        3.69130       -0.26400
C          1.21170        4.75200       -0.58630
C          1.16340        4.86370       -1.99900
C          0.35300        3.86000       -2.42370
O         -0.10510        3.14900       -1.37990
C          0.24150        1.38780        3.46560
H         -5.56720       -2.77520        1.56420
H         -5.65490       -3.81330        0.14680
H         -5.13920       -4.48220        1.70170
H         -2.81430       -4.58640        2.17640
H         -0.46450       -3.97430        1.61170
H         -1.85080       -1.27100       -1.34510
H         -4.21100       -1.86300       -0.80110
H          1.42110        1.12940       -2.96640
H          2.72150       -0.02130       -2.64480
H          3.08070        1.72560       -2.71930
H          3.51260       -0.22630       -0.26100
H          4.02610        1.47380       -0.40890
H          2.92540        0.98440        0.89420
H          0.66250        3.53500        1.82720
H         -0.99040        3.20360        1.25340
H          1.75910        5.37590        0.09010
H          1.66740        5.58910       -2.60380
H          0.03350        3.56090       -3.40190
H          1.04720        2.08410        3.69560
H         -0.70740        1.91420        3.55880
H          0.27030        0.56380        4.17130
>
46
-74.68214718; 31P isotropic shielding: 144.301954 ppm
C         -5.09510       -3.50570        1.05960
C         -3.67160       -3.19160        0.71510
C         -2.62780       -3.79760        1.40810
C         -1.31120       -3.49520        1.10840
C         -1.04290       -2.58670        0.10450
C         -2.05990       -1.96430       -0.59220
C         -3.37330       -2.27220       -0.28660
S          0.63610       -2.09790       -0.22610
O          1.54380       -3.07450        0.28810
O          0.77050       -1.68530       -1.60110
N          0.78580       -0.64600        0.54700
N          0.61160       -0.43110        1.89890
C          0.40810        0.81690        2.09600
N          0.38640        1.62100        0.97930
P          0.49580        0.71290       -0.52090
N          2.06780        1.13920       -0.99490
C          2.35360        0.98690       -2.40770
C          3.20620        0.85610       -0.14430
C          0.05270        3.02460        1.03430
C          0.38120        3.66270       -0.27130
C          1.16770        4.72270       -0.60490
C          1.10880        4.82720       -2.01780
C          0.29690        3.82010       -2.43140
O         -0.15230        3.11370       -1.38060
C          0.23230        1.36710        3.46690
H         -5.74360       -3.36610        0.19840
H         -5.19170       -4.52850        1.41490
H         -5.43900       -2.84070        1.85230
H         -2.85060       -4.51060        2.18830
H         -0.48520       -3.95120        1.62990
H         -1.80390       -1.25790       -1.36690
H         -4.17690       -1.79590       -0.82920
H          3.07220        1.75010       -2.71950
H          1.42710        1.11440       -2.96450
H          2.75400       -0.00440       -2.63840
H          4.01900        1.53980       -0.40150
H          2.93070        1.01310        0.89760
H          3.55730       -0.17550       -0.25960
H          0.62970        3.52210        1.82080
H         -1.01880        3.15980        1.25220
H          1.71930        5.35090        0.06410
H          1.60740        5.54990       -2.63010
H         -0.02960        3.51520       -3.40550
H          1.02240        2.08060        3.69810
H         -0.72770        1.87380        3.55570
H          0.27580        0.54520        4.17420
>
46
-74.68211627; 31P isotropic shielding: 143.361175 ppm
C         -5.10080       -1.11610       -0.18650
C         -3.63170       -1.39660       -0.09860
C         -2.87670       -1.54300       -1.25980
C         -1.52040       -1.80720       -1.19190
C         -0.92570       -1.94920        0.04590
C         -1.64990       -1.80790        1.21290
C         -3.00320       -1.52740        1.13530
S          0.83590       -2.18530        0.16130
O          1.14240       -3.20370        1.11410
O          1.40400       -2.27430       -1.15860
N          1.38380       -0.69660        0.66090
N          0.97480       -0.11310        1.84510
C          0.94730        1.15760        1.71160
N          1.32880        1.65980        0.48410
P          1.51900        0.39080       -0.71310
N          3.19290        0.48660       -0.92620
C          3.69940       -0.03540       -2.18070
C          4.11110        0.31970        0.18200
C          0.89010        2.95490        0.02600
C         -0.57120        2.91130       -0.29780
C         -1.60200        3.77980       -0.09930
C         -2.76100        3.13490       -0.60210
C         -2.34630        1.92430       -1.05850
O         -1.02280        1.78010       -0.87770
C          0.56770        2.04950        2.84000
H         -5.30800       -0.36500       -0.94620
H         -5.63570       -2.02470       -0.46290
H         -5.48920       -0.76880        0.76700
H         -3.35850       -1.44840       -2.22290
H         -0.91120       -1.91060       -2.07570
H         -1.14220       -1.91390        2.15810
H         -3.57900       -1.41040        2.04170
H          2.92590        0.07130       -2.93970
H          3.96150       -1.09460       -2.10680
H          4.58360        0.53220       -2.48300
H          4.33900       -0.73540        0.36530
H          5.04020        0.85020       -0.04020
H          3.67010        0.74100        1.08370
H          1.46920        3.18620       -0.87580
H          1.08830        3.72770        0.77290
H         -1.54620        4.75450        0.34040
H         -3.75810        3.52440       -0.61440
H         -2.86670        1.10390       -1.50860
H          0.40980        1.43970        3.72370
H          1.35620        2.77450        3.03630
H         -0.34980        2.58760        2.60330
>
46
-74.68208022; 31P isotropic shielding: 120.378223 ppm
C         -5.00610       -0.78860       -0.19150
C         -3.56070       -1.16970       -0.09560
C         -2.83170       -1.45350       -1.24710
C         -1.49570       -1.80370       -1.16940
C         -0.89800       -1.90000        0.07130
C         -1.60000       -1.63310        1.23050
C         -2.93040       -1.26170        1.14100
S          0.85120       -2.22040        0.19120
O          1.11570       -3.23920        1.15530
O          1.41210       -2.34650       -1.12780
N          1.44920       -0.74280        0.67970
N          1.05040       -0.16880        1.87270
C          0.95600        1.09840        1.73630
N          1.26910        1.61040        0.49520
P          1.50700        0.34840       -0.70010
N          3.16970        0.52370       -0.94100
C          4.11660        0.41020        0.14970
C          3.68210        0.03670       -2.20710
C          0.78920        2.89790        0.04810
C         -0.66050        2.80060       -0.30380
C         -1.77950        3.42960        0.15400
C         -2.87200        2.83310       -0.52560
C         -2.33340        1.88320       -1.33380
O         -0.99730        1.85380       -1.20400
C          0.57120        1.97370        2.87580
H         -5.61730       -1.68280       -0.31420
H         -5.33350       -0.27510        0.70850
H         -5.18100       -0.14400       -1.04990
H         -3.31680       -1.39580       -2.21120
H         -0.90360       -2.00670       -2.04760
H         -1.09200       -1.71020        2.17860
H         -3.48660       -1.04120        2.04030
H          4.41350       -0.62920        0.32290
H          3.66710        0.79860        1.06180
H          5.00660        0.99880       -0.08610
H          4.52370        0.65810       -2.52510
H          4.01170       -1.00410       -2.14200
H          2.88870        0.09740       -2.95050
H          1.37310        3.16370       -0.83960
H          0.94200        3.66030        0.81460
H         -1.82400        4.22440        0.87060
H         -3.90760        3.08260       -0.41980
H         -2.77100        1.19250       -2.02490
H          1.32510        2.74180        3.04100
H         -0.38320        2.45760        2.67160
H          0.48100        1.35960        3.76600
