31
-883.25350054; 31P isotropic shielding: 236.450148 ppm
  C       4.477236     -0.034171      0.356411
  C       3.049779      0.126276     -0.188775
  C       2.279518     -1.204648     -0.210399
  C       0.871207     -1.130261     -0.838045
  P      -0.310833     -0.121814      0.108380
  O      -0.260501     -0.275650      1.588517
  O      -1.766566     -0.455975     -0.535554
  C      -2.747563     -1.229123      0.227901
  C      -2.490173     -2.728449      0.130829
  O      -0.003850      1.356521     -0.463506
  C      -0.457064      2.534884      0.280578
  C      -1.900227      2.896406     -0.052365
  H       5.010297      0.925534      0.368398
  H       5.062269     -0.734433     -0.256830
  H       4.464429     -0.422716      1.384292
  H       3.083116      0.545071     -1.206656
  H       2.503569      0.855814      0.423518
  H       2.189630     -1.589137      0.815443
  H       2.862839     -1.947868     -0.775922
  H       0.905371     -0.739035     -1.864350
  H       0.429559     -2.134468     -0.891595
  H      -3.713066     -0.962370     -0.217445
  H      -2.726148     -0.892581      1.271055
  H      -2.447943     -3.051519     -0.917067
  H      -1.549588     -2.998056      0.626680
  H      -3.301873     -3.277042      0.628304
  H      -0.324877      2.343260      1.352921
  H       0.231562      3.331143     -0.024061
  H      -2.163720      3.842687      0.440376
  H      -2.030385      3.019829     -1.134454
  H      -2.595107      2.123091      0.293521
>
31
-883.25329666; 31P isotropic shielding: 234.666209 ppm
  C       3.535797      0.614500     -0.891931
  C       3.111932     -0.059249      0.422773
  C       2.318698     -1.367545      0.236856
  C       1.005956     -1.250782     -0.570869
  P      -0.252114     -0.189086      0.200306
  O      -0.434321     -0.346614      1.669684
  O      -1.606441     -0.447960     -0.661813
  C      -2.735251     -1.160234     -0.060654
  C      -2.532527     -2.670562     -0.083101
  O       0.212714      1.274397     -0.302134
  C      -0.253660      2.470822      0.403531
  C      -1.637822      2.904580     -0.064534
  H       4.100270     -0.080639     -1.530637
  H       4.179569      1.482542     -0.697782
  H       2.667644      0.970878     -1.459225
  H       2.521484      0.644973      1.024506
  H       4.007581     -0.292892      1.017473
  H       2.080739     -1.784839      1.224345
  H       2.958114     -2.104414     -0.273840
  H       1.179307     -0.882172     -1.590088
  H       0.542379     -2.241658     -0.667526
  H      -3.598598     -0.865163     -0.668183
  H      -2.875274     -0.797510      0.964533
  H      -3.439130     -3.172066      0.282788
  H      -2.331470     -3.024171     -1.102345
  H      -1.700281     -2.963052      0.568690
  H      -0.238027      2.267327      1.481622
  H       0.500464      3.232360      0.174882
  H      -1.903242      3.858350      0.412391
  H      -1.655762      3.042504     -1.152463
  H      -2.398628      2.163075      0.203747
>
31
-883.25291372; 31P isotropic shielding: 234.503537 ppm
  C       4.282515     -1.251815      0.671373
  C       3.103624     -0.310358      0.382716
  C       2.310530     -0.728939     -0.867506
  C       1.118631      0.195715     -1.197148
  P      -0.280837      0.070965     -0.044566
  O      -0.017125      0.332564      1.398037
  O      -0.815950     -1.411647     -0.398151
  C      -1.689421     -2.117352      0.542606
  C      -3.148956     -1.711225      0.374700
  O      -1.412193      1.047091     -0.685553
  C      -1.833916      2.252504      0.030407
  C      -0.852909      3.401104     -0.171440
  H       3.932705     -2.277379      0.856146
  H       4.843914     -0.927408      1.557202
  H       4.983702     -1.288190     -0.174965
  H       3.477657      0.716221      0.240062
  H       2.428650     -0.272658      1.247325
  H       1.947223     -1.760351     -0.750516
  H       2.985749     -0.738875     -1.737210
  H       1.430399      1.250031     -1.198047
  H       0.716539     -0.020695     -2.196264
  H      -1.331328     -1.924881      1.561700
  H      -1.542316     -3.177880      0.308641
  H      -3.473924     -1.847142     -0.663992
  H      -3.780290     -2.335603      1.022102
  H      -3.304977     -0.662616      0.652158
  H      -2.818521      2.489042     -0.389261
  H      -1.943873      2.012350      1.094435
  H       0.114081      3.172460      0.292774
  H      -0.699901      3.602028     -1.239322
  H      -1.246283      4.313140      0.298454
>
31
-883.25381188; 31P isotropic shielding: 234.469056 ppm
  C       4.455239     -0.368225      0.542330
  C       2.987936     -0.809083      0.429570
  C       2.367794     -0.441289     -0.929827
  C       0.894952     -0.875623     -1.091405
  P      -0.291469      0.055281     -0.077682
  O      -0.114209      0.032958      1.401227
  O      -1.739035     -0.497785     -0.569417
  C      -2.615945     -1.204462      0.366039
  C      -2.219564     -2.668926      0.510362
  O      -0.183438      1.512683     -0.767791
  C      -0.653300      2.699512     -0.049194
  C      -2.160186      2.886640     -0.186360
  H       5.074367     -0.829572     -0.240726
  H       4.881964     -0.648186      1.514300
  H       4.548984      0.722213      0.439288
  H       2.394773     -0.358924      1.235979
  H       2.917989     -1.899634      0.570524
  H       2.953050     -0.914214     -1.733700
  H       2.444547      0.643573     -1.092533
  H       0.564224     -0.765235     -2.133158
  H       0.767406     -1.934625     -0.824381
  H      -3.617814     -1.101290     -0.066509
  H      -2.587998     -0.693394      1.335623
  H      -1.233758     -2.758838      0.982514
  H      -2.948315     -3.190605      1.146221
  H      -2.196404     -3.166710     -0.467340
  H      -0.352413      2.612598      1.002302
  H      -0.106165      3.530779     -0.508171
  H      -2.456533      2.901932     -1.242272
  H      -2.708514      2.081587      0.316019
  H      -2.454862      3.840666      0.272569
>
31
-883.25381068; 31P isotropic shielding: 234.565434 ppm
  C       4.457076     -0.374152      0.547034
  C       2.989583     -0.814090      0.433680
  C       2.369598     -0.443762     -0.925048
  C       0.896650     -0.877099     -1.087575
  P      -0.289779      0.051088     -0.071370
  O      -0.112460      0.025027      1.407477
  O      -1.737104     -0.501085     -0.564673
  C      -2.614271     -1.209466      0.369149
  C      -2.216974     -2.673750      0.512480
  O      -0.182089      1.510376     -0.757539
  C      -0.651480      2.695256     -0.035527
  C      -2.160437      2.875547     -0.157980
  H       5.075949     -0.834482     -0.236808
  H       4.883752     -0.655906      1.518503
  H       4.551354      0.716400      0.445782
  H       2.396690     -0.365110      1.240931
  H       2.919119     -1.904843      0.572836
  H       2.954631     -0.915732     -1.729648
  H       2.446896      0.641317     -1.086088
  H       0.565963     -0.763883     -2.129035
  H       0.768688     -1.936766     -0.823371
  H      -3.615790     -1.106616     -0.064285
  H      -2.587738     -0.699360      1.339290
  H      -2.193039     -3.170691     -0.465631
  H      -1.231391     -2.763374      0.985102
  H      -2.945769     -3.196402      1.147474
  H      -0.340097      2.610616      1.013107
  H      -0.112826      3.528658     -0.500584
  H      -2.700464      2.070209      0.352809
  H      -2.454198      3.829898      0.300859
  H      -2.467543      2.886277     -1.210849
>
31
-883.25381593; 31P isotropic shielding: 234.554497 ppm
  C       4.446169     -0.489043      0.614011
  C       2.980907     -0.923577      0.459539
  C       2.373331     -0.471645     -0.880055
  C       0.899265     -0.886864     -1.077498
  P      -0.290049      0.002401     -0.029734
  O      -0.117442     -0.089534      1.446719
  O      -1.740727     -0.515822     -0.549270
  C      -2.602386     -1.301393      0.336227
  C      -2.182319     -2.765738      0.381278
  O      -0.175133      1.487935     -0.653439
  C      -0.642196      2.642726      0.117726
  C      -2.148933      2.838174     -0.006935
  H       4.538399      0.605912      0.582613
  H       5.073105     -0.897732     -0.191767
  H       4.865043     -0.830600      1.569577
  H       2.378902     -0.525865      1.286681
  H       2.911775     -2.021026      0.530092
  H       2.962050     -0.899691     -1.706197
  H       2.457351      0.620476     -0.977589
  H       0.580359     -0.724708     -2.116127
  H       0.762400     -1.956608     -0.863111
  H      -3.606514     -1.186133     -0.087875
  H      -2.581124     -0.856290      1.337972
  H      -2.905173     -3.341713      0.975530
  H      -2.146896     -3.194425     -0.628310
  H      -1.197389     -2.872767      0.851659
  H      -0.338588      2.509182      1.163554
  H      -0.094770      3.492407     -0.305847
  H      -2.447955      2.899854     -1.060417
  H      -2.697161      2.012902      0.461501
  H      -2.440502      3.772007      0.493594
>
31
-883.25373768; 31P isotropic shielding: 234.621547 ppm
  C       4.920061     -0.636379      0.074622
  C       3.574554     -1.101917     -0.503751
  C       2.379100     -0.315448      0.060910
  C       1.033848     -0.780510     -0.527366
  P      -0.396717      0.072077      0.192947
  O      -0.548722     -0.017909      1.671106
  O      -1.676683     -0.493016     -0.634993
  C      -2.681859     -1.319782      0.034859
  C      -2.253826     -2.780775      0.102469
  O      -0.196514      1.558420     -0.406354
  C      -0.853889      2.699535      0.236128
  C      -2.309706      2.835335     -0.194946
  H       4.943551     -0.756274      1.166712
  H       5.098736      0.425105     -0.146725
  H       5.756560     -1.211330     -0.343746
  H       3.433901     -2.174193     -0.294813
  H       3.589292     -1.002055     -1.600578
  H       2.512815      0.755951     -0.146187
  H       2.350168     -0.421095      1.154821
  H       1.001571     -0.636348     -1.616392
  H       0.877140     -1.852406     -0.338544
  H      -3.586892     -1.196800     -0.571377
  H      -2.861743     -0.915445      1.037848
  H      -2.016763     -3.165869     -0.897374
  H      -1.376052     -2.900457      0.749291
  H      -3.067800     -3.387904      0.522323
  H      -0.764741      2.584669      1.323626
  H      -0.262910      3.566707     -0.079687
  H      -2.731068      3.760781      0.221729
  H      -2.390232      2.877277     -1.288007
  H      -2.910882      1.992855      0.165251
>
31
-883.25392905; 31P isotropic shielding: 235.773169 ppm
  C       3.617380     -0.768128     -1.672184
  C       2.470497     -0.968674     -0.669593
  C       2.317743      0.224840      0.287048
  C       1.236983      0.060692      1.376328
  P      -0.503542      0.005414      0.840301
  O      -1.504880      0.306389      1.899210
  O      -0.593777     -1.459386      0.169627
  C      -1.901218     -2.013126     -0.198090
  C      -2.216049     -1.751870     -1.666120
  O      -0.611603      0.993365     -0.450795
  C      -1.265693      2.296101     -0.321402
  C      -0.332615      3.342348      0.276826
  H       3.711641     -1.628144     -2.347993
  H       4.580838     -0.639089     -1.158653
  H       3.448411      0.125011     -2.290187
  H       2.644564     -1.883573     -0.082105
  H       1.529526     -1.130433     -1.209856
  H       2.108299      1.132868     -0.295196
  H       3.278593      0.398535      0.796439
  H       1.407654     -0.849181      1.968982
  H       1.277310      0.904350      2.079278
  H      -2.664330     -1.590392      0.467512
  H      -1.817962     -3.086682      0.007126
  H      -3.167081     -2.234934     -1.930475
  H      -2.303231     -0.678351     -1.866232
  H      -1.429525     -2.162134     -2.311444
  H      -1.554990      2.560972     -1.345117
  H      -2.168472      2.176990      0.288972
  H       0.593640      3.422421     -0.305532
  H      -0.826542      4.323815      0.275877
  H      -0.080571      3.094884      1.315350
>
31
-883.25286926; 31P isotropic shielding: 235.996779 ppm
  C       3.457117     -0.556535     -1.903968
  C       2.186769     -0.873922     -1.099866
  C       2.313306     -0.460244      0.375517
  C       1.103237     -0.817282      1.265143
  P      -0.471067      0.039744      0.946753
  O      -1.511745     -0.147013      1.993573
  O      -0.979208     -0.402220     -0.537218
  C      -2.092610     -1.341398     -0.680282
  C      -1.646143     -2.786229     -0.489431
  O       0.051221      1.544085      0.693417
  C      -0.916270      2.633004      0.524017
  C      -1.089575      2.972506     -0.950814
  H       3.674098      0.520839     -1.889111
  H       3.352330     -0.860808     -2.953666
  H       4.333087     -1.076635     -1.490756
  H       1.974536     -1.953671     -1.156230
  H       1.324222     -0.370352     -1.553717
  H       2.497902      0.620577      0.439372
  H       3.198690     -0.952859      0.807340
  H       0.877782     -1.891821      1.208105
  H       1.329202     -0.601282      2.318705
  H      -2.463867     -1.171871     -1.697673
  H      -2.874627     -1.070936      0.038706
  H      -2.480805     -3.464642     -0.713616
  H      -0.812374     -3.030744     -1.159340
  H      -1.336243     -2.967887      0.546934
  H      -1.865010      2.345612      0.995109
  H      -0.497017      3.477384      1.083607
  H      -1.767233      3.831180     -1.056368
  H      -0.125607      3.236380     -1.403313
  H      -1.511100      2.124039     -1.500826
>
31
-883.25278299; 31P isotropic shielding: 237.288649 ppm
  C       4.219695      0.952263      0.382323
  C       3.026047     -0.014428      0.397654
  C       2.307433     -0.080537     -0.961334
  C       1.098670     -1.038500     -0.993933
  P      -0.323811     -0.484138     -0.009558
  O      -0.158232     -0.326553      1.462912
  O      -1.425991     -1.583417     -0.455006
  C      -2.575430     -1.866521      0.404658
  C      -3.691624     -0.845701      0.213874
  O      -0.755934      0.886591     -0.766665
  C      -1.091532      2.090792     -0.007309
  C       0.122239      2.999804      0.131727
  H       3.896923      1.976367      0.146768
  H       4.963578      0.658400     -0.372160
  H       4.724237      0.978167      1.356873
  H       2.312055      0.277432      1.178852
  H       3.371299     -1.024733      0.668331
  H       3.022373     -0.408129     -1.731570
  H       1.980656      0.926196     -1.258660
  H       0.732280     -1.171402     -2.020898
  H       1.373813     -2.033387     -0.616764
  H      -2.234275     -1.897613      1.446923
  H      -2.900266     -2.869463      0.105144
  H      -4.578296     -1.157901      0.782922
  H      -3.390929      0.145277      0.573913
  H      -3.968531     -0.763837     -0.844277
  H      -1.892657      2.574195     -0.579263
  H      -1.476913      1.803329      0.978007
  H       0.899230      2.519177      0.737385
  H       0.539418      3.248526     -0.852061
  H      -0.169226      3.935545      0.628992
>
31
-883.25370547; 31P isotropic shielding: 234.843626 ppm
  C       4.227484     -1.056103     -1.529558
  C       3.383446     -1.131791     -0.247582
  C       2.013334     -0.448001     -0.394000
  C       1.176909     -0.527221      0.896946
  P      -0.487587      0.192077      0.805395
  O      -1.318696      0.070087      2.033352
  O      -1.185766     -0.464018     -0.512617
  C      -2.232301     -1.475305     -0.358656
  C      -1.647298     -2.861643     -0.115045
  O      -0.141983      1.687533      0.310379
  C      -1.199675      2.702354      0.262246
  C      -1.764392      2.832168     -1.146877
  H       3.712501     -1.540123     -2.371191
  H       5.197913     -1.552825     -1.400256
  H       4.420465     -0.012553     -1.814892
  H       3.934040     -0.666907      0.585232
  H       3.234723     -2.186088      0.034736
  H       1.455182     -0.913031     -1.218832
  H       2.154158      0.605953     -0.670458
  H       1.031491     -1.573298      1.203243
  H       1.687605     -0.023391      1.729907
  H      -2.789528     -1.440006     -1.302117
  H      -2.893879     -1.175140      0.462321
  H      -1.141043     -2.909373      0.856887
  H      -2.452422     -3.609314     -0.110773
  H      -0.932367     -3.129332     -0.903294
  H      -1.974956      2.442368      0.994194
  H      -0.715625      3.630911      0.586607
  H      -0.968980      3.072455     -1.863183
  H      -2.246410      1.900966     -1.464168
  H      -2.509444      3.639594     -1.173447
>
31
-883.25373092; 31P isotropic shielding: 238.732623 ppm
  C       3.297644     -1.401892      0.940614
  C       3.151857     -0.086779      0.158667
  C       2.419527     -0.233386     -1.190791
  C       0.995937     -0.830038     -1.118562
  P      -0.177457      0.077750     -0.070756
  O       0.077740      0.088362      1.396771
  O      -1.625057     -0.545762     -0.471573
  C      -2.414464     -1.276744      0.520827
  C      -1.963731     -2.727747      0.637199
  O      -0.170415      1.522230     -0.792454
  C      -0.671837      2.700293     -0.080299
  C      -2.188978      2.816384     -0.172223
  H       2.323967     -1.769169      1.286451
  H       3.923989     -1.258898      1.830662
  H       3.766094     -2.184342      0.325094
  H       4.148950      0.331311     -0.045720
  H       2.625651      0.644781      0.786261
  H       3.014775     -0.880443     -1.853949
  H       2.363058      0.748035     -1.680305
  H       0.553562     -0.881407     -2.122526
  H       1.011548     -1.855979     -0.726454
  H      -3.445985     -1.206615      0.156506
  H      -2.337378     -0.762439      1.485969
  H      -2.634102     -3.272691      1.316272
  H      -1.985931     -3.224143     -0.341196
  H      -0.947822     -2.787663      1.046076
  H      -0.333763      2.646875      0.962127
  H      -0.177735      3.546545     -0.570934
  H      -2.512408      3.763919      0.280701
  H      -2.518070      2.800389     -1.218362
  H      -2.683868      1.995862      0.359507
>
31
-883.25348766; 31P isotropic shielding: 236.547228 ppm
  C       3.790835     -2.077104      0.459204
  C       2.497617     -1.532928     -0.166850
  C       2.472386      0.003818     -0.213965
  C       1.236067      0.610130     -0.912006
  P      -0.329059      0.333427     -0.026141
  O      -0.268838      0.492377      1.453133
  O      -0.764729     -1.115164     -0.587832
  C      -1.946162     -1.772648     -0.018924
  C      -1.566664     -2.643411      1.172180
  O      -1.421327      1.306574     -0.737317
  C      -1.913579      2.494923     -0.037427
  C      -0.944679      3.665878     -0.153725
  H       3.790450     -3.174669      0.486152
  H       3.910894     -1.717611      1.490783
  H       4.675440     -1.756623     -0.109532
  H       1.632618     -1.897064      0.402515
  H       2.380760     -1.930232     -1.187184
  H       3.368924      0.361693     -0.743731
  H       2.531544      0.400941      0.809228
  H       1.343383      1.700889     -0.984004
  H       1.121954      0.229735     -1.936342
  H      -2.359102     -2.366896     -0.842270
  H      -2.686652     -1.010739      0.259296
  H      -1.148427     -2.030007      1.977509
  H      -2.457813     -3.164242      1.549644
  H      -0.826257     -3.397782      0.878234
  H      -2.870347      2.720199     -0.522663
  H      -2.093343      2.235164      1.012316
  H      -1.393249      4.563930      0.292950
  H      -0.010341      3.456053      0.381337
  H      -0.714907      3.882193     -1.204767
>
31
-883.25321191; 31P isotropic shielding: 234.557096 ppm
  C       3.522504      0.472037     -0.683934
  C       2.463320     -0.398646     -1.378536
  C       1.890111     -1.521187     -0.492397
  C       1.204563     -1.072892      0.818154
  P      -0.279982     -0.028306      0.680417
  O      -1.135006      0.031909      1.897212
  O      -1.064057     -0.555861     -0.643976
  C      -2.322889     -1.289298     -0.509771
  C      -2.082927     -2.771443     -0.249206
  O       0.344001      1.378441      0.190226
  C      -0.426467      2.615491      0.351121
  C      -1.462296      2.795554     -0.752406
  H       4.346331     -0.140799     -0.289556
  H       3.090816      1.039508      0.149146
  H       3.954723      1.197694     -1.385345
  H       2.906271     -0.869308     -2.269176
  H       1.645307      0.238609     -1.738797
  H       2.704739     -2.209095     -0.216171
  H       1.171956     -2.108552     -1.079521
  H       0.864183     -1.956131      1.376672
  H       1.900508     -0.539207      1.478544
  H      -2.838369     -1.130863     -1.464250
  H      -2.910656     -0.836246      0.297167
  H      -1.601999     -2.925012      0.724720
  H      -3.041953     -3.307695     -0.238849
  H      -1.451435     -3.210750     -1.031524
  H      -0.892685      2.606191      1.344155
  H       0.329097      3.408550      0.320512
  H      -2.244065      2.030283     -0.693494
  H      -1.937832      3.780865     -0.649059
  H      -0.993311      2.738059     -1.742178
>
31
-883.25220611; 31P isotropic shielding: 236.202867 ppm
  C       4.172495     -0.904387     -1.164106
  C       3.796098     -0.527946      0.278765
  C       2.304232     -0.721548      0.614445
  C       1.370544      0.206090     -0.188321
  P      -0.367397      0.067140      0.311771
  O      -0.668895      0.305535      1.750393
  O      -0.722806     -1.404730     -0.250559
  C      -1.903140     -2.113690      0.249503
  C      -3.159286     -1.733700     -0.526010
  O      -1.170024      1.057971     -0.697812
  C      -1.814225      2.267450     -0.183474
  C      -0.812704      3.397615      0.024089
  H       5.253234     -0.803960     -1.328678
  H       3.668549     -0.264030     -1.899900
  H       3.895608     -1.945304     -1.383598
  H       4.078795      0.518930      0.472990
  H       4.388398     -1.138794      0.976172
  H       2.144624     -0.539437      1.685670
  H       2.019233     -1.767041      0.427539
  H       1.649258      1.259319     -0.038262
  H       1.421015      0.007540     -1.266554
  H      -2.009134     -1.903016      1.321096
  H      -1.661657     -3.174854      0.119654
  H      -3.015662     -1.892863     -1.601719
  H      -4.000141     -2.356974     -0.191120
  H      -3.424537     -0.682777     -0.364261
  H      -2.556679      2.527027     -0.946954
  H      -2.330250      2.023723      0.752692
  H      -0.106530      3.148078      0.825192
  H      -0.253179      3.598707     -0.898193
  H      -1.342437      4.315527      0.314152
>
31
-883.25312135; 31P isotropic shielding: 234.307190 ppm
  C       2.772003     -2.180679     -0.923136
  C       2.595240     -1.492331      0.440151
  C       2.575930      0.047408      0.372720
  C       1.460004      0.666201     -0.499706
  P      -0.224113      0.336310      0.100738
  O      -0.427954      0.470046      1.569559
  O      -0.511863     -1.115226     -0.545357
  C      -1.762063     -1.807315     -0.215478
  C      -1.593487     -2.684409      1.018745
  O      -1.202781      1.292947     -0.778297
  C      -1.864174      2.440224     -0.152820
  C      -0.945201      3.653648     -0.078795
  H       2.866003     -3.268104     -0.804068
  H       3.677818     -1.822331     -1.433840
  H       1.914016     -1.996573     -1.580851
  H       3.418808     -1.788123      1.106940
  H       1.672299     -1.849836      0.915842
  H       3.541424      0.401025     -0.021351
  H       2.481540      0.449061      1.390342
  H       1.560477      1.759973     -0.505622
  H       1.520530      0.337655     -1.544929
  H      -1.997706     -2.399798     -1.107041
  H      -2.560145     -1.065918     -0.075360
  H      -1.352649     -2.071773      1.894196
  H      -2.526708     -3.230860      1.214844
  H      -0.791745     -3.417622      0.866067
  H      -2.732406      2.636958     -0.792537
  H      -2.210347      2.146012      0.844820
  H      -0.107149      3.470336      0.604948
  H      -0.549248      3.907305     -1.070342
  H      -1.504754      4.519789      0.300718
>
31
-883.25293061; 31P isotropic shielding: 234.469356 ppm
  C       4.454265      0.232890     -0.144946
  C       3.669569     -1.061516     -0.416413
  C       2.241026     -1.068998      0.163928
  C       1.313475     -0.017578     -0.476446
  P      -0.361980     -0.031820      0.218164
  O      -0.474767      0.161311      1.689960
  O      -0.913433     -1.438558     -0.352694
  C      -2.081482     -2.070477      0.265898
  C      -3.387541     -1.516718     -0.292376
  O      -1.178603      1.072180     -0.652633
  C      -1.664692      2.298403     -0.017742
  C      -0.560454      3.339489      0.123240
  H       4.504250      0.443223      0.932816
  H       3.993936      1.102213     -0.632735
  H       5.483480      0.155975     -0.519088
  H       4.219664     -1.911569      0.013973
  H       3.621543     -1.245001     -1.501551
  H       2.282401     -0.896734      1.249010
  H       1.798726     -2.064090      0.020956
  H       1.693141      1.000581     -0.318645
  H       1.230281     -0.168494     -1.562175
  H      -2.016602     -1.934329      1.352699
  H      -1.970733     -3.136005      0.034523
  H      -4.232825     -2.086844      0.117586
  H      -3.521036     -0.463107     -0.022264
  H      -3.409663     -1.599479     -1.385881
  H      -2.463505      2.650557     -0.680629
  H      -2.092359      2.045809      0.959667
  H      -0.091422      3.546560     -0.847022
  H      -0.981594      4.277807      0.510035
  H       0.207234      2.998319      0.828286
>
31
-883.25303574; 31P isotropic shielding: 234.567134 ppm
  C       3.314942     -1.456662      0.911441
  C       3.167924     -0.103389      0.198030
  C       2.454033     -0.183958     -1.166737
  C       1.038133     -0.802967     -1.147102
  P      -0.158977      0.023290     -0.059371
  O       0.078130     -0.053283      1.409378
  O      -1.592933     -0.591822     -0.518505
  C      -2.389544     -1.387181      0.416234
  C      -1.914546     -2.834275      0.468776
  O      -0.161779      1.509752     -0.691273
  C      -0.678517      2.638596      0.085528
  C      -2.197285      2.740014     -0.000462
  H       3.927264     -1.355203      1.816776
  H       3.799412     -2.201574      0.262640
  H       2.339608     -1.849109      1.222943
  H       4.163707      0.333260      0.029004
  H       2.628070      0.589809      0.856848
  H       3.066430     -0.784702     -1.857260
  H       2.389355      0.822632     -1.600959
  H       0.606379     -0.797525     -2.156992
  H       1.063817     -1.851107     -0.819736
  H      -3.414067     -1.316493      0.032834
  H      -2.343903     -0.922896      1.408459
  H      -2.589385     -3.424538      1.104136
  H      -1.906301     -3.280374     -0.533776
  H      -0.906846     -2.897225      0.896948
  H      -0.340260      2.531654      1.123832
  H      -0.195710      3.517488     -0.356528
  H      -2.532739      3.657788      0.502243
  H      -2.526741      2.775238     -1.045983
  H      -2.681272      1.886161      0.487037
>
31
-883.25350334; 31P isotropic shielding: 236.447129 ppm
  C       3.318972     -1.473424      0.907255
  C       3.171799     -0.109070      0.215472
  C       2.464994     -0.169178     -1.153965
  C       1.051003     -0.792819     -1.151905
  P      -0.153858      0.010935     -0.055921
  O       0.075976     -0.090592      1.412494
  O      -1.583843     -0.599716     -0.532776
  C      -2.382053     -1.414178      0.384008
  C      -1.902549     -2.860401      0.412805
  O      -0.157304      1.508152     -0.661797
  C      -0.680063      2.622135      0.131983
  C      -2.198633      2.721399      0.041648
  H       3.926297     -1.385288      1.817322
  H       3.808810     -2.206301      0.248861
  H       2.343060     -1.873355      1.207101
  H       4.167183      0.333048      0.058790
  H       2.626673      0.571727      0.882845
  H       3.082739     -0.756337     -1.851383
  H       2.399081      0.844242     -1.571835
  H       0.624135     -0.771122     -2.163645
  H       1.078419     -1.846459     -0.842874
  H      -3.405044     -1.339800     -0.002767
  H      -2.342188     -0.967418      1.384481
  H      -0.896842     -2.927744      0.844928
  H      -2.578624     -3.464422      1.033724
  H      -1.887680     -3.287938     -0.597707
  H      -0.345504      2.498293      1.169625
  H      -0.197673      3.509612     -0.293088
  H      -2.682623      1.858523      0.512982
  H      -2.538349      3.629912      0.558098
  H      -2.524011      2.773183     -1.004458
>
31
-883.25351537; 31P isotropic shielding: 236.450751 ppm
  C       3.313259     -1.471638      0.909755
  C       3.168771     -0.108475      0.214953
  C       2.463527     -0.170500     -1.155243
  C       1.048847     -0.792694     -1.153700
  P      -0.156773      0.015409     -0.061750
  O       0.071741     -0.080965      1.407188
  O      -1.586580     -0.596373     -0.537679
  C      -2.385788     -1.407541      0.381212
  C      -1.906432     -2.853735      0.415708
  O      -0.159124      1.510491     -0.672889
  C      -0.681743      2.627508      0.116789
  C      -2.200489      2.725805      0.027526
  H       2.336420     -1.869617      1.209257
  H       3.919608     -1.382406      1.820376
  H       3.802891     -2.206556      0.253475
  H       4.164964      0.331899      0.058496
  H       2.623782      0.574426      0.880282
  H       3.081516     -0.759673     -1.850743
  H       2.399194      0.842189     -1.575133
  H       0.623644     -0.773435     -2.166194
  H       1.074702     -1.845477     -0.841607
  H      -3.408380     -1.334485     -0.006856
  H      -2.346916     -0.957260      1.380143
  H      -1.890650     -3.285012     -0.593208
  H      -0.901134     -2.919570      0.849042
  H      -2.583143     -3.455401      1.038234
  H      -0.346234      2.508111      1.154637
  H      -0.200194      3.513459     -0.312387
  H      -2.526937      2.772708     -1.018484
  H      -2.683697      1.864936      0.503323
  H      -2.539951      3.636570      0.540179
