36
-1073.77255322; 31P isotropic shielding: 253.466812 ppm
  C       0.582286      1.941961      1.973848
  C      -0.817048      1.343248      2.047415
  O      -1.035622      0.363919      0.980220
  P      -1.694764      0.821992     -0.427313
  O      -2.688968      1.920483     -0.293138
  C      -0.388176      1.230108     -1.592095
  C       0.907298      0.855211     -1.618493
  C       1.599951     -0.138033     -0.784742
  C       0.986468     -1.361467     -0.459049
  C       1.638097     -2.302448      0.336173
  C       2.921875     -2.032129      0.818505
  C       3.547958     -0.826704      0.486218
  C       2.913839      0.127791     -0.319469
  C       3.613659      1.429144     -0.642719
  O      -2.244834     -0.583887     -0.995929
  C      -3.485839     -1.148737     -0.448113
  C      -3.177574     -2.233032      0.576817
  H       0.711205      2.531464      1.058412
  H       0.740712      2.608353      2.833138
  H       1.346255      1.156790      1.995907
  H      -1.595399      2.112929      1.981080
  H      -0.956109      0.777477      2.976217
  H      -0.724434      1.973589     -2.315992
  H       1.539292      1.366912     -2.349149
  H      -0.005174     -1.573594     -0.847086
  H       1.147064     -3.243963      0.575845
  H       3.439824     -2.758685      1.442669
  H       4.550278     -0.619447      0.860388
  H       4.605383      1.462104     -0.178117
  H       3.748624      1.560576     -1.726352
  H       3.042388      2.296811     -0.285572
  H      -4.087862     -0.337048     -0.020720
  H      -4.019305     -1.554865     -1.315276
  H      -4.115877     -2.676893      0.937812
  H      -2.633500     -1.819735      1.433049
  H      -2.570670     -3.030297      0.129712
>
36
-1073.77252987; 31P isotropic shielding: 252.955718 ppm
  C      -1.521825      0.542477      3.335049
  C      -0.342715      0.641230      2.374851
  O      -0.472511     -0.300920      1.261878
  P      -1.382633      0.067163     -0.012104
  O      -1.609765      1.521322     -0.250896
  C      -0.586084     -0.863446     -1.327756
  C       0.733959     -0.924526     -1.595735
  C       1.828919     -0.206675     -0.924333
  C       1.695122      1.153393     -0.584601
  C       2.730934      1.838232      0.050466
  C       3.922226      1.171561      0.351118
  C       4.069189     -0.175194      0.004859
  C       3.043820     -0.880704     -0.637990
  C       3.225671     -2.343415     -0.977679
  O      -2.748428     -0.766040      0.252413
  C      -4.046363     -0.192128     -0.106324
  C      -4.354673     -0.379805     -1.587112
  H      -1.344228      1.189317      4.205485
  H      -2.450773      0.867762      2.851930
  H      -1.653111     -0.487764      3.687567
  H       0.598680      0.358940      2.858513
  H      -0.242155      1.653531      1.966119
  H      -1.273584     -1.440167     -1.946133
  H       1.038724     -1.599617     -2.399623
  H       0.773822      1.675368     -0.831373
  H       2.609721      2.890807      0.300522
  H       4.737752      1.697229      0.845442
  H       4.998698     -0.693052      0.240379
  H       3.135997     -2.524019     -2.059091
  H       4.213955     -2.697171     -0.663254
  H       2.467019     -2.967921     -0.486478
  H      -4.766018     -0.727584      0.523442
  H      -4.050331      0.870166      0.164667
  H      -5.368800     -0.016934     -1.804157
  H      -4.300972     -1.439444     -1.867467
  H      -3.651939      0.190326     -2.207095
>
36
-1073.77292525; 31P isotropic shielding: 251.388431 ppm
  C      -1.516445      0.583384      3.326484
  C      -0.335381      0.662636      2.366911
  O      -0.470927     -0.290005      1.263570
  P      -1.382249      0.068864     -0.012238
  O      -1.608216      1.521294     -0.262385
  C      -0.588197     -0.873330     -1.321247
  C       0.731596     -0.937583     -1.589437
  C       1.826849     -0.214269     -0.924235
  C       1.694664      1.149701     -0.599996
  C       2.730540      1.839885      0.029206
  C       3.920158      1.174620      0.339390
  C       4.065405     -0.176223      0.008620
  C       3.039954     -0.887159     -0.628091
  C       3.219432     -2.354007     -0.950594
  O      -2.748523     -0.760921      0.260447
  C      -4.046349     -0.187914     -0.100198
  C      -4.356203     -0.383032     -1.579696
  H      -2.441988      0.911759      2.838935
  H      -1.656835     -0.442154      3.689086
  H      -1.334527      1.237340      4.190701
  H       0.603100      0.377919      2.854785
  H      -0.226175      1.669726      1.947691
  H      -1.276759     -1.454553     -1.934202
  H       1.035843     -1.619602     -2.387686
  H       0.774470      1.670209     -0.853876
  H       2.610669      2.895381      0.267324
  H       4.735711      1.704414      0.829253
  H       4.993568     -0.693026      0.251685
  H       2.458802     -2.971229     -0.453257
  H       3.130845     -2.547083     -2.029958
  H       4.206552     -2.706078     -0.630661
  H      -4.765795     -0.719504      0.533070
  H      -4.049312      0.875801      0.165187
  H      -5.370148     -0.020209     -1.797701
  H      -4.303926     -1.444182     -1.854568
  H      -3.653404      0.183133     -2.203217
>
36
-1073.77292866; 31P isotropic shielding: 251.373032 ppm
  C      -2.908346      3.624432      0.145353
  C      -3.251939      2.286067      0.788711
  O      -2.050698      1.576079      1.230924
  P      -1.178989      0.703823      0.177751
  O      -1.909936      0.391252     -1.083749
  C       0.343021      1.648194      0.029667
  C       1.562741      1.181367     -0.305794
  C       1.937430     -0.189308     -0.686789
  C       1.120942     -0.945192     -1.550163
  C       1.475114     -2.243463     -1.916539
  C       2.658203     -2.804649     -1.427237
  C       3.481975     -2.056515     -0.580492
  C       3.148156     -0.749232     -0.203905
  C       4.049989      0.025166      0.731483
  O      -0.707964     -0.564753      1.047060
  C      -1.402790     -1.847036      0.919645
  C      -2.665650     -1.888394      1.771460
  H      -2.349437      3.476347     -0.786764
  H      -3.831613      4.168996     -0.095971
  H      -2.311000      4.244261      0.826012
  H      -3.805264      1.645110      0.092375
  H      -3.842618      2.420529      1.702089
  H       0.233135      2.708390      0.256825
  H       2.384336      1.901910     -0.279968
  H       0.208975     -0.502430     -1.943232
  H       0.833342     -2.809581     -2.589433
  H       2.944799     -3.816852     -1.708476
  H       4.404020     -2.496099     -0.200589
  H       3.519888      0.324378      1.645951
  H       4.918513     -0.576034      1.022918
  H       4.424742      0.947673      0.263752
  H      -1.627622     -2.019166     -0.139518
  H      -0.666075     -2.586987      1.250718
  H      -3.106698     -2.894022      1.729190
  H      -3.411081     -1.172765      1.404921
  H      -2.438603     -1.651199      2.817917
>
36
-1073.77294754; 31P isotropic shielding: 251.386866 ppm
  C      -2.925714      3.607531      0.030477
  C      -3.284280      2.276214      0.680032
  O      -2.094328      1.575023      1.164555
  P      -1.196962      0.684726      0.148340
  O      -1.901030      0.344024     -1.121340
  C       0.324834      1.631439      0.014000
  C       1.552289      1.165648     -0.293978
  C       1.941614     -0.207346     -0.650056
  C       1.139709     -0.984439     -1.508351
  C       1.509014     -2.284782     -1.851447
  C       2.693100     -2.827225     -1.343745
  C       3.502749     -2.058174     -0.502225
  C       3.153692     -0.748409     -0.148854
  C       4.042025      0.048512      0.780671
  O      -0.739491     -0.564327      1.052647
  C      -1.433038     -1.849075      0.943634
  C      -2.700554     -1.875812      1.788940
  H      -2.340393      3.450593     -0.883871
  H      -3.843204      4.146645     -0.243082
  H      -2.349171      4.237050      0.720130
  H      -3.816300      1.625139     -0.023474
  H      -3.900941      2.420402      1.574615
  H       0.206939      2.694161      0.224803
  H       2.369315      1.891120     -0.263454
  H       0.227542     -0.556680     -1.917270
  H       0.878334     -2.867138     -2.520975
  H       2.991499     -3.840925     -1.606779
  H       4.425814     -2.482878     -0.108099
  H       4.914690     -0.539947      1.085408
  H       4.410274      0.967909      0.301871
  H       3.503879      0.355337      1.687908
  H      -1.651650     -2.039622     -0.113713
  H      -0.697971     -2.582838      1.291792
  H      -2.479263     -1.620975      2.832482
  H      -3.141319     -2.882094      1.761159
  H      -3.444003     -1.166384      1.406650
>
36
-1073.77292711; 31P isotropic shielding: 251.294524 ppm
  C      -3.121803      0.007878      3.179529
  C      -1.631552     -0.169245      2.915697
  O      -1.384240     -0.796996      1.610834
  P      -1.217812      0.125962      0.296910
  O      -0.443071      1.382790      0.471573
  C      -0.624769     -1.059476     -0.917850
  C       0.654059     -1.262333     -1.294324
  C       1.877612     -0.718901     -0.687088
  C       2.011001     -0.648499      0.711791
  C       3.172254     -0.149988      1.298726
  C       4.224303      0.286053      0.488532
  C       4.107275      0.209514     -0.902512
  C       2.951143     -0.294910     -1.511284
  C       2.846939     -0.342879     -3.019473
  O      -2.762559      0.371657     -0.150863
  C      -3.121211      1.603147     -0.857004
  C      -2.763204      1.532491     -2.337100
  H      -3.270790      0.388345      4.199781
  H      -3.567785      0.718631      2.475434
  H      -3.648912     -0.949487      3.085885
  H      -1.178203     -0.856149      3.639582
  H      -1.092859      0.785949      2.950943
  H      -1.418258     -1.583175     -1.451175
  H       0.809066     -1.911368     -2.160373
  H       1.201098     -1.011685      1.338451
  H       3.256931     -0.104730      2.383001
  H       5.135791      0.679798      0.935609
  H       4.928680      0.551772     -1.531619
  H       3.762689      0.037999     -3.485327
  H       2.688636     -1.368386     -3.385050
  H       2.003831      0.259544     -3.384609
  H      -4.203735      1.696658     -0.711928
  H      -2.618122      2.446103     -0.368558
  H      -3.119320      2.437429     -2.848575
  H      -3.230040      0.660674     -2.812668
  H      -1.676765      1.470312     -2.473099
>
36
-1073.77146695; 31P isotropic shielding: 252.526066 ppm
  C      -1.277496      3.677402      0.510499
  C      -2.334491      2.724287     -0.034944
  O      -2.272243      1.415915      0.620151
  P      -1.176455      0.321050      0.117234
  O      -0.756052      0.516710     -1.294646
  C       0.095719      0.385173      1.384331
  C       1.395668      0.051543      1.253057
  C       2.057165     -0.612157      0.120809
  C       1.429144     -1.676047     -0.552692
  C       2.055807     -2.322141     -1.616357
  C       3.328958     -1.912120     -2.021803
  C       3.967378     -0.864079     -1.351994
  C       3.356998     -0.206387     -0.276646
  C       4.064546      0.939596      0.411806
  O      -1.913615     -1.070351      0.468421
  C      -3.068686     -1.497598     -0.333515
  C      -4.365468     -1.244419      0.423445
  H      -1.403074      4.670146      0.056598
  H      -1.367296      3.781687      1.599197
  H      -0.268313      3.320050      0.272055
  H      -2.219122      2.580205     -1.115611
  H      -3.347113      3.088652      0.173957
  H      -0.238794      0.829104      2.322232
  H       2.047516      0.302835      2.094025
  H       0.450034     -2.009640     -0.219993
  H       1.554151     -3.143657     -2.124534
  H       3.827587     -2.408694     -2.852774
  H       4.959576     -0.545793     -1.671153
  H       3.486559      1.871290      0.340642
  H       4.218517      0.740471      1.482793
  H       5.048037      1.116243     -0.037957
  H      -3.047072     -0.978951     -1.300447
  H      -2.910869     -2.567295     -0.515102
  H      -4.508578     -0.173239      0.602800
  H      -4.356533     -1.762277      1.390517
  H      -5.216188     -1.620113     -0.162200
>
36
-1073.77137252; 31P isotropic shielding: 252.367944 ppm
  C      -1.295529      3.672757      0.467509
  C      -2.353163      2.707923     -0.055872
  O      -2.277330      1.407446      0.613183
  P      -1.179363      0.313328      0.113584
  O      -0.769935      0.496898     -1.303111
  C       0.100639      0.397121      1.371674
  C       1.401807      0.070122      1.235598
  C       2.060677     -0.599840      0.105489
  C       1.434777     -1.672778     -0.555635
  C       2.059214     -2.324627     -1.617147
  C       3.328032     -1.911372     -2.032849
  C       3.964433     -0.854276     -1.375352
  C       3.356282     -0.190633     -0.302372
  C       4.061576      0.964697      0.372739
  O      -1.906482     -1.078502      0.483484
  C      -3.063326     -1.520924     -0.307415
  C      -4.357811     -1.265068      0.452636
  H      -1.431470      4.659677      0.003986
  H      -1.374161      3.788756      1.555897
  H      -0.287045      3.318190      0.222007
  H      -2.248293      2.552464     -1.136036
  H      -3.365411      3.069534      0.159518
  H      -0.230941      0.848562      2.307030
  H       2.057217      0.333591      2.070025
  H       0.459343     -2.008741     -0.214694
  H       1.559209     -3.153108     -2.115547
  H       3.824898     -2.412430     -2.862189
  H       4.953210     -0.533521     -1.702558
  H       5.040837      1.144049     -0.085139
  H       3.477463      1.892345      0.298994
  H       4.224270      0.774163      1.444019
  H      -3.049014     -1.013943     -1.280672
  H      -2.901241     -2.591948     -0.477025
  H      -4.340506     -1.768959      1.426981
  H      -5.209290     -1.654437     -0.122894
  H      -4.507072     -0.192416      0.617658
>
36
-1073.77137335; 31P isotropic shielding: 252.380956 ppm
  C      -4.099772      1.012526      1.584786
  C      -3.617814      1.977548      0.507596
  O      -2.153926      2.011168      0.416598
  P      -1.383786      0.836680     -0.392827
  O      -2.137564      0.253965     -1.531547
  C       0.141116      1.710396     -0.777817
  C       1.371423      1.183246     -0.944084
  C       1.766648     -0.232651     -0.882596
  C       0.962591     -1.230986     -1.465147
  C       1.329083     -2.574396     -1.397425
  C       2.510764     -2.939556     -0.746592
  C       3.323170     -1.953985     -0.176757
  C       2.977930     -0.598008     -0.239479
  C       3.870513      0.441417      0.402013
  O      -1.039069     -0.312436      0.687441
  C      -0.310125     -0.047892      1.923069
  C       0.225373     -1.373063      2.442228
  H      -3.826993     -0.020303      1.338844
  H      -3.670775      1.269095      2.561729
  H      -5.194205      1.068476      1.665295
  H      -3.899772      3.010689      0.739916
  H      -4.018205      1.708439     -0.477234
  H       0.016111      2.788159     -0.879841
  H       2.183542      1.890910     -1.129048
  H       0.048329     -0.947397     -1.980961
  H       0.693338     -3.331092     -1.853055
  H       2.804579     -3.986306     -0.686148
  H       4.244031     -2.241889      0.329935
  H       4.252740      1.160621     -0.337434
  H       3.335340      1.025026      1.163783
  H       4.734650     -0.030641      0.882654
  H       0.507379      0.656590      1.720801
  H      -1.000719      0.421317      2.637013
  H       0.767427     -1.210889      3.383903
  H       0.911879     -1.823785      1.717361
  H      -0.595031     -2.075992      2.632021
>
36
-1073.77345508; 31P isotropic shielding: 255.457964 ppm
  C      -4.345190      0.623719      1.109811
  C      -3.669594      1.758254      0.349593
  O      -2.209966      1.742837      0.502016
  P      -1.332116      0.671502     -0.343359
  O      -2.018062      0.108753     -1.534635
  C       0.143102      1.659723     -0.638935
  C       1.406981      1.224000     -0.822261
  C       1.897553     -0.161875     -0.851161
  C       1.157409     -1.176548     -1.488668
  C       1.618508     -2.492046     -1.510125
  C       2.833008     -2.812388     -0.896973
  C       3.582907     -1.809285     -0.274641
  C       3.141852     -0.480300     -0.245888
  C       3.970070      0.576528      0.451413
  O      -0.936794     -0.504888      0.686065
  C      -0.189762     -0.275861      1.920031
  C      -1.115963     -0.312687      3.127916
  H      -4.035638     -0.350584      0.714539
  H      -4.106783      0.663961      2.179506
  H      -5.435096      0.708706      0.997125
  H      -3.970668      2.737820      0.738136
  H      -3.903672      1.707589     -0.720405
  H      -0.048303      2.731995     -0.674161
  H       2.171310      1.994780     -0.949366
  H       0.220203     -0.926661     -1.980110
  H       1.032091     -3.261592     -2.008664
  H       3.201477     -3.837066     -0.908427
  H       4.530820     -2.061888      0.200166
  H       3.413279      1.057289      1.267685
  H       4.881370      0.139628      0.874857
  H       4.274597      1.376964     -0.238966
  H       0.555171     -1.079437      1.956387
  H       0.345087      0.680474      1.856908
  H      -1.676449     -1.254977      3.158472
  H      -1.827735      0.519631      3.099150
  H      -0.524504     -0.232067      4.050670
>
36
-1073.77192169; 31P isotropic shielding: 253.003333 ppm
  C      -4.238258      0.939380      1.328186
  C      -3.674011      1.975005      0.361721
  O      -2.207809      2.007180      0.376879
  P      -1.381866      0.827849     -0.368835
  O      -2.071084      0.213789     -1.531948
  C       0.155894      1.706978     -0.677901
  C       1.390225      1.180002     -0.818412
  C       1.788919     -0.235413     -0.801597
  C       0.989311     -1.219704     -1.415200
  C       1.374077     -2.559754     -1.410943
  C       2.569409     -2.937828     -0.793007
  C       3.373654     -1.967781     -0.186310
  C       3.011067     -0.614805     -0.185426
  C       3.903758      0.404882      0.487628
  O      -1.085332     -0.294591      0.755356
  C      -0.421134      0.017064      2.015486
  C      -0.189174     -1.291271      2.754094
  H      -3.973395     -0.076950      1.015203
  H      -3.861117      1.105986      2.345198
  H      -5.333967      1.018252      1.351071
  H      -3.969620      2.990970      0.646636
  H      -4.003219      1.779317     -0.665939
  H       0.039635      2.788408     -0.743806
  H       2.207989      1.893304     -0.946879
  H       0.069512     -0.926436     -1.915186
  H       0.744329     -3.303126     -1.896048
  H       2.882654     -3.981170     -0.791705
  H       4.306656     -2.264494      0.292392
  H       3.386923      0.921875      1.308268
  H       4.798034     -0.074844      0.900725
  H       4.237553      1.181911     -0.215489
  H       0.529487      0.524786      1.804903
  H      -1.059155      0.702510      2.590351
  H       0.450850     -1.956653      2.163857
  H      -1.139606     -1.802843      2.948896
  H       0.303510     -1.093784      3.715679
>
36
-1073.77237170; 31P isotropic shielding: 255.621987 ppm
  C      -1.404048     -2.198750     -2.029486
  C      -0.337490     -1.400054     -1.291455
  O      -0.826781     -0.936999      0.003740
  P      -1.385039      0.552532      0.271491
  O      -1.704743      0.731162      1.711042
  C      -0.223538      1.714400     -0.463898
  C       1.124915      1.670512     -0.430754
  C       1.989148      0.681076      0.228953
  C       1.657180      0.161968      1.495714
  C       2.471609     -0.783542      2.117060
  C       3.636994     -1.221402      1.481551
  C       3.984412     -0.699618      0.231445
  C       3.184288      0.255309     -0.408512
  C       3.584083      0.787009     -1.767670
  O      -2.643328      0.760841     -0.731918
  C      -4.008258      0.624771     -0.209267
  C      -4.415241     -0.832019     -0.023844
  H      -1.764663     -3.029309     -1.410577
  H      -2.255014     -1.562607     -2.296270
  H      -0.979105     -2.615373     -2.953422
  H       0.000305     -0.542129     -1.886842
  H       0.537925     -2.017328     -1.058368
  H      -0.704826      2.542450     -0.983779
  H       1.648214      2.458415     -0.978074
  H       0.759900      0.513307      1.999339
  H       2.197472     -1.172171      3.096014
  H       4.279455     -1.959946      1.958656
  H       4.895290     -1.040044     -0.260573
  H       2.816552      0.584265     -2.527418
  H       3.733989      1.876594     -1.750757
  H       4.520860      0.328300     -2.103166
  H      -4.069188      1.173620      0.737924
  H      -4.634244      1.125438     -0.956621
  H      -3.780960     -1.322602      0.723356
  H      -4.344629     -1.387069     -0.966787
  H      -5.455895     -0.877407      0.326273
>
36
-1073.77158503; 31P isotropic shielding: 252.671136 ppm
  C      -3.627893      3.468306      0.132906
  C      -3.216816      2.236461      0.928204
  O      -1.753779      2.127921      1.001047
  P      -0.987246      1.257862     -0.131742
  O      -1.484615      1.423061     -1.520846
  C       0.694906      1.793093      0.210676
  C       1.832607      1.090522      0.036171
  C       1.982201     -0.268851     -0.506668
  C       1.230227     -0.685611     -1.621621
  C       1.359167     -1.977896     -2.128719
  C       2.247287     -2.874092     -1.527810
  C       3.009145     -2.465076     -0.428562
  C       2.900999     -1.169448      0.092380
  C       3.726110     -0.765426      1.294427
  O      -1.132859     -0.285691      0.319996
  C      -0.737351     -0.759670      1.642794
  C      -0.556602     -2.267425      1.562267
  H      -3.196371      4.375060      0.575179
  H      -3.289752      3.381755     -0.905210
  H      -4.722527      3.566720      0.140853
  H      -3.629672      1.320655      0.484667
  H      -3.546226      2.297483      1.972200
  H       0.759461      2.805648      0.608619
  H       2.759085      1.576081      0.352902
  H       0.545537      0.013159     -2.096581
  H       0.768091     -2.281345     -2.990659
  H       2.353214     -3.886421     -1.914660
  H       3.700810     -3.165812      0.038533
  H       4.386589      0.084213      1.067079
  H       3.093318     -0.457738      2.138462
  H       4.356899     -1.596200      1.629655
  H       0.194521     -0.263539      1.943700
  H      -1.523057     -0.479983      2.358307
  H      -0.281559     -2.662257      2.549856
  H       0.234454     -2.524483      0.849628
  H      -1.487105     -2.752233      1.242473
>
36
-1073.77337132; 31P isotropic shielding: 255.356121 ppm
  C      -3.699719      3.271622      0.134741
  C      -3.277638      2.017893      0.888942
  O      -1.814990      1.952770      1.011218
  P      -0.982128      1.156643     -0.131413
  O      -1.452237      1.354389     -1.525750
  C       0.664534      1.745629      0.283858
  C       1.838093      1.103505      0.109680
  C       2.072436     -0.214452     -0.499131
  C       1.352083     -0.620400     -1.639407
  C       1.570696     -1.870821     -2.216130
  C       2.520226     -2.734299     -1.662944
  C       3.251791     -2.334466     -0.539912
  C       3.052311     -1.081186      0.052542
  C       3.850985     -0.686975      1.275808
  O      -1.078047     -0.406892      0.261456
  C      -0.691423     -0.900710      1.580489
  C      -1.885403     -1.580230      2.235369
  H      -3.321069      3.242434     -0.892438
  H      -4.796548      3.335161      0.105293
  H      -3.315118      4.170183      0.633294
  H      -3.642535      1.111095      0.388992
  H      -3.646117      2.020147      1.921559
  H       0.673525      2.740452      0.728864
  H       2.730375      1.616109      0.477326
  H       0.625658      0.056161     -2.083295
  H       1.004234     -2.165488     -3.097460
  H       2.698624     -3.712739     -2.106275
  H       3.992802     -3.008924     -0.111320
  H       4.522416     -1.498137      1.578682
  H       4.468248      0.204105      1.088559
  H       3.199952     -0.448777      2.128176
  H       0.135142     -1.602282      1.412505
  H      -0.319494     -0.072128      2.196663
  H      -2.270675     -2.384584      1.597023
  H      -2.692235     -0.859321      2.414292
  H      -1.587958     -2.014987      3.199544
>
36
-1073.77153040; 31P isotropic shielding: 254.165087 ppm
  C      -4.243450      1.080252      1.310312
  C      -3.683902      2.042661      0.268846
  O      -2.216980      2.062899      0.271489
  P      -1.407376      0.874843     -0.477617
  O      -2.090285      0.290840     -1.659618
  C       0.148665      1.731079     -0.765343
  C       1.382579      1.192364     -0.846335
  C       1.760928     -0.226250     -0.752277
  C       0.984615     -1.221391     -1.376581
  C       1.333769     -2.567498     -1.278621
  C       2.470433     -2.938860     -0.555170
  C       3.256040     -1.956771      0.056639
  C       2.927896     -0.598144     -0.035092
  C       3.790031      0.436511      0.653855
  O      -1.148012     -0.269152      0.632142
  C      -0.499668     -0.001235      1.911473
  C       0.000212     -1.325168      2.468534
  H      -3.965178      0.045307      1.079968
  H      -3.875702      1.330816      2.313417
  H      -5.340237      1.146657      1.320325
  H      -3.970264      3.078041      0.485369
  H      -4.023402      1.779754     -0.740321
  H       0.040609      2.809370     -0.880684
  H       2.211491      1.892073     -0.979650
  H       0.106162     -0.933171     -1.949006
  H       0.719965     -3.321581     -1.767549
  H       2.750484     -3.987756     -0.470642
  H       4.141835     -2.249219      0.620113
  H       4.625512     -0.040265      1.178566
  H       4.214253      1.155495     -0.062569
  H       3.218647      1.021480      1.387931
  H       0.329451      0.702318      1.759833
  H      -1.234589      0.470641      2.577895
  H       0.477270     -1.160700      3.444380
  H       0.734066     -1.777054      1.792486
  H      -0.831269     -2.027686      2.603604
>
36
-1073.77343106; 31P isotropic shielding: 255.248874 ppm
  C      -0.946055      0.407497      3.578478
  C      -2.058599     -0.221895      2.749321
  O      -1.511330     -0.883825      1.557529
  P      -1.375164     -0.039014      0.189210
  O      -0.718733      1.291368      0.286380
  C      -0.639807     -1.246865     -0.920065
  C       0.666432     -1.361634     -1.233706
  C       1.809391     -0.675597     -0.613495
  C       1.878558     -0.527599      0.783799
  C       2.961134      0.110182      1.386086
  C       3.998234      0.608818      0.592803
  C       3.945801      0.455521     -0.795988
  C       2.869156     -0.187757     -1.419470
  C       2.828611     -0.315544     -2.925935
  O      -2.924368      0.038604     -0.300204
  C      -3.379165      1.191422     -1.080061
  C      -2.986893      1.069397     -2.547900
  H      -1.370208      0.855703      4.487922
  H      -0.212796     -0.350947      3.880397
  H      -0.434632      1.187837      3.004705
  H      -2.801519      0.524961      2.440008
  H      -2.577211     -1.016467      3.297930
  H      -1.363808     -1.870303     -1.444868
  H       0.915282     -2.047973     -2.047717
  H       1.082417     -0.938797      1.397824
  H       2.996739      0.214173      2.469013
  H       4.848738      1.110778      1.051434
  H       4.755254      0.847205     -1.411619
  H       3.725472      0.121954     -3.378528
  H       2.772818     -1.367175     -3.244091
  H       1.951347      0.192788     -3.349157
  H      -4.468229      1.193371     -0.955290
  H      -2.963448      2.102622     -0.633923
  H      -3.412218      1.907684     -3.116835
  H      -3.363874      0.133071     -2.978384
  H      -1.896626      1.098438     -2.663504
>
36
-1073.77167741; 31P isotropic shielding: 252.756424 ppm
  C      -4.241341      0.736756      1.317060
  C      -3.741705      1.799253      0.344655
  O      -2.279271      1.910921      0.357586
  P      -1.394725      0.833464     -0.470465
  O      -2.038123      0.292625     -1.694420
  C       0.103470      1.805140     -0.689754
  C       1.368296      1.350083     -0.800189
  C       1.831411     -0.046441     -0.801488
  C       1.124792     -1.038734     -1.507521
  C       1.554283     -2.365019     -1.499767
  C       2.702802     -2.718552     -0.786223
  C       3.419540     -1.737719     -0.093217
  C       3.009723     -0.398308     -0.093080
  C       3.795379      0.633911      0.685338
  O      -1.060475     -0.367072      0.556090
  C      -0.441795     -0.147959      1.859012
  C       0.130453     -1.473997      2.334363
  H      -5.340132      0.733179      1.324666
  H      -3.897680     -0.261117      1.020850
  H      -3.892271      0.943313      2.336720
  H      -4.093246      2.797925      0.627511
  H      -4.062446      1.583186     -0.681614
  H      -0.071552      2.879949     -0.731567
  H       2.153344      2.106260     -0.880710
  H       0.236659     -0.763326     -2.071293
  H       0.993461     -3.117650     -2.050655
  H       3.045122     -3.752161     -0.771820
  H       4.314486     -2.016418      0.462709
  H       4.651421      0.172250      1.189987
  H       4.183526      1.429164      0.031871
  H       3.176424      1.125407      1.448670
  H       0.344355      0.613051      1.766068
  H      -1.210188      0.233980      2.545025
  H       0.901715     -1.833885      1.644696
  H      -0.658063     -2.233182      2.404850
  H       0.580853     -1.348177      3.328458
>
36
-1073.77342900; 31P isotropic shielding: 255.436510 ppm
  C      -1.408616     -0.236694     -3.097678
  C      -2.384039     -0.123720     -1.932979
  O      -1.806929     -0.715532     -0.726878
  P      -1.315868      0.198825      0.524465
  O      -0.825976     -0.672347      1.617533
  C      -0.217940      1.464189     -0.126367
  C       1.117280      1.385880     -0.315973
  C       2.020778      0.238542     -0.169681
  C       1.598388     -1.073540     -0.459206
  C       2.467148     -2.155097     -0.331141
  C       3.782597     -1.942019      0.089888
  C       4.217478     -0.644091      0.372907
  C       3.362510      0.457716      0.245576
  C       3.869399      1.841600      0.590123
  O      -2.582196      1.147827      0.888001
  C      -3.567238      0.677156      1.866384
  C      -4.557975     -0.307283      1.254261
  H      -1.876029      0.149130     -4.014299
  H      -0.497116      0.340558     -2.904387
  H      -1.129633     -1.283704     -3.267792
  H      -3.304659     -0.687840     -2.128376
  H      -2.664294      0.919997     -1.740301
  H      -0.703837      2.423645     -0.303585
  H       1.605665      2.317952     -0.608741
  H       0.584748     -1.250109     -0.803304
  H       2.116612     -3.160007     -0.558751
  H       4.469262     -2.780378      0.196365
  H       5.242147     -0.480449      0.705662
  H       3.821282      2.523854     -0.271609
  H       3.279297      2.299850      1.395287
  H       4.913725      1.798789      0.918835
  H      -3.028861      0.228424      2.709934
  H      -4.069024      1.589978      2.206732
  H      -5.060993      0.132785      0.383863
  H      -5.323355     -0.566579      1.998761
  H      -4.055837     -1.230406      0.942968
>
36
-1073.76919224; 31P isotropic shielding: 258.449501 ppm
  C      -2.727988      3.925986      0.065202
  C      -3.217780      2.604127      0.644729
  O      -2.108549      1.790816      1.148232
  P      -1.242922      0.871406      0.131648
  O      -1.939312      0.594399     -1.156771
  C       0.342067      1.716438      0.033238
  C       1.528678      1.148918     -0.259748
  C       1.785196     -0.253785     -0.631036
  C       0.975112     -0.901553     -1.582935
  C       1.215336     -2.227919     -1.942755
  C       2.273168     -2.926380     -1.353759
  C       3.087821     -2.287204     -0.413744
  C       2.869670     -0.953515     -0.044684
  C       3.753901     -0.294002      0.989765
  O      -0.865578     -0.405821      1.029798
  C      -1.636062     -1.647514      0.937324
  C      -0.734107     -2.784616      1.389647
  H      -3.587746      4.547081     -0.221582
  H      -2.133278      4.480832      0.802004
  H      -2.118947      3.758441     -0.831816
  H      -3.767718      2.023255     -0.104791
  H      -3.858972      2.763958      1.519149
  H       0.307212      2.781663      0.260139
  H       2.411000      1.792429     -0.204424
  H       0.154020     -0.356373     -2.041205
  H       0.579863     -2.710798     -2.683057
  H       2.468050     -3.962566     -1.625902
  H       3.910189     -2.834570      0.046411
  H       4.282052      0.577491      0.574984
  H       3.169229      0.066383      1.847043
  H       4.509890     -0.994272      1.362457
  H      -2.520205     -1.548708      1.582464
  H      -1.969184     -1.777048     -0.099351
  H       0.143115     -2.864921      0.738342
  H      -1.287310     -3.732961      1.349392
  H      -0.394408     -2.626296      2.420695
>
36
-1073.77347150; 31P isotropic shielding: 254.090050 ppm
  C      -3.584012      3.343133      0.225141
  C      -3.220931      2.046480      0.936287
  O      -1.764416      1.921247      1.080639
  P      -0.935248      1.160259     -0.088190
  O      -1.397466      1.419400     -1.475057
  C       0.716408      1.715407      0.354109
  C       1.884415      1.071469      0.151796
  C       2.108259     -0.222687     -0.509394
  C       1.386982     -0.576462     -1.666253
  C       1.596256     -1.804749     -2.291814
  C       2.536655     -2.698156     -1.771364
  C       3.268639     -2.350233     -0.631532
  C       3.078600     -1.119857      0.009811
  C       3.875800     -0.782401      1.250809
  O      -1.044433     -0.417262      0.238728
  C      -0.658413     -0.977765      1.530219
  C      -1.894947     -1.372951      2.326387
  H      -4.677201      3.448737      0.183021
  H      -3.174436      4.206910      0.763861
  H      -3.190717      3.339246     -0.796845
  H      -3.610993      1.173813      0.396364
  H      -3.608184      2.024057      1.961810
  H       0.734294      2.690390      0.840686
  H       2.781100      1.561256      0.539403
  H       0.667214      0.123330     -2.084260
  H       1.029438     -2.058886     -3.185503
  H       2.707452     -3.659635     -2.253215
  H       4.002826     -3.047759     -0.228825
  H       4.482075      0.124551      1.110251
  H       3.224138     -0.597146      2.115967
  H       4.557317     -1.600574      1.509207
  H      -0.034315     -1.848327      1.295444
  H      -0.042972     -0.255554      2.081998
  H      -2.492432     -0.491167      2.585469
  H      -1.595045     -1.871281      3.258795
  H      -2.521208     -2.065333      1.750652
