26
-1386.28113037; 31P isotropic shielding: 262.104302 ppm
  N       0.013253     -2.907460     -1.395922
  C      -0.297143     -1.889123     -0.914776
  C      -0.805121     -0.700769     -0.341572
  C      -2.178719     -0.586397     -0.131074
  N      -3.153889     -1.483058     -0.504201
  S      -2.562729      0.938763      0.612975
  C      -0.869871      1.436098      0.658316
  C      -0.062602      0.467817      0.111929
  P       1.729374      0.664008     -0.053325
  O       2.325364      1.594196      0.932427
  O       2.295442     -0.845617     -0.060680
  C       2.360208     -1.585489      1.189516
  O       2.012367      1.115182     -1.565707
  C       1.561321      0.356626     -2.722095
  C      -0.543486      2.783106      1.233308
  H      -2.826177     -2.409372     -0.765944
  H      -4.026978     -1.477503      0.010808
  H       1.364242     -1.667678      1.643921
  H       3.046722     -1.086960      1.882405
  H       2.726166     -2.581868      0.930937
  H       0.465601      0.357606     -2.774919
  H       1.971590      0.872188     -3.594397
  H       1.933128     -0.672000     -2.677846
  H      -1.023514      2.923340      2.211567
  H      -0.895506      3.590805      0.575238
  H       0.538756      2.877058      1.357811
>
26
-1386.27853337; 31P isotropic shielding: 268.009236 ppm
  N       0.071185     -3.096784     -0.937772
  C      -0.254353     -2.034434     -0.576651
  C      -0.780898     -0.801946     -0.126581
  C      -2.161394     -0.670926      0.020607
  N      -3.123545     -1.599279     -0.305488
  S      -2.571216      0.923104      0.585372
  C      -0.881540      1.429276      0.636077
  C      -0.055335      0.411199      0.224679
  P       1.746927      0.573208      0.177425
  O       2.219860      1.963971     -0.005903
  O       2.312792     -0.087242      1.524612
  C       2.030463     -1.458449      1.918530
  O       2.212894     -0.504280     -0.927636
  C       2.015848     -0.203765     -2.337378
  C      -0.570911      2.814779      1.121123
  H      -2.789256     -2.546057     -0.465797
  H      -4.018180     -1.544565      0.167696
  H       2.323016     -2.156312      1.127460
  H       0.964107     -1.577116      2.147650
  H       2.622114     -1.637497      2.820210
  H       2.612589      0.670652     -2.618804
  H       2.345998     -1.090510     -2.883413
  H       0.955258     -0.016167     -2.549914
  H      -1.218798      3.559247      0.639095
  H       0.471330      3.058134      0.896406
  H      -0.724855      2.897760      2.207093
>
26
-1386.27843226; 31P isotropic shielding: 268.187285 ppm
  N      -0.054626     -2.871277     -1.526432
  C      -0.361871     -1.891237     -0.969554
  C      -0.870162     -0.751778     -0.304546
  C      -2.244673     -0.653157     -0.090652
  N      -3.200246     -1.601423     -0.377759
  S      -2.637122      0.842910      0.706706
  C      -0.949924      1.357013      0.751887
  C      -0.135325      0.405793      0.186362
  P       1.665086      0.577176      0.113882
  O       2.136838      1.980358      0.107024
  O       2.261002     -0.260577      1.344696
  C       1.962630     -1.667381      1.564924
  O       2.102151     -0.340416     -1.137074
  C       1.881342      0.147138     -2.489236
  C      -0.627838      2.676589      1.389378
  H      -2.904159     -2.352008     -0.996731
  H      -4.151753     -1.285882     -0.528802
  H       0.902786     -1.796359      1.817275
  H       2.582403     -1.974468      2.411465
  H       2.211526     -2.258744      0.677894
  H       0.820579      0.379986     -2.650195
  H       2.489159      1.041081     -2.666220
  H       2.181798     -0.664707     -3.155617
  H      -0.725932      2.622978      2.483566
  H      -1.307958      3.463651      1.036543
  H       0.399188      2.962441      1.145418
>
26
-1386.27857386; 31P isotropic shielding: 268.146054 ppm
  N      -0.045351     -3.054759     -1.111194
  C      -0.360159     -2.011862     -0.689046
  C      -0.875739     -0.789375     -0.200513
  C      -2.256274     -0.643627     -0.066964
  N      -3.217643     -1.604869     -0.281956
  S      -2.650973      0.935900      0.547729
  C      -0.956428      1.420147      0.624725
  C      -0.138345      0.399433      0.203964
  P       1.662347      0.561944      0.121839
  O       2.221241      1.538549      1.083900
  O       2.204004     -0.952154      0.226327
  C       2.204516     -1.620312      1.518447
  O       2.029360      0.925792     -1.396752
  C       1.632393      0.102514     -2.528237
  C      -0.635024      2.813081      1.081003
  H      -2.911885     -2.429119     -0.792852
  H      -4.156686     -1.296732     -0.506994
  H       1.191322     -1.652318      1.939892
  H       2.877797     -1.098294      2.206972
  H       2.554174     -2.638254      1.331405
  H       0.542209      0.123514     -2.650148
  H       2.109132      0.549912     -3.404416
  H       1.974024     -0.928914     -2.394848
  H      -0.875004      3.550632      0.300979
  H       0.431259      2.886167      1.312922
  H      -1.211168      3.081402      1.976618
>
26
-1386.27849310; 31P isotropic shielding: 268.182730 ppm
  N      -0.017385     -2.966156     -1.326573
  C      -0.332698     -1.948614     -0.846733
  C      -0.847255     -0.768995     -0.261404
  C      -2.223846     -0.655492     -0.069455
  N      -3.194497     -1.547247     -0.466401
  S      -2.618705      0.873091      0.662281
  C      -0.928025      1.373589      0.724811
  C      -0.112505      0.403230      0.194023
  P       1.688743      0.569976      0.125148
  O       2.160064      1.972179      0.071426
  O       2.281640     -0.222297      1.387421
  C       1.988796     -1.621610      1.655703
  O       2.129621     -0.391380     -1.090982
  C       1.901172      0.044646     -2.460034
  C      -0.603996      2.702781      1.341117
  H      -2.863625     -2.472371     -0.728506
  H      -4.075746     -1.544560      0.034516
  H       0.929080     -1.746210      1.911194
  H       2.608347     -1.896804      2.513360
  H       2.240587     -2.242658      0.790166
  H       2.502150      0.935617     -2.671868
  H       2.205520     -0.789084     -3.096970
  H       0.838298      0.263844     -2.625714
  H      -0.711634      2.668622      2.435306
  H      -1.275603      3.487923      0.968714
  H       0.426906      2.977879      1.100953
>
26
-1386.27847506; 31P isotropic shielding: 268.203940 ppm
  N      -0.065189     -2.574012     -2.013910
  C      -0.409495     -1.683497     -1.341660
  C      -0.943728     -0.659065     -0.525596
  C      -2.295150     -0.664404     -0.195981
  N      -3.261727     -1.533615     -0.650243
  S      -2.684861      0.690465      0.830504
  C      -1.019146      1.275099      0.831832
  C      -0.225392      0.459996      0.063095
  P       1.540291      0.686217     -0.172074
  O       2.147495      1.835621      0.547109
  O       2.203381     -0.748060      0.187197
  C       2.440951     -1.070953      1.582927
  O       1.631237      0.669740     -1.770914
  C       2.928849      0.636403     -2.431864
  C      -0.700616      2.514641      1.615062
  H      -2.915710     -2.374886     -1.104798
  H      -4.078641     -1.680148     -0.068119
  H       3.032477     -0.283058      2.062849
  H       2.988938     -2.016976      1.588512
  H       1.486078     -1.195748      2.112024
  H       3.586324      1.411508     -2.020876
  H       3.380999     -0.353856     -2.309222
  H       2.731562      0.832030     -3.488821
  H      -1.289345      3.370842      1.256612
  H       0.361854      2.751298      1.513338
  H      -0.932335      2.380915      2.681417
>
26
-1386.28105597; 31P isotropic shielding: 262.033489 ppm
  N      -0.054598     -2.562639     -2.056642
  C      -0.395323     -1.693783     -1.354877
  C      -0.930487     -0.690728     -0.513260
  C      -2.281857     -0.706241     -0.183885
  N      -3.211963     -1.666704     -0.515498
  S      -2.680752      0.642307      0.847534
  C      -1.023936      1.250982      0.832312
  C      -0.221137      0.434146      0.074910
  P       1.543121      0.673085     -0.158301
  O       2.142492      1.825188      0.562921
  O       2.213249     -0.757989      0.198274
  C       2.441394     -1.087546      1.594481
  O       1.637401      0.662338     -1.757524
  C       2.938014      0.647018     -2.413380
  C      -0.721258      2.511956      1.586998
  H      -2.930432     -2.312018     -1.249595
  H      -4.184381     -1.383614     -0.564830
  H       1.483208     -1.210424      2.117829
  H       3.033459     -0.303768      2.080428
  H       2.985088     -2.035972      1.598712
  H       3.583311      1.430260     -1.998566
  H       3.402966     -0.337262     -2.290287
  H       2.742661      0.841373     -3.470955
  H       0.340703      2.753052      1.490100
  H      -0.963268      2.405244      2.653922
  H      -1.311475      3.354636      1.199578
>
26
-1386.28115312; 31P isotropic shielding: 261.924617 ppm
  N      -0.298376     -2.794804     -1.643274
  C      -0.569884     -1.827130     -1.047976
  C      -1.034768     -0.721135     -0.299297
  C      -2.377201     -0.675881      0.072753
  N      -3.331897     -1.644726     -0.142843
  S      -2.719308      0.772035      0.976274
  C      -1.053529      1.339007      0.856158
  C      -0.285031      0.440302      0.156853
  P       1.479335      0.694274     -0.105195
  O       1.960300      2.094402     -0.064596
  O       2.257583     -0.183129      1.009284
  C       1.979080     -1.595021      1.213254
  O       1.661040     -0.094626     -1.497663
  C       2.946591     -0.067447     -2.177864
  C      -0.698786      2.643220      1.508373
  H      -3.085108     -2.357324     -0.825342
  H      -4.301880     -1.351831     -0.180239
  H       2.031604     -2.148171      0.268738
  H       0.986049     -1.726928      1.660819
  H       2.744784     -1.956589      1.904986
  H       3.716850     -0.548593     -1.562315
  H       2.805542     -0.628044     -3.105199
  H       3.235002      0.967475     -2.392752
  H      -1.429483      3.423197      1.255068
  H       0.291232      2.967290      1.175224
  H      -0.684844      2.547876      2.603969
>
26
-1386.27811275; 31P isotropic shielding: 266.010579 ppm
  N      -0.148351     -3.106876     -0.931213
  C      -0.472991     -2.037170     -0.593945
  C      -0.986411     -0.779751     -0.198675
  C      -2.360218     -0.562700     -0.178160
  N      -3.349126     -1.427422     -0.592935
  S      -2.720355      1.056753      0.359505
  C      -1.013967      1.453666      0.575975
  C      -0.226615      0.381813      0.234589
  P       1.568620      0.386720      0.265875
  O       2.203821      1.665005      0.676925
  O       1.854686     -0.913509      1.157044
  C       3.208033     -1.437990      1.280244
  O       2.020204     -0.141036     -1.197623
  C       2.032683      0.802295     -2.301820
  C      -0.659757      2.821053      1.081697
  H      -3.057665     -2.393355     -0.721527
  H      -4.268486     -1.325116     -0.177553
  H       3.526269     -1.870346      0.325435
  H       3.158687     -2.214709      2.047397
  H       3.897180     -0.643706      1.590419
  H       2.639597      1.679232     -2.049268
  H       2.465878      0.269914     -3.152756
  H       1.008088      1.114750     -2.545946
  H      -1.116197      3.008898      2.063906
  H      -1.019257      3.603366      0.398141
  H       0.425950      2.909321      1.174672
>
26
-1386.28117408; 31P isotropic shielding: 262.223350 ppm
  N      -0.291433     -2.825539     -1.581222
  C      -0.575633     -1.837692     -1.026296
  C      -1.044840     -0.714367     -0.306894
  C      -2.387018     -0.664181      0.065915
  N      -3.377277     -1.558029     -0.273312
  S      -2.724640      0.788766      0.963371
  C      -1.053320      1.341414      0.856297
  C      -0.291390      0.445890      0.145876
  P       1.471745      0.700787     -0.125271
  O       1.949204      2.102323     -0.095118
  O       2.258333     -0.166590      0.991626
  C       1.989375     -1.579025      1.202354
  O       1.648850     -0.096422     -1.513219
  C       2.926933     -0.057976     -2.207096
  C      -0.686202      2.630321      1.531686
  H      -3.058724     -2.445235     -0.654656
  H      -4.182997     -1.629762      0.337494
  H       2.050178     -2.137215      0.261407
  H       0.995081     -1.716034      1.645807
  H       2.754209     -1.930872      1.900073
  H       3.201801      0.979197     -2.428610
  H       3.708742     -0.528582     -1.597993
  H       2.781984     -0.623373     -3.130883
  H      -1.415481      3.419092      1.303523
  H       0.301495      2.957125      1.194086
  H      -0.659876      2.511176      2.624856
>
26
-1386.27798930; 31P isotropic shielding: 265.976524 ppm
  N      -0.208513     -2.841801     -1.551020
  C      -0.513767     -1.864939     -0.988840
  C      -0.999939     -0.733340     -0.293233
  C      -2.343545     -0.656160      0.058788
  N      -3.344710     -1.542714     -0.269424
  S      -2.670988      0.824834      0.919558
  C      -0.989233      1.352529      0.819202
  C      -0.236633      0.425448      0.141453
  P       1.529926      0.564167     -0.149266
  O       2.182138      1.779231      0.402753
  O       2.159528     -0.829458      0.386753
  C       2.415754     -0.971659      1.809042
  O       1.588032      0.332880     -1.733178
  C       2.869071      0.150240     -2.402753
  C      -0.617424      2.666045      1.441783
  H      -3.033616     -2.444217     -0.622460
  H      -4.153764     -1.590576      0.339621
  H       3.043805     -0.148741      2.168724
  H       2.930711     -1.928154      1.932088
  H       1.468699     -0.988707      2.365801
  H       3.300119     -0.816108     -2.119701
  H       2.651349      0.166843     -3.473501
  H       3.553285      0.966561     -2.143234
  H       0.447203      2.858865      1.285057
  H      -0.820314      2.664625      2.522334
  H      -1.195175      3.490406      1.000556
>
26
-1386.28106472; 31P isotropic shielding: 262.287962 ppm
  N      -0.262757     -2.824118     -1.570575
  C      -0.532858     -1.842174     -0.999290
  C      -0.978089     -0.701280     -0.291609
  C      -2.304415     -0.608034      0.117287
  N      -3.327238     -1.486803     -0.160367
  S      -2.580145      0.882096      0.980586
  C      -0.899102      1.392257      0.804246
  C      -0.185456      0.452811      0.101836
  P       1.567381      0.573896     -0.268071
  O       2.255251      1.785030      0.248709
  O       2.207670     -0.823856      0.244085
  C       2.535946     -0.961479      1.651904
  O       1.552766      0.337135     -1.852591
  C       2.802702      0.146338     -2.576629
  C      -0.488295      2.706154      1.401154
  H      -3.041933     -2.394760     -0.518379
  H      -4.112746     -1.518220      0.479603
  H       3.180379     -0.136834      1.976917
  H       3.057886     -1.916965      1.751418
  H       1.618467     -0.978583      2.256248
  H       2.541290      0.176546     -3.637281
  H       3.507297      0.951545     -2.337802
  H       3.232859     -0.828067     -2.321083
  H      -1.076555      3.533262      0.979395
  H       0.570502      2.887264      1.198013
  H      -0.644906      2.713841      2.489375
>
26
-1386.28106847; 31P isotropic shielding: 262.089471 ppm
  N      -0.038726     -2.457548     -2.199958
  C      -0.387754     -1.601452     -1.486695
  C      -0.927546     -0.621768     -0.620879
  C      -2.280669     -0.647255     -0.298695
  N      -3.242768     -1.494337     -0.801092
  S      -2.678314      0.651957      0.794948
  C      -1.014472      1.239739      0.833993
  C      -0.215017      0.467120      0.028102
  P       1.550707      0.711546     -0.188086
  O       2.152484      1.814659      0.604307
  O       2.216772     -0.740500      0.080366
  C       2.454189     -1.151276      1.452841
  O       1.646056      0.798212     -1.784849
  C       2.948185      0.836700     -2.437385
  C      -0.703060      2.439243      1.679706
  H      -2.893624     -2.312695     -1.293484
  H      -4.064978     -1.667907     -0.234118
  H       2.992331     -2.101250      1.397827
  H       1.499576     -1.298263      1.976696
  H       3.054516     -0.400006      1.978464
  H       3.435738     -0.140427     -2.349875
  H       2.749897      1.065968     -3.487323
  H       3.573672      1.618623     -1.991074
  H      -1.282539      3.314446      1.353342
  H       0.361614      2.676138      1.605526
  H      -0.951371      2.256234      2.734895
>
26
-1386.28106745; 31P isotropic shielding: 261.913365 ppm
  N      -0.086935     -2.926147     -1.273210
  C      -0.417588     -1.904197     -0.815235
  C      -0.942948     -0.698342     -0.295082
  C      -2.318239     -0.491470     -0.269997
  N      -3.303291     -1.386049     -0.624875
  S      -2.694210      1.073893      0.400392
  C      -0.991499      1.469639      0.646109
  C      -0.194559      0.428436      0.238340
  P       1.600361      0.441600      0.288077
  O       2.223310      1.681926      0.817685
  O       1.884876     -0.932009      1.061634
  C       3.242842     -1.449061      1.166438
  O       2.071008      0.050317     -1.213091
  C       2.097396      1.093685     -2.222764
  C      -0.648894      2.809163      1.228668
  H      -2.989602     -2.194538     -1.155974
  H      -4.196728     -1.012072     -0.924339
  H       3.582205     -1.798969      0.185490
  H       3.190399     -2.285505      1.867728
  H       3.916145     -0.674301      1.551545
  H       1.074886      1.419641     -2.458381
  H       2.689497      1.947791     -1.875069
  H       2.553448      0.647862     -3.110739
  H      -0.964773      3.624233      0.561537
  H       0.431880      2.880311      1.377149
  H      -1.151785      2.961964      2.193761
>
26
-1386.28100943; 31P isotropic shielding: 261.958249 ppm
  N       0.014141     -2.445022     -2.234691
  C      -0.346389     -1.619968     -1.491206
  C      -0.899557     -0.670934     -0.599926
  C      -2.250711     -0.725590     -0.274339
  N      -3.164487     -1.683162     -0.656254
  S      -2.673052      0.562183      0.823337
  C      -1.026626      1.198213      0.842382
  C      -0.209402      0.434297      0.046054
  P       1.550379      0.715908     -0.173249
  O       2.127563      1.839461      0.608745
  O       2.247691     -0.718874      0.107686
  C       2.484780     -1.115895      1.484765
  O       1.643637      0.789776     -1.771013
  C       2.943799      0.835532     -2.426810
  C      -0.745684      2.422487      1.663046
  H      -2.872394     -2.284189     -1.423107
  H      -4.141510     -1.414067     -0.691753
  H       3.053363     -2.048506      1.439370
  H       1.530132     -1.290917      1.999631
  H       3.056201     -0.343760      2.012339
  H       3.450234     -0.129424     -2.315084
  H       2.739523      1.033394     -3.481984
  H       3.554792      1.640690     -2.002206
  H      -0.970569      2.250612      2.725257
  H      -1.362331      3.269465      1.330108
  H       0.308779      2.694987      1.568099
>
26
-1386.28112671; 31P isotropic shielding: 261.974802 ppm
  N      -0.349028     -3.430455      0.557219
  C      -0.609901     -2.301255      0.412554
  C      -1.067269     -0.977433      0.215762
  C      -2.438708     -0.745436      0.105539
  N      -3.441978     -1.689701      0.070659
  S      -2.760878      0.952308     -0.102177
  C      -1.054439      1.366989     -0.029449
  C      -0.283967      0.241393      0.125496
  P       1.498911      0.348994      0.352756
  O       1.944603      0.869039      1.665589
  O       2.083878     -1.119298      0.057303
  C       2.051637     -1.705728     -1.273887
  O       1.912068      1.259413     -0.927155
  C       3.193601      1.951552     -0.901084
  C      -0.647790      2.810330     -0.120720
  H      -3.170829     -2.623153      0.370783
  H      -4.363042     -1.407644      0.387931
  H       2.884468     -1.313263     -1.868498
  H       1.104744     -1.491713     -1.783973
  H       2.153623     -2.784021     -1.132861
  H       3.342194      2.441247      0.067356
  H       4.012155      1.244361     -1.085707
  H       3.155513      2.692477     -1.704635
  H       0.137991      3.032158      0.611024
  H      -1.496439      3.474623      0.080915
  H      -0.255917      3.051217     -1.117941
>
26
-1386.27519401; 31P isotropic shielding: 263.256906 ppm
  N      -0.878046     -3.274019      1.386183
  C      -0.905867     -2.201543      0.925900
  C      -1.166798     -0.922230      0.376330
  C      -2.492903     -0.517954      0.227868
  N      -3.618753     -1.194176      0.645596
  S      -2.578809      1.077763     -0.467084
  C      -0.829567      1.212064     -0.576249
  C      -0.225868      0.078397     -0.087134
  P       1.552502     -0.157122     -0.030575
  O       1.985152     -1.429401      0.593231
  O       1.968770      0.109637     -1.562375
  C       3.361381     -0.075262     -1.952944
  O       2.165651      1.179071      0.666099
  C       2.129240      1.267709      2.118084
  C      -0.230752      2.437054     -1.204714
  H      -3.467159     -2.169873      0.892179
  H      -4.483347     -1.023577      0.144012
  H       3.981478      0.718092     -1.518731
  H       3.378544     -0.011346     -3.044077
  H       3.719683     -1.057389     -1.624758
  H       2.543294      0.357977      2.566396
  H       2.736751      2.136260      2.387103
  H       1.096601      1.416947      2.461571
  H       0.740229      2.660489     -0.751702
  H      -0.881847      3.310588     -1.076859
  H      -0.069760      2.290743     -2.282246
>
26
-1386.27687383; 31P isotropic shielding: 261.756800 ppm
  N      -0.757713     -3.220214      1.558028
  C      -0.826208     -2.173316      1.045958
  C      -1.132729     -0.949959      0.401031
  C      -2.459015     -0.692050      0.056559
  N      -3.559964     -1.463104      0.357830
  S      -2.599431      0.841485     -0.759259
  C      -0.870548      1.144435     -0.657704
  C      -0.236102      0.113646     -0.007252
  P       1.530949      0.068999      0.303859
  O       2.002510     -1.156838      0.989725
  O       2.254287      0.362678     -1.123868
  C       2.392140     -0.742826     -2.059404
  O       1.772100      1.481973      1.035595
  C       3.103507      1.790327      1.544098
  C      -0.323633      2.430790     -1.205324
  H      -3.352222     -2.403197      0.687288
  H      -4.361488     -1.405488     -0.260374
  H       2.803863     -1.622679     -1.552992
  H       3.074106     -0.399043     -2.842096
  H       1.416080     -0.987479     -2.500103
  H       3.482447      0.955909      2.144667
  H       3.784671      1.996479      0.709828
  H       2.988936      2.682413      2.165400
  H      -0.307343      3.214774     -0.435047
  H      -0.930096      2.796046     -2.043479
  H       0.702998      2.288838     -1.556963
>
26
-1386.27682074; 31P isotropic shielding: 261.607126 ppm
  N      -0.738259     -2.532311     -2.298151
  C      -0.871947     -1.661649     -1.531086
  C      -1.171687     -0.664254     -0.574462
  C      -2.488212     -0.527413     -0.132012
  N      -3.592407     -1.213734     -0.584988
  S      -2.612511      0.749156      1.043990
  C      -0.892556      1.104689      0.959105
  C      -0.266081      0.275577      0.062070
  P       1.473175      0.478768     -0.358202
  O       1.789852      1.634669     -1.227216
  O       2.139933      0.525638      1.122041
  C       3.462136      1.120601      1.267207
  O       1.947895     -0.911471     -1.011939
  C       2.020526     -2.138826     -0.233942
  C      -0.336144      2.210673      1.810454
  H      -3.399708     -2.041256     -1.143561
  H      -4.385442     -1.305224      0.039468
  H       3.601703      1.294404      2.337932
  H       3.517173      2.063634      0.712976
  H       4.232095      0.431048      0.898712
  H       1.982547     -2.958472     -0.954932
  H       2.960872     -2.162191      0.328631
  H       1.176193     -2.223637      0.460644
  H      -1.134516      2.862221      2.184735
  H       0.359129      2.827950      1.229386
  H       0.212641      1.811408      2.673741
>
26
-1386.27497907; 31P isotropic shielding: 263.171674 ppm
  N      -0.385416     -2.948474     -1.384699
  C      -0.643722     -1.907868     -0.922231
  C      -1.080459     -0.680476     -0.371248
  C      -2.440525     -0.418668     -0.243492
  N      -3.486890     -1.201077     -0.680407
  S      -2.701878      1.149135      0.474398
  C      -0.970765      1.461564      0.622999
  C      -0.249357      0.403323      0.128050
  P       1.543279      0.341744      0.046321
  O       2.255350      1.543207      0.552548
  O       1.825473     -1.058811      0.770837
  C       3.159272     -1.643840      0.747042
  O       1.884011     -0.034497     -1.492544
  C       1.871137      1.028092     -2.482644
  C      -0.530914      2.755675      1.241877
  H      -3.243098     -2.157938     -0.924500
  H      -4.374791     -1.111289     -0.198935
  H       3.130192     -2.483765      1.445579
  H       3.903964     -0.907895      1.072339
  H       3.388702     -2.000380     -0.262929
  H       2.223352      0.580013     -3.415571
  H       0.849210      1.407696     -2.619191
  H       2.534016      1.844973     -2.175527
  H      -0.914131      3.617475      0.677288
  H       0.561208      2.803012      1.257450
  H      -0.903521      2.846871      2.272090
