35
-1872.43957196; 31P isotropic shielding: 195.321325 ppm
  C       4.740145     -1.320698      0.130387
  C       4.388040      0.154318      0.273061
  O       3.036408      0.356598      0.800831
  P       1.725243      0.241458     -0.134854
  S       1.937115      0.930146     -1.945668
  N       1.370289     -1.396713     -0.062677
  C       0.234255     -1.996776      0.023082
  C      -1.105297     -1.338144     -0.001118
  C      -1.414702     -0.396591     -0.998027
  C      -2.660539      0.227185     -1.029299
  C      -3.602837     -0.080521     -0.044196
  C      -3.323335     -1.016505      0.954259
  C      -2.081531     -1.653964      0.958185
  Cl     -5.167713      0.722035     -0.062061
  C       0.239349     -3.506920      0.116530
  O       0.638110      0.952215      0.822396
  C       0.290071      2.368031      0.692475
  C       1.338107      3.274095      1.324461
  H       4.111206     -1.806264     -0.623067
  H       5.791029     -1.413113     -0.177648
  H       4.608998     -1.847821      1.083437
  H       4.463356      0.681855     -0.686564
  H       5.033953      0.651699      1.005520
  H      -0.671695     -0.145362     -1.751269
  H      -2.898723      0.949269     -1.805945
  H      -4.067021     -1.242044      1.713993
  H      -1.865398     -2.377353      1.741470
  H      -0.281119     -3.842732      1.024067
  H      -0.306914     -3.938991     -0.734234
  H       1.266227     -3.881242      0.127963
  H      -0.677462      2.449923      1.199883
  H       0.155095      2.593527     -0.372918
  H       0.988742      4.315422      1.290304
  H       2.288556      3.212756      0.782480
  H       1.513291      2.999122      2.371562
>
35
-1872.43886427; 31P isotropic shielding: 192.333772 ppm
  C       2.884920     -0.217981     -2.443856
  C       1.415658     -0.125356     -2.053579
  O       1.220075     -0.329330     -0.617853
  P       1.459654      0.845570      0.461609
  S       1.141445      2.683460     -0.104376
  N       0.584550      0.387629      1.815893
  C      -0.544665     -0.223331      1.913938
  C      -1.423812     -0.620437      0.775239
  C      -1.736780      0.304185     -0.236515
  C      -2.554371     -0.056403     -1.305801
  C      -3.053378     -1.360175     -1.375188
  C      -2.762901     -2.296595     -0.380300
  C      -1.964562     -1.914791      0.699094
  Cl     -4.064971     -1.829577     -2.734664
  C      -1.056710     -0.538035      3.302689
  O       2.980184      0.515943      0.895138
  C       3.797121      1.466722      1.652823
  C       3.505705      1.415583      3.147279
  H       3.461379      0.601622     -2.000272
  H       3.317788     -1.169384     -2.112018
  H       2.977886     -0.153650     -3.536867
  H       0.820648     -0.919255     -2.518464
  H       0.987846      0.847786     -2.325839
  H      -1.332583      1.312707     -0.189767
  H      -2.799858      0.663924     -2.081812
  H      -3.157149     -3.306931     -0.450414
  H      -1.735431     -2.649508      1.467840
  H      -0.341789     -0.194577      4.054770
  H      -2.031015     -0.055401      3.465536
  H      -1.218995     -1.618065      3.423588
  H       3.626649      2.470509      1.242531
  H       4.827396      1.162921      1.435232
  H       4.208487      2.075565      3.674797
  H       3.628248      0.396456      3.534180
  H       2.484732      1.747500      3.362211
>
35
-1872.43904141; 31P isotropic shielding: 192.060031 ppm
  C       4.842078     -1.438300      0.067445
  C       4.506508      0.030281      0.293034
  O       3.166147      0.206615      0.854912
  P       1.835023      0.175595     -0.060558
  S       2.047745      0.967065     -1.829170
  N       1.418138     -1.449238     -0.068152
  C       0.254728     -1.997878     -0.033494
  C      -1.048280     -1.268752     -0.065989
  C      -2.021319     -1.486448      0.922196
  C      -3.223055     -0.776808      0.910434
  C      -3.466655      0.128485     -0.125346
  C      -2.528448      0.334983     -1.139004
  C      -1.318521     -0.356084     -1.098844
  Cl     -4.979920      1.025451     -0.150159
  C       0.177852     -3.507044      0.001905
  O       0.782888      0.850663      0.956474
  C       0.768873      2.302329      1.170021
  C      -0.540156      2.878603      0.653705
  H       4.193776     -1.878002     -0.698141
  H       5.885610     -1.525284     -0.265973
  H       4.722965     -2.012644      0.994345
  H       4.567244      0.606265     -0.639347
  H       5.169638      0.484743      1.038050
  H      -1.830910     -2.186951      1.732924
  H      -3.963597     -0.923426      1.692285
  H      -2.737739      1.037733     -1.941160
  H      -0.570441     -0.171169     -1.865612
  H      -0.354138     -3.876034     -0.887028
  H       1.181275     -3.939295      0.040826
  H      -0.401625     -3.844882      0.872483
  H       1.630109      2.754410      0.662586
  H       0.883413      2.443150      2.251628
  H      -0.610955      2.755982     -0.432420
  H      -0.591033      3.950771      0.888790
  H      -1.397817      2.379415      1.119757
>
35
-1872.43928754; 31P isotropic shielding: 191.707081 ppm
  C       4.842964     -1.443355      0.066125
  C       4.508573      0.024139      0.300497
  O       3.167914      0.197884      0.862578
  P       1.837734      0.175440     -0.054695
  S       2.053283      0.981330     -1.816570
  N       1.419131     -1.448877     -0.076055
  C       0.254789     -1.995956     -0.046923
  C      -1.046958     -1.264581     -0.075581
  C      -2.021863     -1.488162      0.909414
  C      -3.222227     -0.776190      0.901401
  C      -3.462795      0.137564     -0.127617
  C      -2.522692      0.350038     -1.138357
  C      -1.314172     -0.343542     -1.101867
  Cl     -4.974279      1.037488     -0.147503
  C       0.175669     -3.505231     -0.023106
  O       0.785012      0.843490      0.966501
  C       0.774322      2.293296      1.192829
  C      -0.530077      2.878322      0.674479
  H       4.721259     -2.023379      0.989115
  H       4.195709     -1.877447     -0.703501
  H       5.887113     -1.529219     -0.265598
  H       4.570299      0.605837     -0.628258
  H       5.171535      0.473411      1.048787
  H      -1.833933     -2.195260      1.714964
  H      -3.964124     -0.927465      1.681076
  H      -2.729574      1.059306     -1.935371
  H      -0.564697     -0.154183     -1.866156
  H      -0.354001     -3.866708     -0.916488
  H       1.178332     -3.939232      0.015535
  H      -0.406998     -3.848664      0.843091
  H       1.639643      2.747256      0.694145
  H       0.883391      2.424011      2.276235
  H      -1.391952      2.377353      1.130698
  H      -0.594772      2.766293     -0.413178
  H      -0.579061      3.948392      0.919352
>
35
-1872.43928695; 31P isotropic shielding: 191.601889 ppm
  C       0.901324     -0.542364     -2.835333
  C       1.981041     -0.340006     -1.784192
  O       1.364273     -0.362105     -0.453498
  P       1.531324      0.881447      0.557414
  S       1.198536      2.675789     -0.127318
  N       0.602691      0.461231      1.889151
  C      -0.529934     -0.147489      1.941549
  C      -1.347850     -0.559466      0.762002
  C      -1.698447      0.385735     -0.216221
  C      -2.458317      0.014467     -1.324211
  C      -2.850239     -1.318466     -1.467705
  C      -2.517903     -2.276248     -0.506486
  C      -1.785184     -1.885417      0.615273
  Cl     -3.775734     -1.801142     -2.883467
  C      -1.117861     -0.443441      3.302464
  O       3.042371      0.625728      1.070270
  C       3.827723      1.666880      1.736434
  C       3.438754      1.833491      3.199682
  H       0.198419      0.297600     -2.830919
  H       1.360996     -0.608658     -3.831038
  H       0.341331     -1.466713     -2.649092
  H       2.500724      0.615516     -1.928361
  H       2.720831     -1.150047     -1.790454
  H      -1.360306      1.414270     -0.118561
  H      -2.733432      0.748046     -2.077425
  H      -2.830094     -3.309291     -0.635247
  H      -1.521960     -2.633402      1.360476
  H      -1.314938     -1.518911      3.413986
  H      -0.436522     -0.113849      4.091357
  H      -2.087862      0.063184      3.410756
  H       3.701334      2.602918      1.177241
  H       4.863552      1.324362      1.631990
  H       4.118041      2.554479      3.675518
  H       3.512093      0.878833      3.734817
  H       2.413224      2.206139      3.295050
>
35
-1872.43812980; 31P isotropic shielding: 191.719472 ppm
  C       2.842357     -2.244221      0.484707
  C       3.702226     -0.988023      0.554341
  O       2.920448      0.200627      0.892590
  P       2.003339      0.964514     -0.197205
  S       2.752857      1.031724     -1.995715
  N       0.524917      0.194690     -0.061002
  C      -0.626442      0.621860     -0.463624
  C      -1.787807     -0.287177     -0.275322
  C      -1.571002     -1.628132      0.103514
  C      -2.633916     -2.502925      0.298255
  C      -3.943194     -2.035622      0.128547
  C      -4.192510     -0.710948     -0.235923
  C      -3.114981      0.151702     -0.442279
  Cl     -5.291192     -3.133007      0.377767
  C      -0.859033      1.976224     -1.102868
  O       1.755323      2.372751      0.558759
  C       2.730009      3.465796      0.484003
  C       3.847462      3.305608      1.507134
  H       2.138178     -2.194094     -0.353200
  H       3.489977     -3.120195      0.340484
  H       2.273159     -2.378937      1.412509
  H       4.220182     -0.802888     -0.395766
  H       4.444256     -1.055873      1.358067
  H      -0.548248     -1.967942      0.240171
  H      -2.459538     -3.538309      0.579558
  H      -5.214671     -0.362832     -0.358449
  H      -3.323421      1.180661     -0.721851
  H      -1.130437      2.712490     -0.332998
  H       0.052512      2.325056     -1.595400
  H      -1.667192      1.942067     -1.840226
  H       2.136266      4.366497      0.677333
  H       3.121434      3.511464     -0.540679
  H       3.437571      3.194330      2.518297
  H       4.489353      4.197420      1.487162
  H       4.465158      2.429143      1.284712
>
35
-1872.44134843; 31P isotropic shielding: 186.283092 ppm
  C       4.822513     -1.409997      0.029037
  C       4.484199      0.066871      0.184155
  O       3.141128      0.270937      0.730735
  P       1.813628      0.158893     -0.182858
  S       2.021595      0.782262     -2.017111
  N       1.398295     -1.460151     -0.049749
  C       0.238399     -2.006843      0.062192
  C      -1.068722     -1.285537      0.020184
  C      -1.360530     -0.410672     -1.039821
  C      -2.572019      0.277281     -1.083006
  C      -3.492305      0.105293     -0.045783
  C      -3.228058     -0.761981      1.016648
  C      -2.024359     -1.468388      1.032295
  Cl     -5.007670      0.997970     -0.075694
  C       0.172367     -3.510041      0.211308
  O       0.756183      0.921492      0.766374
  C       0.685912      2.381443      0.819755
  C      -0.669388      2.757071      1.397034
  H       5.866504     -1.510269     -0.299199
  H       4.703793     -1.940793      0.981609
  H       4.176085     -1.886301     -0.715959
  H       4.548728      0.597861     -0.774270
  H       5.143147      0.556916      0.909997
  H      -0.628215     -0.253966     -1.828095
  H      -2.797523      0.949005     -1.907204
  H      -3.953898     -0.881726      1.816625
  H      -1.818211     -2.137481      1.865219
  H      -0.394296     -3.945934     -0.624175
  H       1.179901     -3.933423      0.238131
  H      -0.364833     -3.786833      1.129279
  H       0.819723      2.775059     -0.196302
  H       1.512603      2.738085      1.449074
  H      -1.479440      2.391203      0.756132
  H      -0.749545      3.849982      1.470822
  H      -0.799589      2.332309      2.399924
>
35
-1872.43970597; 31P isotropic shielding: 194.226518 ppm
  C       2.555207     -2.052139      1.646805
  C       3.516013     -0.894991      1.402392
  O       2.813063      0.365775      1.164080
  P       2.123422      0.704645     -0.259621
  S       3.106862      0.053922     -1.810702
  N       0.567223      0.117027     -0.089112
  C      -0.469088      0.392776     -0.809178
  C      -1.733144     -0.317763     -0.476180
  C      -2.958759      0.016601     -1.082551
  C      -4.137829     -0.649128     -0.744205
  C      -4.092594     -1.670655      0.206483
  C      -2.888361     -2.028594      0.825105
  C      -1.723792     -1.349344      0.485137
  Cl     -5.568815     -2.520108      0.633812
  C      -0.485175      1.381138     -1.956505
  O       1.917876      2.302004     -0.117248
  C       3.057878      3.220387     -0.223130
  C       3.594050      3.590513      1.153248
  H       1.969229     -2.272759      0.747714
  H       3.127564     -2.950949      1.915040
  H       1.865262     -1.819670      2.467175
  H       4.171502     -1.092560      0.544375
  H       4.132738     -0.693203      2.285635
  H      -3.008549      0.810496     -1.822441
  H      -5.081424     -0.381705     -1.212223
  H      -2.873236     -2.828085      1.561357
  H      -0.780377     -1.605415      0.959129
  H       0.528645      1.636362     -2.269051
  H      -1.027548      0.971642     -2.816795
  H      -0.996855      2.305038     -1.650692
  H       2.659746      4.097436     -0.746970
  H       3.826769      2.758826     -0.856568
  H       4.392302      4.338250      1.046103
  H       4.002769      2.713300      1.665684
  H       2.799925      4.019528      1.776697
>
35
-1872.44147781; 31P isotropic shielding: 184.859369 ppm
  C       3.933293      0.364992     -1.839862
  C       2.545858     -0.263590     -1.833784
  O       2.110806     -0.640518     -0.484928
  P       1.520126      0.464203      0.538109
  S       0.412526      1.885098     -0.202436
  N       0.857116     -0.524541      1.743735
  C      -0.326064     -1.032342      1.755545
  C      -1.292624     -1.002803      0.618708
  C      -2.568911     -0.442181      0.785503
  C      -3.456451     -0.355486     -0.286996
  C      -3.076482     -0.875240     -1.526520
  C      -1.826684     -1.472439     -1.707049
  C      -0.936174     -1.522790     -0.636140
  Cl     -4.193956     -0.782562     -2.881057
  C      -0.790706     -1.725169      3.015103
  O       2.885741      0.977352      1.235562
  C       2.955370      2.236964      1.972906
  C       2.328283      2.128771      3.357463
  H       4.254095      0.523539     -2.878943
  H       3.932034      1.333175     -1.327911
  H       4.661338     -0.289875     -1.346083
  H       2.533374     -1.208902     -2.388402
  H       1.794275      0.412159     -2.262112
  H      -2.860740     -0.025383      1.747106
  H      -4.431144      0.109699     -0.166400
  H      -1.554080     -1.882180     -2.676038
  H       0.046007     -1.964606     -0.773313
  H      -1.715255     -1.262049      3.389048
  H      -1.036353     -2.774770      2.799301
  H      -0.017044     -1.673741      3.785927
  H       2.469386      3.017221      1.372659
  H       4.028754      2.449615      2.035365
  H       1.247242      1.962066      3.287467
  H       2.496761      3.064340      3.908841
  H       2.771985      1.302069      3.924925
>
35
-1872.43654370; 31P isotropic shielding: 186.404118 ppm
  C       2.020767      0.342631     -2.920071
  C       2.901958      0.372551     -1.679386
  O       2.241445     -0.337972     -0.575853
  P       1.598946      0.512843      0.639092
  S       0.372298      1.961505      0.199946
  N       1.040297     -0.722549      1.648167
  C      -0.102728     -1.313799      1.594967
  C      -1.101772     -1.168452      0.497209
  C      -0.734047     -1.394806     -0.839119
  C      -1.656847     -1.230453     -1.870093
  C      -2.954380     -0.814184     -1.563268
  C      -3.346695     -0.586820     -0.241930
  C      -2.422701     -0.786516      0.783468
  Cl     -4.116305     -0.578266     -2.861569
  C      -0.477378     -2.237293      2.731014
  O       2.951096      0.995873      1.384709
  C       2.972302      2.128273      2.307700
  C       2.423295      1.755147      3.679123
  H       1.801261     -0.690263     -3.218839
  H       1.078223      0.867942     -2.731001
  H       2.537564      0.837414     -3.754066
  H       3.120088      1.402562     -1.372227
  H       3.851300     -0.153437     -1.834775
  H       0.282390     -1.695754     -1.071473
  H      -1.373025     -1.411717     -2.903311
  H      -4.358980     -0.258001     -0.022569
  H      -2.725637     -0.595520      1.810559
  H      -0.651133     -3.253852      2.350453
  H       0.313092     -2.251217      3.486027
  H      -1.421415     -1.913406      3.191922
  H       2.403727      2.953129      1.859112
  H       4.030517      2.408879      2.361628
  H       1.354764      1.517139      3.622058
  H       2.550471      2.602223      4.367523
  H       2.952642      0.887065      4.089874
>
35
-1872.43656226; 31P isotropic shielding: 187.551941 ppm
  C       4.851677     -1.816817      0.539682
  C       4.276949     -0.545431      1.146410
  O       2.823576     -0.509849      0.938213
  P       2.185571      0.559738     -0.091801
  S       2.913150      0.621967     -1.899808
  N       0.547367      0.253646      0.013925
  C      -0.070954     -0.858807     -0.208450
  C      -1.553697     -0.842326     -0.100535
  C      -2.231102      0.386754      0.038190
  C      -3.616011      0.437653      0.149543
  C      -4.347103     -0.756894      0.136531
  C      -3.706104     -1.990995      0.010377
  C      -2.316344     -2.025641     -0.113333
  Cl     -6.096145     -0.700990      0.281623
  C       0.615014     -2.162621     -0.562101
  O       2.379580      1.920791      0.758416
  C       2.299641      3.243479      0.140443
  C       0.858289      3.674775     -0.103180
  H       4.365338     -2.704418      0.963339
  H       4.711044     -1.819203     -0.547231
  H       5.927927     -1.877622      0.753017
  H       4.732891      0.348145      0.702860
  H       4.418291     -0.507013      2.233175
  H      -1.644695      1.301190      0.055765
  H      -4.133026      1.388875      0.246828
  H      -4.287540     -2.909116      0.006847
  H      -1.830396     -2.992768     -0.207620
  H       0.736661     -2.778692      0.340284
  H       0.030716     -2.739277     -1.287139
  H       1.606374     -1.973322     -0.979531
  H       2.875728      3.225189     -0.793805
  H       2.800519      3.904055      0.857309
  H       0.844435      4.711789     -0.466295
  H       0.273400      3.620327      0.823071
  H       0.380280      3.038830     -0.856717
>
35
-1872.44114136; 31P isotropic shielding: 187.384041 ppm
  C       4.881919     -1.772393      0.461715
  C       4.295319     -0.526916      1.109441
  O       2.839905     -0.503317      0.913117
  P       2.183100      0.580839     -0.089429
  S       2.890764      0.688354     -1.902574
  N       0.547711      0.258665      0.027332
  C      -0.068245     -0.848463     -0.223978
  C      -1.550464     -0.843090     -0.098276
  C      -2.226736      0.366905      0.161005
  C      -3.610583      0.406325      0.288945
  C      -4.342112     -0.781651      0.166797
  C      -3.702620     -1.997540     -0.082909
  C      -2.313655     -2.020136     -0.217554
  Cl     -6.089796     -0.740927      0.331074
  C       0.609725     -2.139404     -0.633713
  O       2.373760      1.925406      0.787940
  C       2.274246      3.259680      0.197928
  C       0.826243      3.683894     -0.016243
  H       4.731716     -1.745693     -0.623598
  H       5.960741     -1.824430      0.663947
  H       4.411457     -2.678297      0.864058
  H       4.736664      0.385423      0.689991
  H       4.443640     -0.518947      2.195909
  H      -1.639860      1.275878      0.259502
  H      -4.126202      1.343456      0.482550
  H      -4.284725     -2.910906     -0.171998
  H      -1.829659     -2.973586     -0.409822
  H       0.089166     -2.600328     -1.481797
  H       1.649279     -1.965482     -0.914069
  H       0.589155     -2.857544      0.198369
  H       2.837037      3.264736     -0.744554
  H       2.780098      3.909831      0.920840
  H       0.799163      4.725581     -0.364874
  H       0.257160      3.613096      0.918757
  H       0.340192      3.054683     -0.770230
>
35
-1872.44127931; 31P isotropic shielding: 187.356489 ppm
  C       5.318303      0.502439      0.066353
  C       4.278126     -0.573286      0.341421
  O       3.031545      0.052282      0.797219
  P       1.722458      0.021600     -0.145878
  S       1.989992      0.635776     -1.976342
  N       1.259386     -1.585197     -0.035156
  C       0.091625     -2.115385      0.073984
  C      -1.204037     -1.375657      0.034572
  C      -1.450452     -0.429573     -0.975532
  C      -2.654766      0.270303     -1.020612
  C      -3.618834      0.034916     -0.036689
  C      -3.402041     -0.903761      0.974731
  C      -2.202366     -1.616944      0.992996
  Cl     -5.130543      0.932768     -0.072684
  C       0.007752     -3.619344      0.216667
  O       0.704120      0.854831      0.785852
  C       0.406999      2.269651      0.559223
  C       1.479327      3.169626      1.157437
  H       6.272552      0.034830     -0.213678
  H       4.991305      1.148540     -0.756364
  H       5.484076      1.119252      0.958466
  H       4.584457     -1.242315      1.154777
  H       4.081893     -1.177496     -0.552291
  H      -0.691605     -0.235189     -1.730107
  H      -2.844068      0.995167     -1.808095
  H      -4.161301     -1.073067      1.733702
  H      -2.036086     -2.342207      1.786602
  H      -0.496059     -3.894574      1.153878
  H      -0.593769     -4.045160     -0.598996
  H       1.010445     -4.054670      0.206588
  H      -0.566638      2.418423      1.039126
  H       0.302990      2.432986     -0.520713
  H       1.614265      2.960987      2.225615
  H       1.182387      4.221269      1.041216
  H       2.438860      3.024276      0.648314
>
35
-1872.43908952; 31P isotropic shielding: 191.263740 ppm
  C       2.653758      0.737885     -2.470327
  C       1.221178      0.595608     -1.974507
  O       1.162321     -0.107744     -0.692387
  P       1.433146      0.630949      0.714589
  S       1.048278      2.538318      0.829706
  N       0.657022     -0.285529      1.883068
  C      -0.449592     -0.941572      1.836730
  C      -1.398282     -0.963084      0.685097
  C      -1.789830      0.236904      0.065985
  C      -2.674347      0.229740     -1.010880
  C      -3.161925     -0.990787     -1.486319
  C      -2.793306     -2.197145     -0.886210
  C      -1.927686     -2.174002      0.208401
  Cl     -4.258861     -1.009227     -2.860570
  C      -0.854433     -1.731633      3.062112
  O       2.976777      0.217618      0.942925
  C       3.693899      0.693952      2.131908
  C       4.702783      1.761826      1.734801
  H       3.145710     -0.240431     -2.529824
  H       2.652022      1.190161     -3.471816
  H       3.236262      1.382172     -1.802079
  H       0.616007     -0.023134     -2.646295
  H       0.738439      1.573880     -1.856468
  H      -1.396109      1.184017      0.427693
  H      -2.980599      1.160417     -1.481362
  H      -3.179803     -3.137576     -1.270032
  H      -1.638749     -3.116333      0.668545
  H      -1.824540     -1.376700      3.438446
  H      -0.984137     -2.794651      2.815975
  H      -0.094653     -1.632298      3.841717
  H       4.181884     -0.194900      2.549737
  H       2.974431      1.074040      2.866877
  H       5.283237      2.070709      2.615348
  H       4.189165      2.640530      1.328885
  H       5.399234      1.376222      0.979732
>
35
-1872.43885907; 31P isotropic shielding: 191.620010 ppm
  C       2.633074     -2.374238      1.271810
  C       3.584960     -1.187732      1.186003
  O       2.871906      0.088789      1.157960
  P       2.146109      0.637921     -0.177826
  S       3.047333      0.190152     -1.845889
  N       0.579509      0.075711     -0.037201
  C      -0.476315      0.499043     -0.649442
  C      -1.746976     -0.228383     -0.389836
  C      -2.992226      0.270346     -0.816596
  C      -4.176673     -0.416067     -0.545171
  C      -4.117207     -1.624919      0.151124
  C      -2.893296     -2.148891      0.585281
  C      -1.722903     -1.447109      0.318914
  Cl     -5.600491     -2.502641      0.488168
  C      -0.501638      1.678707     -1.599558
  O       2.007893      2.204624      0.202601
  C       3.206882      3.043340      0.277415
  C       2.754727      4.487243      0.419764
  H       3.213614     -3.299662      1.390513
  H       1.958383     -2.272940      2.130660
  H       2.030747     -2.460519      0.360453
  H       4.220317     -1.248104      0.293027
  H       4.221500     -1.118118      2.075461
  H      -3.052350      1.211388     -1.356405
  H      -5.135467     -0.021591     -0.870835
  H      -2.867468     -3.092602      1.123995
  H      -0.763548     -1.831343      0.654173
  H       0.498838      1.882438     -1.987549
  H      -1.177921      1.497508     -2.442027
  H      -0.852854      2.577269     -1.072348
  H       3.796970      2.888801     -0.635697
  H       3.800170      2.716357      1.141576
  H       2.143075      4.618554      1.320897
  H       2.166390      4.799945     -0.451599
  H       3.631837      5.143526      0.498083
>
35
-1872.44172271; 31P isotropic shielding: 189.480577 ppm
  C       5.013733      0.027938      1.403646
  C       4.165280     -0.987581      0.649222
  O       2.732701     -0.687077      0.743165
  P       2.036528      0.423609     -0.202194
  S       2.669556      0.554526     -2.041791
  N       0.396810      0.138536     -0.046536
  C      -0.237334     -0.968583     -0.254658
  C      -1.716183     -0.941338     -0.110100
  C      -2.387036      0.296400     -0.027173
  C      -3.768246      0.359206      0.118871
  C      -4.501859     -0.831147      0.200712
  C      -3.866894     -2.072957      0.132983
  C      -2.481545     -2.120304     -0.029773
  Cl     -6.245839     -0.759974      0.390961
  C       0.440170     -2.270574     -0.632806
  O       2.258786      1.744052      0.699968
  C       1.829398      3.054958      0.203268
  C       3.048480      3.911543     -0.108861
  H       6.064642     -0.293056      1.386135
  H       4.947041      1.018949      0.942139
  H       4.690950      0.108163      2.448715
  H       4.255683     -1.989119      1.084732
  H       4.439686     -1.032823     -0.412684
  H      -1.798496      1.208014     -0.083281
  H      -4.280660      1.316495      0.170321
  H      -4.449552     -2.987573      0.203864
  H      -2.000328     -3.093355     -0.075558
  H       1.328316     -2.063372     -1.238275
  H       0.770942     -2.798913      0.272153
  H      -0.223564     -2.932371     -1.196228
  H       1.219457      3.487068      1.005960
  H       1.199718      2.925083     -0.685449
  H       3.628491      3.464575     -0.924159
  H       3.691129      4.007159      0.775298
  H       2.729638      4.917444     -0.415591
>
35
-1872.44074747; 31P isotropic shielding: 185.946639 ppm
  C       1.485314      0.768225     -3.114898
  C       2.545338      0.613890     -2.033736
  O       2.042808     -0.249649     -0.956475
  P       1.624788      0.415223      0.457100
  S       0.386278      1.919390      0.435908
  N       1.198352     -0.953218      1.350586
  C       0.044787     -1.523646      1.404452
  C      -1.117507     -1.212135      0.523732
  C      -0.978541     -1.219656     -0.873925
  C      -2.054735     -0.901902     -1.699509
  C      -3.277037     -0.551197     -1.121392
  C      -3.442822     -0.539957      0.265644
  C      -2.366877     -0.892008      1.080128
  Cl     -4.631841     -0.122614     -2.156541
  C      -0.162238     -2.605752      2.439104
  O       3.091402      0.776596      1.037554
  C       3.291797      1.767210      2.092572
  C       2.939774      1.213474      3.467547
  H       1.195691     -0.209355     -3.520779
  H       0.596602      1.265057     -2.710398
  H       1.882629      1.376550     -3.939218
  H       2.833046      1.587077     -1.617949
  H       3.446746      0.114475     -2.408084
  H      -0.019637     -1.471619     -1.315030
  H      -1.947419     -0.914692     -2.780843
  H      -4.399479     -0.259265      0.698046
  H      -2.494336     -0.869924      2.160067
  H      -0.420809     -3.553994      1.946704
  H       0.741118     -2.732904      3.041416
  H      -1.009071     -2.355289      3.093668
  H       2.693469      2.655818      1.853211
  H       4.355800      2.020761      2.021751
  H       1.866319      1.004133      3.542242
  H       3.200052      1.952620      4.237937
  H       3.490737      0.287178      3.669808
>
35
-1872.43658222; 31P isotropic shielding: 187.568353 ppm
  C       4.800096     -2.094344      0.777293
  C       4.357347     -0.663391      0.521174
  O       2.900239     -0.666681      0.367010
  P       2.141011      0.676383     -0.123277
  S       2.693752      1.459839     -1.818910
  N       0.527561      0.254963     -0.017504
  C      -0.086842     -0.709310     -0.618023
  C      -1.554597     -0.817944     -0.400637
  C      -2.307667     -1.890583     -0.914642
  C      -3.682428     -1.980701     -0.691734
  C      -4.317888     -0.982730      0.049700
  C      -3.596423      0.097396      0.572934
  C      -2.226230      0.169890      0.348774
  Cl     -6.048227     -1.083214      0.331291
  C       0.576510     -1.726806     -1.522674
  O       2.375817      1.616787      1.170724
  C       2.236664      3.070587      1.110379
  C       0.776663      3.505573      1.144308
  H       5.889164     -2.124603      0.915973
  H       4.325002     -2.495399      1.681037
  H       4.542132     -2.741115     -0.070241
  H       4.803779     -0.256759     -0.396149
  H       4.610567     -0.002875      1.360802
  H      -1.826741     -2.674870     -1.492352
  H      -4.256669     -2.813402     -1.089022
  H      -4.109027      0.865085      1.146868
  H      -1.646789      0.996194      0.751061
  H       0.586834     -2.713343     -1.037904
  H       0.020800     -1.827353     -2.463106
  H       1.603966     -1.442195     -1.752329
  H       2.741104      3.429320      0.203833
  H       2.783208      3.429340      1.990103
  H       0.246872      3.171818      0.245055
  H       0.723069      4.602123      1.190543
  H       0.267171      3.093820      2.024143
>
35
-1872.44187528; 31P isotropic shielding: 189.229615 ppm
  C       5.019349     -0.057154      1.296057
  C       4.183687     -0.972698      0.410869
  O       2.747743     -0.710943      0.551571
  P       2.021055      0.487367     -0.252942
  S       2.605168      0.816141     -2.083354
  N       0.388177      0.170365     -0.081816
  C      -0.247162     -0.911482     -0.390531
  C      -1.719314     -0.918401     -0.182318
  C      -2.391964      0.287816      0.101783
  C      -3.766191      0.314482      0.312052
  C      -4.489320     -0.883406      0.254592
  C      -3.851951     -2.096310     -0.014494
  C      -2.474439     -2.105220     -0.238234
  Cl     -6.224159     -0.859041      0.524938
  C       0.411672     -2.159064     -0.943737
  O       2.255470      1.706928      0.779451
  C       1.800125      3.057742      0.436127
  C       2.993077      3.939217      0.093900
  H       4.936061      0.986637      0.975027
  H       4.698230     -0.125823      2.342482
  H       6.074987     -0.356391      1.234465
  H       4.293004     -2.023272      0.703083
  H       4.452341     -0.866677     -0.648233
  H      -1.810785      1.204526      0.151142
  H      -4.280561      1.249264      0.519744
  H      -4.426996     -3.017752     -0.050228
  H      -1.990520     -3.056349     -0.442510
  H       1.344735     -1.903188     -1.452095
  H       0.650438     -2.854372     -0.126306
  H      -0.244380     -2.678682     -1.649452
  H       1.267410      3.417467      1.324794
  H       1.091080      3.006631     -0.399460
  H       2.654461      4.967088     -0.097148
  H       3.497937      3.564020     -0.803121
  H       3.709436      3.960233      0.924705
>
35
-1872.44083759; 31P isotropic shielding: 186.201348 ppm
  C       1.579898      3.313544     -0.854813
  C       0.413923      2.392464     -0.521760
  O       0.816948      0.985500     -0.536784
  P       1.555374      0.283422      0.712837
  S       1.194008      0.985287      2.494219
  N       1.278710     -1.359177      0.549878
  C       0.247035     -2.007196      0.133318
  C      -1.064511     -1.405765     -0.244737
  C      -1.734970     -1.813923     -1.410863
  C      -2.950174     -1.236144     -1.780784
  C      -3.519405     -0.264664     -0.953908
  C      -2.889285      0.136018      0.227472
  C      -1.663171     -0.429632      0.571557
  Cl     -5.055200      0.462397     -1.406138
  C       0.351702     -3.514998      0.046765
  O       3.090871      0.406830      0.224122
  C       4.168902     -0.109095      1.068273
  C       5.486621      0.215295      0.383399
  H       1.221155      4.350181     -0.920086
  H       2.351138      3.263839     -0.077783
  H       2.032430      3.039492     -1.815439
  H      -0.380152      2.450358     -1.274452
  H      -0.009298      2.621780      0.464302
  H      -1.293782     -2.566630     -2.060207
  H      -3.452297     -1.535160     -2.697049
  H      -3.352337      0.883322      0.866566
  H      -1.165894     -0.110226      1.484516
  H       1.334485     -3.842660      0.395348
  H      -0.436859     -3.988318      0.648435
  H       0.205980     -3.856458     -0.987656
  H       4.026395     -1.191586      1.186145
  H       4.092563      0.365593      2.055323
  H       5.539695     -0.253985     -0.606642
  H       6.321008     -0.160056      0.990940
  H       5.606892      1.298948      0.262889
