36
-1260.23970741; 31P isotropic shielding: 245.778890 ppm
  C      -3.461665     -0.794869     -1.667797
  O      -3.316950     -0.114739     -0.385079
  P      -1.940631      0.609869      0.037977
  O      -1.040445      0.980742     -1.084026
  C      -1.138202     -0.347510      1.422878
  O       0.111265     -0.967817      0.974843
  C       0.054838     -1.796850     -0.088687
  O      -0.968740     -2.153527     -0.644173
  C       1.435348     -2.255370     -0.562382
  O       2.555337     -1.775262      0.167774
  C       2.992595     -0.478020     -0.063242
  C       2.292139      0.475341     -0.813200
  C       2.839381      1.756133     -0.964624
  C       4.064514      2.090204     -0.382777
  C       4.751570      1.127215      0.369074
  C       4.221508     -0.152583      0.530254
  C      -2.056516     -1.322156      2.157160
  O      -2.501326      1.810796      0.962654
  C      -3.302309      2.859862      0.350677
  H      -4.460384     -0.543618     -2.039069
  H      -2.695038     -0.452072     -2.369003
  H      -3.365289     -1.871993     -1.510201
  H      -0.778355      0.423350      2.112329
  H       1.462081     -3.348582     -0.475332
  H       1.502726     -2.000738     -1.631435
  H       1.316994      0.273468     -1.244823
  H       2.282630      2.495873     -1.537232
  H       4.478738      3.088903     -0.506811
  H       5.707098      1.372356      0.830420
  H       4.741919     -0.913106      1.108869
  H      -2.891416     -0.767144      2.601581
  H      -2.460984     -2.080654      1.482741
  H      -1.498502     -1.812856      2.964481
  H      -3.470762      3.607439      1.130313
  H      -4.260755      2.451376      0.008370
  H      -2.761013      3.309639     -0.490101
>
36
-1260.24181563; 31P isotropic shielding: 245.508308 ppm
  C      -3.459784     -0.800813     -1.659945
  O      -3.314983     -0.119922     -0.377692
  P      -1.939329      0.606856      0.043940
  O      -1.040560      0.978504     -1.078925
  C      -1.134418     -0.348679      1.428727
  O       0.115409     -0.967656      0.979983
  C       0.059007     -1.797548     -0.082798
  O      -0.964641     -2.155748     -0.637182
  C       1.439591     -2.255131     -0.557198
  O       2.559668     -1.772810      0.171375
  C       2.995535     -0.475563     -0.062147
  C       2.293074      0.476200     -0.812257
  C       2.838975      1.757254     -0.966250
  C       4.064725      2.093156     -0.386769
  C       4.753806      1.131757      0.365263
  C       4.225112     -0.148281      0.528943
  C      -2.050900     -1.324041      2.164357
  O      -2.501125      1.807387      0.968532
  C      -3.303920      2.855129      0.356763
  H      -4.459599     -0.552004     -2.029921
  H      -2.694947     -0.456426     -2.362334
  H      -3.360694     -1.877663     -1.502205
  H      -0.774945      0.423052      2.117403
  H       1.467571     -3.348201     -0.468712
  H       1.505740     -2.001834     -1.626632
  H       1.317462      0.272896     -1.242156
  H       2.280700      2.495745     -1.538977
  H       4.477889      3.092043     -0.512776
  H       5.709865      1.378320      0.824737
  H       4.747097     -0.907613      1.107698
  H      -2.455575     -2.082987      1.490580
  H      -1.491378     -1.814129      2.971000
  H      -2.885683     -0.769697      2.609816
  H      -3.473357      3.602442      1.136440
  H      -4.261823      2.445165      0.014696
  H      -2.763568      3.305740     -0.484177
>
36
-1260.24182000; 31P isotropic shielding: 245.507517 ppm
  C      -3.462183     -0.781474     -1.700497
  O      -3.321270     -0.105850     -0.414796
  P      -1.944729      0.613312      0.016575
  O      -1.039179      0.986149     -1.100366
  C      -1.150460     -0.351285      1.401029
  O       0.099463     -0.973011      0.955999
  C       0.045716     -1.797238     -0.111470
  O      -0.976350     -2.148821     -0.672944
  C       1.427192     -2.257255     -0.580805
  O       2.545276     -1.782678      0.155760
  C       2.985475     -0.484968     -0.066891
  C       2.290730      0.472567     -0.816805
  C       2.840625      1.753201     -0.959680
  C       4.062926      2.082983     -0.369496
  C       4.744277      1.115821      0.382223
  C       4.211426     -0.163843      0.535029
  C      -2.074075     -1.326674      2.127728
  O      -2.505771      1.812433      0.943290
  C      -3.301825      2.865715      0.331857
  H      -4.458277     -0.525722     -2.075664
  H      -2.691057     -0.438966     -2.396854
  H      -3.370070     -1.859382     -1.545876
  H      -0.791741      0.415916      2.095104
  H       1.450930     -3.350836     -0.497588
  H       1.499790     -1.999046     -1.648662
  H       1.317651      0.274032     -1.254556
  H       2.288174      2.496170     -1.532244
  H       4.479293      3.081578     -0.486954
  H       5.697453      1.357623      0.850125
  H       4.727405     -0.927518      1.113445
  H      -2.910592     -0.771673      2.569137
  H      -2.476126     -2.082721      1.449141
  H      -1.521172     -1.820423      2.936689
  H      -2.754640      3.319196     -0.503077
  H      -3.474168      3.609389      1.114351
  H      -4.258518      2.460099     -0.018556
>
36
-1260.24181346; 31P isotropic shielding: 245.541451 ppm
  C      -1.382983      0.883277     -2.048930
  O      -2.377086      0.612854     -1.011124
  P      -1.989664      0.617362      0.550826
  O      -0.762890      1.377889      0.903719
  C      -2.034389     -1.118906      1.229223
  O      -0.671210     -1.571239      1.529973
  C       0.220838     -1.599918      0.502664
  O      -0.057489     -1.414300     -0.662254
  C       1.623515     -1.874716      1.050935
  O       2.624828     -1.820101      0.049739
  C       2.979727     -0.576698     -0.456130
  C       4.019976     -0.595461     -1.397059
  C       4.460226      0.598323     -1.967620
  C       3.870447      1.817683     -1.606910
  C       2.833712      1.823548     -0.670731
  C       2.378672      0.633800     -0.087273
  C      -2.848179     -2.124346      0.417816
  O      -3.380774      1.103687      1.212761
  C      -3.867459      2.446510      0.933607
  H      -1.866548      1.548520     -2.771275
  H      -0.499617      1.362787     -1.617691
  H      -1.099912     -0.061613     -2.517819
  H      -2.466826     -1.006150      2.229338
  H       1.820163     -1.173017      1.875625
  H       1.651777     -2.892884      1.458864
  H       4.465532     -1.550808     -1.666674
  H       5.268461      0.575932     -2.697123
  H       4.214290      2.748372     -2.054069
  H       2.355916      2.759249     -0.385088
  H       1.546333      0.684621      0.607803
  H      -2.821548     -3.103914      0.911993
  H      -3.891906     -1.789703      0.374476
  H      -2.468110     -2.222861     -0.601221
  H      -4.755413      2.583137      1.556397
  H      -4.133473      2.538381     -0.126143
  H      -3.105335      3.189004      1.198374
>
36
-1260.24252776; 31P isotropic shielding: 245.235484 ppm
  C      -1.397988      0.890130     -2.034443
  O      -2.385303      0.619382     -0.990282
  P      -1.987035      0.620720      0.568955
  O      -0.756005      1.377750      0.914458
  C      -2.031391     -1.116345      1.245338
  O      -0.667265     -1.572779      1.535391
  C       0.217060     -1.602592      0.501485
  O      -0.069308     -1.414358     -0.661062
  C       1.622914     -1.882554      1.038925
  O       2.617017     -1.828602      0.030540
  C       2.972253     -0.584997     -0.474611
  C       4.006417     -0.604501     -1.422205
  C       4.446420      0.589372     -1.992769
  C       3.862453      1.809544     -1.625424
  C       2.831728      1.816153     -0.682637
  C       2.377006      0.626329     -0.099084
  C      -2.853920     -2.118533      0.438767
  O      -3.372448      1.109392      1.241253
  C      -3.858089      2.453577      0.967171
  H      -0.512207      1.370223     -1.608820
  H      -1.117337     -0.054623     -2.505049
  H      -1.886541      1.555045     -2.753718
  H      -2.456062     -1.003603      2.248782
  H       1.827730     -1.183283      1.863675
  H       1.651116     -2.901724      1.444368
  H       4.447539     -1.560472     -1.696850
  H       5.249930      0.566410     -2.727456
  H       4.206110      2.740305     -2.072576
  H       2.358460      2.752536     -0.391745
  H       1.549320      0.677899      0.601477
  H      -2.825851     -3.098900      0.931279
  H      -3.897124     -1.781282      0.404018
  H      -2.482006     -2.216438     -0.583332
  H      -4.742508      2.590706      1.594870
  H      -4.129563      2.548017     -0.090977
  H      -3.093219      3.194192      1.229284
>
36
-1260.24253045; 31P isotropic shielding: 245.238199 ppm
  C      -1.264518      0.503853     -2.235722
  O      -2.318170      0.353749     -1.232707
  P      -2.037439      0.610125      0.330980
  O      -0.858683      1.460630      0.639523
  C      -2.077815     -1.003942      1.263799
  O      -0.724805     -1.350184      1.714274
  C       0.234165     -1.501916      0.760584
  O       0.028004     -1.512883     -0.433720
  C       1.605722     -1.628342      1.428739
  O       2.669462     -1.682473      0.493966
  C       3.014252     -0.516337     -0.176380
  C       2.345337      0.707053     -0.040824
  C       2.796268      1.812848     -0.773382
  C       3.895860      1.711769     -1.628966
  C       4.553737      0.480519     -1.755439
  C       4.118333     -0.630672     -1.034152
  C      -2.804996     -2.151974      0.567353
  O      -3.482799      1.138034      0.822797
  C      -3.988481      2.402121      0.308602
  H      -0.427027      1.076979     -1.827992
  H      -0.922559     -0.489179     -2.535467
  H      -1.717109      1.033256     -3.080086
  H      -2.579899     -0.757711      2.205718
  H       1.723352     -0.802188      2.146220
  H       1.641484     -2.570999      1.989203
  H       1.465224      0.825260      0.583576
  H       2.265915      2.757909     -0.668427
  H       4.236285      2.577650     -2.193544
  H       5.411765      0.384113     -2.419069
  H       4.616548     -1.593992     -1.121802
  H      -3.853711     -1.870441      0.412007
  H      -2.356619     -2.385412     -0.400598
  H      -2.779142     -3.044870      1.204877
  H      -4.919180      2.598436      0.847364
  H      -4.186499      2.319529     -0.766683
  H      -3.267163      3.205383      0.500078
>
36
-1260.24256868; 31P isotropic shielding: 245.147869 ppm
  C      -3.493833     -1.969695      0.270906
  O      -3.273819     -0.584853      0.672114
  P      -2.574963      0.479184     -0.318819
  O      -2.606667      0.135240     -1.761665
  C      -0.900310      0.940011      0.355828
  O       0.178842      0.423217     -0.492345
  C       0.249189     -0.909970     -0.677272
  O      -0.530825     -1.724885     -0.218715
  C       1.416586     -1.302440     -1.587522
  O       2.512842     -0.391276     -1.602614
  C       3.253208     -0.256741     -0.443633
  C       3.033671     -0.992539      0.729989
  C       3.851733     -0.765082      1.845327
  C       4.878363      0.179792      1.801386
  C       5.088924      0.908114      0.621627
  C       4.283617      0.695081     -0.495645
  C      -0.679988      0.621072      1.833223
  O      -3.316697      1.843961      0.134914
  C      -4.742922      1.986211     -0.110810
  H      -3.412794     -2.068958     -0.815584
  H      -2.746654     -2.601047      0.758338
  H      -4.502553     -2.233481      0.605314
  H      -0.827111      2.019543      0.188221
  H       1.727842     -2.319902     -1.313404
  H       1.034720     -1.320957     -2.616170
  H       2.243834     -1.734987      0.794960
  H       3.676553     -1.339319      2.753810
  H       5.508001      0.349003      2.672388
  H       5.886024      1.648247      0.572163
  H       4.431452      1.254383     -1.416994
  H       0.323949      0.945709      2.133078
  H      -1.417733      1.166399      2.433829
  H      -0.790769     -0.447204      2.034600
  H      -5.305087      1.274186      0.505573
  H      -4.963908      1.823392     -1.172448
  H      -5.000116      3.010493      0.172050
>
36
-1260.24045093; 31P isotropic shielding: 247.259280 ppm
  C      -2.956181      2.296061     -1.772915
  O      -2.435120      0.946384     -1.601929
  P      -1.983455      0.469599     -0.132934
  O      -1.022820      1.342627      0.590555
  C      -1.357254     -1.259732     -0.499804
  O      -0.005035     -1.367810      0.042806
  C       0.094113     -1.399346      1.393528
  O      -0.851448     -1.471260      2.157234
  C       1.539912     -1.320628      1.883293
  O       2.552265     -1.472784      0.896041
  C       2.918337     -0.375704      0.129319
  C       4.055896     -0.565641     -0.669820
  C       4.511911      0.470618     -1.484220
  C       3.841880      1.701508     -1.507935
  C       2.707608      1.876545     -0.711384
  C       2.233726      0.846026      0.110900
  C      -1.269167     -1.632567     -1.974503
  O      -3.416494      0.282509      0.587909
  C      -3.526654      0.350553      2.044323
  H      -3.072172      2.440575     -2.850122
  H      -3.928147      2.388912     -1.273868
  H      -2.249976      3.028627     -1.365897
  H      -2.011459     -1.948186      0.048475
  H       1.640810     -0.370599      2.431221
  H       1.684236     -2.138625      2.598669
  H       4.565783     -1.526314     -0.635891
  H       5.396956      0.316981     -2.099891
  H       4.198850      2.509483     -2.143670
  H       2.166106      2.821027     -0.728038
  H       1.321850      1.006733      0.676852
  H      -0.881566     -2.654618     -2.065925
  H      -2.261393     -1.587170     -2.435122
  H      -0.604100     -0.951710     -2.515063
  H      -2.912791      1.170982      2.429394
  H      -3.197865     -0.594664      2.486316
  H      -4.584741      0.530812      2.253698
>
36
-1260.24273115; 31P isotropic shielding: 244.894562 ppm
  C      -2.968232      1.334115     -2.607952
  O      -2.399816      0.169472     -1.942340
  P      -1.991885      0.286423     -0.389915
  O      -1.091423      1.407715     -0.014835
  C      -1.289850     -1.425382     -0.082094
  O       0.029953     -1.263194      0.523702
  C       0.048750     -0.799784      1.796231
  O      -0.939120     -0.633675      2.488558
  C       1.459291     -0.482885      2.291999
  O       2.534172     -0.932026      1.476563
  C       2.921336     -0.165530      0.386594
  C       2.204923      0.930870     -0.109675
  C       2.705257      1.621100     -1.221422
  C       3.897049      1.231244     -1.837378
  C       4.598696      0.127215     -1.333897
  C       4.116835     -0.570215     -0.226453
  C      -1.099048     -2.293710     -1.319689
  O      -3.445402      0.311620      0.312959
  C      -3.621506      0.916000      1.632621
  H      -3.963074      1.550327     -2.200630
  H      -2.310211      2.201185     -2.480490
  H      -3.044974      1.069772     -3.665748
  H      -1.953608     -1.906784      0.646072
  H       1.500699      0.604224      2.463628
  H       1.580834     -0.980994      3.260989
  H       1.251300      1.235925      0.308875
  H       2.139182      2.467160     -1.607758
  H       4.274282      1.774750     -2.701492
  H       5.528489     -0.190965     -1.803161
  H       4.650428     -1.427022      0.179979
  H      -0.428175     -1.814255     -2.039537
  H      -0.668854     -3.257547     -1.021205
  H      -2.062733     -2.471031     -1.808005
  H      -3.031074      1.834659      1.706665
  H      -3.305849      0.210969      2.406995
  H      -4.689144      1.136956      1.718247
>
36
-1260.24260635; 31P isotropic shielding: 244.740940 ppm
  C      -2.949383      2.282834     -1.791667
  O      -2.436216      0.932745     -1.601818
  P      -1.982270      0.475504     -0.127340
  O      -1.016009      1.355174      0.580480
  C      -1.364450     -1.261727     -0.470378
  O      -0.009585     -1.366339      0.066270
  C       0.096968     -1.378336      1.416774
  O      -0.844453     -1.435940      2.186755
  C       1.545777     -1.297311      1.897330
  O       2.552147     -1.466729      0.906780
  C       2.916055     -0.382510      0.121026
  C       4.046885     -0.588451     -0.683705
  C       4.500226      0.433733     -1.517136
  C       3.834166      1.666438     -1.554489
  C       2.706621      1.857453     -0.752092
  C       2.235508      0.841199      0.089336
  C      -1.286340     -1.658200     -1.939454
  O      -3.413966      0.304234      0.600176
  C      -3.518898      0.392077      2.055916
  H      -3.918050      2.390390     -1.289099
  H      -2.236204      3.017158     -1.400285
  H      -3.070399      2.410767     -2.870423
  H      -2.018122     -1.938954      0.092341
  H       1.652592     -0.340049      2.431426
  H       1.691568     -2.105598      2.623359
  H       4.553726     -1.550305     -0.639121
  H       5.380021      0.267701     -2.137101
  H       4.188942      2.463430     -2.205141
  H       2.168177      2.803451     -0.778984
  H       1.328536      1.013757      0.659664
  H      -0.621980     -0.988545     -2.494650
  H      -0.903202     -2.683077     -2.016902
  H      -2.281106     -1.616270     -2.394932
  H      -3.184703     -0.545469      2.510068
  H      -4.576916      0.571053      2.266680
  H      -2.906962      1.220312      2.427135
>
36
-1260.24272872; 31P isotropic shielding: 244.907166 ppm
  C      -2.019207      0.063368      2.641938
  O      -2.681594      0.630981      1.471004
  P      -2.767405     -0.172679      0.076457
  O      -2.594042     -1.643833      0.165083
  C      -1.691885      0.668267     -1.192184
  O      -0.528883     -0.161448     -1.529524
  C       0.303977     -0.522397     -0.516704
  O       0.208953     -0.145451      0.630877
  C       1.347066     -1.511778     -1.042809
  O       2.454576     -1.658036     -0.166258
  C       3.346829     -0.606513     -0.066736
  C       3.259169      0.584370     -0.801171
  C       4.234372      1.574864     -0.622336
  C       5.287148      1.390467      0.275645
  C       5.363091      0.195884      1.005896
  C       4.401450     -0.798811      0.839044
  C      -1.312324      2.112298     -0.870543
  O      -4.173589      0.378668     -0.502555
  C      -5.403606      0.055959      0.203773
  H      -2.650366      0.309684      3.501816
  H      -1.922537     -1.021219      2.535688
  H      -1.030027      0.516342      2.742639
  H      -2.280769      0.629316     -2.114756
  H       0.863909     -2.496235     -1.086176
  H       1.654030     -1.235855     -2.061726
  H       2.448552      0.759135     -1.502616
  H       4.159951      2.498575     -1.194220
  H       6.038690      2.165841      0.408882
  H       6.177446      0.038538      1.711403
  H       4.444494     -1.730063      1.399800
  H      -2.225040      2.711511     -0.767932
  H      -0.743779      2.180160      0.059867
  H      -0.716237      2.529114     -1.692323
  H      -5.499301     -1.029768      0.323914
  H      -6.219460      0.437073     -0.416231
  H      -5.415552      0.547372      1.184074
>
36
-1260.24034535; 31P isotropic shielding: 247.011237 ppm
  C      -2.427774     -0.777092     -2.163180
  O      -2.929093     -0.854723     -0.793848
  P      -2.741899      0.363886      0.244227
  O      -2.507720      1.698628     -0.360783
  C      -1.517689     -0.125618      1.561763
  O      -0.283515      0.659690      1.444745
  C       0.393366      0.600121      0.266125
  O       0.110115     -0.123133     -0.663721
  C       1.533145      1.621655      0.284716
  O       2.494437      1.393171     -0.734827
  C       3.339481      0.307283     -0.599413
  C       4.258823      0.128360     -1.644630
  C       5.163638     -0.930583     -1.599462
  C       5.164593     -1.821577     -0.516795
  C       4.246085     -1.637780      0.518258
  C       3.329495     -0.578169      0.487408
  C      -1.255532     -1.625141      1.686586
  O      -4.061809      0.185153      1.161934
  C      -5.370773      0.397681      0.563566
  H      -1.486436     -1.328164     -2.227631
  H      -3.192936     -1.237134     -2.796546
  H      -2.268300      0.266276     -2.451197
  H      -1.951011      0.259323      2.490973
  H       1.088619      2.601208      0.067017
  H       1.987442      1.666071      1.284783
  H       4.243166      0.827197     -2.478255
  H       5.872837     -1.061878     -2.415206
  H       5.871649     -2.647900     -0.484925
  H       4.232875     -2.323534      1.364079
  H       2.622745     -0.465144      1.304269
  H      -2.195972     -2.137690      1.922563
  H      -0.853157     -2.041979      0.760544
  H      -0.548188     -1.808613      2.505378
  H      -5.413031      1.381575      0.081402
  H      -6.091671      0.351828      1.384199
  H      -5.583309     -0.391156     -0.168016
>
36
-1260.24031615; 31P isotropic shielding: 246.707677 ppm
  C      -2.429050     -1.826976     -1.390762
  O      -2.903876     -1.211121     -0.154725
  P      -2.749731      0.370950      0.113001
  O      -2.579280      1.217955     -1.093687
  C      -1.483795      0.653107      1.452096
  O      -0.284432      1.299619      0.906235
  C       0.373830      0.662921     -0.099702
  O       0.106387     -0.442675     -0.517047
  C       1.468806      1.580086     -0.650353
  O       2.427114      0.883104     -1.432717
  C       3.315900      0.049881     -0.779173
  C       4.226626     -0.623821     -1.607698
  C       5.173724     -1.478768     -1.047336
  C       5.225886     -1.673304      0.340282
  C       4.315579     -1.001006      1.157619
  C       3.356866     -0.138220      0.609491
  C      -1.159463     -0.566468      2.312335
  O      -4.045737      0.648171      1.039806
  C      -5.371974      0.491990      0.462373
  H      -3.187145     -2.562622     -1.677801
  H      -2.313620     -1.070365     -2.172522
  H      -1.468947     -2.311942     -1.198678
  H      -1.914809      1.447278      2.070904
  H       0.979775      2.288483     -1.331161
  H       1.932696      2.152523      0.165412
  H       4.171446     -0.463674     -2.682333
  H       5.875889     -1.997790     -1.697900
  H       5.965592     -2.342403      0.774897
  H       4.341745     -1.144216      2.236810
  H       2.658290      0.366412      1.270453
  H      -0.426615     -0.290392      3.081145
  H      -2.073134     -0.908187      2.813499
  H      -0.761903     -1.387542      1.711578
  H      -5.556788     -0.561951      0.222227
  H      -5.468215      1.107481     -0.439947
  H      -6.077736      0.832084      1.224879
>
36
-1260.24029300; 31P isotropic shielding: 246.622512 ppm
  C      -2.411559     -1.844596     -1.381280
  O      -2.892437     -1.224754     -0.149802
  P      -2.750638      0.360037      0.108019
  O      -2.584634      1.200156     -1.104043
  C      -1.489066      0.660196      1.447384
  O      -0.293301      1.311097      0.899008
  C       0.370577      0.672448     -0.101754
  O       0.110603     -0.437191     -0.513124
  C       1.461799      1.592385     -0.655416
  O       2.422960      0.896871     -1.435461
  C       3.315557      0.069749     -0.779462
  C       4.228816     -0.602856     -1.606087
  C       5.179879     -1.451787     -1.043277
  C       5.233548     -1.641273      0.345009
  C       4.320705     -0.970055      1.160442
  C       3.358008     -0.113322      0.609791
  C      -1.157615     -0.551222      2.316397
  O      -4.050248      0.634145      1.031102
  C      -5.374280      0.466379      0.452131
  H      -1.453584     -2.330821     -1.181717
  H      -3.168741     -2.580027     -1.671505
  H      -2.289797     -1.090595     -2.164542
  H      -1.926861      1.455666      2.059710
  H       0.970362      2.296991     -1.338389
  H       1.923050      2.169240      0.158812
  H       4.172424     -0.446667     -2.681244
  H       5.883968     -1.969983     -1.692414
  H       5.976357     -2.305617      0.781618
  H       4.347966     -1.109430      2.240109
  H       2.657519      0.390413      1.269408
  H      -0.428112     -0.264918      3.084624
  H      -2.069750     -0.896239      2.818097
  H      -0.753222     -1.373260      1.721539
  H      -5.473407      1.077783     -0.452655
  H      -6.083785      0.804153      1.212210
  H      -5.551560     -0.589699      0.215565
>
36
-1260.24029506; 31P isotropic shielding: 246.591488 ppm
  C      -2.364727      0.350359     -2.313435
  O      -2.910123     -0.309202     -1.130119
  P      -2.734225      0.319812      0.343479
  O      -2.458940      1.777096      0.396672
  C      -1.559635     -0.736241      1.333064
  O      -0.304795     -0.021054      1.593693
  C       0.405887      0.418906      0.520490
  O       0.131579      0.190599     -0.637398
  C       1.573955      1.282345      1.003225
  O       2.556360      1.488096     -0.001090
  C       3.355520      0.417582     -0.357505
  C       4.286590      0.676949     -1.375086
  C       5.147982     -0.332081     -1.801579
  C       5.093426     -1.607811     -1.222276
  C       4.163986     -1.858251     -0.211204
  C       3.290742     -0.854294      0.228513
  C      -1.334357     -2.146243      0.790769
  O      -4.084227     -0.209737      1.059798
  C      -5.371167      0.278712      0.588922
  H      -3.121052      0.248005     -3.098148
  H      -2.170008      1.406349     -2.103910
  H      -1.435986     -0.148823     -2.599806
  H      -2.011413     -0.783268      2.329618
  H       1.165875      2.274532      1.234515
  H       2.001020      0.864372      1.926089
  H       4.313915      1.671100     -1.816073
  H       5.866385     -0.122040     -2.592431
  H       5.766040     -2.394156     -1.558484
  H       4.107640     -2.844878      0.246227
  H       2.574475     -1.080881      1.012869
  H      -0.911409     -2.126268     -0.216193
  H      -0.657604     -2.694376      1.458552
  H      -2.292993     -2.677872      0.758885
  H      -5.393117      1.374755      0.612242
  H      -6.119732     -0.125464      1.275599
  H      -5.561667     -0.081531     -0.429184
>
36
-1260.24035246; 31P isotropic shielding: 246.837956 ppm
  C      -3.495779     -0.967243     -1.768278
  O      -3.364368     -0.293965     -0.480772
  P      -2.054857      0.540708     -0.103093
  O      -1.104935      0.894074     -1.188923
  C      -1.247894     -0.313230      1.348899
  O       0.028823     -0.931387      0.975015
  C       0.027538     -1.810452     -0.049099
  O      -0.966376     -2.221434     -0.619971
  C       1.435387     -2.254662     -0.452717
  O       2.518838     -1.686534      0.270586
  C       2.907951     -0.388507     -0.027216
  C       4.099656      0.028946      0.584751
  C       4.580587      1.318289      0.358826
  C       3.881226      2.200348     -0.476608
  C       2.693207      1.775479     -1.076056
  C       2.195473      0.483802     -0.860039
  C      -2.158038     -1.262544      2.126150
  O      -2.785874      1.784943      0.634962
  C      -2.016938      2.987986      0.908501
  H      -2.738690     -0.604046     -2.469634
  H      -3.371484     -2.041693     -1.611438
  H      -4.500333     -0.738962     -2.137632
  H      -0.914381      0.498963      2.005705
  H       1.495501     -3.337280     -0.286241
  H       1.525412     -2.074868     -1.535051
  H       4.630899     -0.669497      1.228166
  H       5.507870      1.634068      0.834591
  H       4.258129      3.206008     -0.652639
  H       2.127990      2.450842     -1.716046
  H       1.245983      0.212248     -1.309702
  H      -3.032120     -0.710100      2.492009
  H      -2.506753     -2.084362      1.496270
  H      -1.616589     -1.667824      2.990091
  H      -1.335233      2.829622      1.755839
  H      -2.745715      3.760735      1.168073
  H      -1.443815      3.286328      0.024024
>
36
-1260.23970685; 31P isotropic shielding: 245.769976 ppm
  C      -3.504925     -0.944686     -1.758785
  O      -3.367083     -0.281708     -0.466608
  P      -2.054657      0.547872     -0.087880
  O      -1.108273      0.907649     -1.174696
  C      -1.243572     -0.318456      1.354418
  O       0.030119     -0.936768      0.970624
  C       0.022461     -1.808687     -0.059537
  O      -0.974767     -2.213145     -0.629290
  C       1.427491     -2.253853     -0.471804
  O       2.515375     -1.693319      0.250757
  C       2.906746     -0.394454     -0.040332
  C       2.193028      0.485182     -0.864345
  C       2.693369      1.776866     -1.074191
  C       3.885186      2.194578     -0.477268
  C       4.585774      1.305221      0.349356
  C       4.102280      0.015762      0.569052
  C      -2.152572     -1.271355      2.128612
  O      -2.780617      1.787892      0.662158
  C      -2.008228      2.987131      0.942644
  H      -2.749115     -0.578415     -2.459914
  H      -3.383292     -2.020654     -1.610514
  H      -4.510033     -0.710630     -2.122993
  H      -0.905450      0.488171      2.015704
  H       1.485415     -3.337701     -0.312688
  H       1.513611     -2.067163     -1.553286
  H       1.240791      0.219155     -1.311501
  H       2.127207      2.457907     -1.707290
  H       4.264101      3.200311     -0.648484
  H       5.516021      1.615374      0.823029
  H       4.634433     -0.688299      1.205555
  H      -2.506510     -2.087359      1.494104
  H      -1.608085     -1.684734      2.986787
  H      -3.023386     -0.719421      2.502943
  H      -1.435416      3.289847      0.059443
  H      -1.325974      2.821332      1.788109
  H      -2.734653      3.760058      1.208211
>
36
-1260.23970403; 31P isotropic shielding: 245.771383 ppm
  C      -4.183501      1.066781     -1.661648
  O      -3.660762      0.041670     -0.768155
  P      -2.125058      0.137512     -0.291567
  O      -1.087515      0.182022     -1.355043
  C      -2.023570     -1.380035      0.805792
  O      -0.738711     -2.026207      0.527512
  C       0.369381     -1.377773      0.985679
  O       0.346445     -0.404971      1.708703
  C       1.626271     -2.060678      0.440540
  O       2.814435     -1.354751      0.755041
  C       3.064948     -0.165774      0.083883
  C       2.211741      0.401443     -0.871483
  C       2.583833      1.604821     -1.484983
  C       3.784435      2.240150     -1.159126
  C       4.626648      1.661031     -0.199656
  C       4.272335      0.463816      0.421269
  C      -3.101369     -2.430679      0.567188
  O      -2.177975      1.429027      0.669284
  C      -1.000385      2.270821      0.884944
  H      -4.224089      2.031640     -1.142494
  H      -3.555824      1.144150     -2.556905
  H      -5.191569      0.744257     -1.934650
  H      -2.024249     -1.030400      1.844920
  H       1.723413     -3.047268      0.911100
  H       1.503768     -2.210955     -0.642414
  H       1.255573     -0.039742     -1.135706
  H       1.913317      2.041965     -2.223254
  H       4.062560      3.174803     -1.642313
  H       5.565650      2.143739      0.067074
  H       4.913374      0.001557      1.169108
  H      -2.918964     -3.290719      1.223430
  H      -4.088558     -2.015743      0.792723
  H      -3.099163     -2.773316     -0.473148
  H      -0.461058      1.913991      1.765639
  H      -1.380325      3.284492      1.042537
  H      -0.344183      2.238622      0.010178
>
36
-1260.24304861; 31P isotropic shielding: 244.266174 ppm
  C      -4.198453      0.907624     -1.714503
  O      -3.654465     -0.066445     -0.777842
  P      -2.118829      0.077546     -0.312387
  O      -1.084122      0.078056     -1.379467
  C      -1.995773     -1.377474      0.864067
  O      -0.690391     -2.004073      0.640311
  C       0.393978     -1.307825      1.083609
  O       0.336147     -0.295004      1.747283
  C       1.676503     -1.998222      0.611435
  O       2.840383     -1.235584      0.881611
  C       3.062242     -0.093620      0.124110
  C       4.242838      0.600702      0.427645
  C       4.566091      1.759121     -0.277992
  C       3.719401      2.235119     -1.288815
  C       2.545821      1.536167     -1.580602
  C       2.205264      0.370118     -0.882320
  C      -3.041560     -2.467370      0.661438
  O      -2.187519      1.417914      0.577893
  C      -1.027460      2.296614      0.730135
  H      -3.575318      0.955944     -2.614988
  H      -5.201418      0.555131     -1.968638
  H      -4.254891      1.894057     -1.239229
  H      -2.023392     -0.975328      1.883653
  H       1.792814     -2.938584      1.165090
  H       1.575271     -2.242547     -0.456335
  H       4.887641      0.218946      1.216542
  H       5.484350      2.292684     -0.037171
  H       3.973196      3.139907     -1.837755
  H       1.871573      1.893055     -2.357557
  H       1.268162     -0.121581     -1.124856
  H      -2.848340     -3.288834      1.362531
  H      -4.043012     -2.068606      0.849859
  H      -3.012040     -2.861131     -0.360269
  H      -1.426747      3.311936      0.811392
  H      -0.368639      2.212100     -0.139126
  H      -0.483507      2.016888      1.635450
>
36
-1260.24305838; 31P isotropic shielding: 244.383126 ppm
  C      -3.481691     -0.991804     -1.807225
  O      -3.364154     -0.313495     -0.521040
  P      -2.060233      0.525648     -0.133943
  O      -1.101526      0.878423     -1.212202
  C      -1.264595     -0.321871      1.328060
  O       0.017769     -0.936738      0.968534
  C       0.029564     -1.817980     -0.053685
  O      -0.957307     -2.233650     -0.633291
  C       1.442891     -2.257988     -0.442511
  O       2.517097     -1.683960      0.289894
  C       2.903832     -0.384970     -0.006887
  C       4.087404      0.038831      0.616388
  C       4.565245      1.329678      0.392504
  C       3.870877      2.206919     -0.452106
  C       2.690917      1.775720     -1.062852
  C       2.196367      0.482458     -0.849022
  C      -2.179190     -1.272090      2.098910
  O      -2.801075      1.770025      0.594046
  C      -2.037769      2.975928      0.870440
  H      -4.483913     -0.768795     -2.186002
  H      -2.720021     -0.628001     -2.503293
  H      -3.354526     -2.065215     -1.645616
  H      -0.940354      0.493170      1.985988
  H       1.505441     -3.339926     -0.272537
  H       1.542744     -2.080710     -1.524388
  H       4.614846     -0.655915      1.266886
  H       5.486213      1.650435      0.877122
  H       4.245367      3.213759     -0.626528
  H       2.129580      2.447256     -1.710240
  H       1.252785      0.205833     -1.307917
  H      -1.645147     -1.672728      2.969602
  H      -3.058978     -0.721757      2.454107
  H      -2.518580     -2.097130      1.468134
  H      -2.770576      3.746425      1.125293
  H      -1.460874      3.275277     -0.011239
  H      -1.359930      2.820940      1.721513
