30
-1408.72215243; 31P isotropic shielding: 246.177669 ppm
  C      -0.575230     -3.173793      0.287222
  C      -1.420598     -2.144754      1.025135
  O      -1.002044     -0.760750      0.744810
  P      -1.292620     -0.086413     -0.700478
  O      -2.353342     -0.753535     -1.499283
  C       0.360769      0.065564     -1.484925
  N       1.352535      0.832551     -0.711053
  S       2.080148      0.006557      0.667069
  O       2.352468     -1.348117      0.135145
  O       3.478687      0.907570      0.692955
  C       4.380934      0.791593     -0.452433
  O      -1.530624      1.467653     -0.323396
  C      -2.847441      1.922271      0.141754
  C      -2.961415      1.842354      1.659120
  H       0.491044     -3.032700      0.493695
  H      -0.869475     -4.181159      0.613189
  H      -0.742686     -3.110977     -0.794859
  H      -1.306684     -2.235109      2.110851
  H      -2.481486     -2.238722      0.765052
  H       0.226880      0.541968     -2.465337
  H       0.752934     -0.941977     -1.658364
  H       0.960518      1.716655     -0.373612
  H       5.235084      1.426736     -0.203299
  H       3.886142      1.147289     -1.362291
  H       4.701578     -0.248562     -0.575023
  H      -2.922474      2.956978     -0.211062
  H      -3.618928      1.324879     -0.360172
  H      -2.906266      0.805521      2.007531
  H      -2.157834      2.412774      2.140914
  H      -3.924473      2.266058      1.975947
>
30
-1408.72540885; 31P isotropic shielding: 245.332084 ppm
  C      -0.578129     -3.173120      0.286086
  C      -1.425269     -2.144747      1.022890
  O      -1.008286     -0.760393      0.742108
  P      -1.298909     -0.087127     -0.703682
  O      -2.358049     -0.756166     -1.502990
  C       0.354843      0.066880     -1.486969
  N       1.344995      0.835318     -0.712524
  S       2.073097      0.010439      0.666046
  O       2.347241     -1.344024      0.134510
  O       3.470692      0.912983      0.692279
  C       4.373116      0.798167     -0.453066
  O      -1.539448      1.466731     -0.327368
  C      -2.857535      1.919786      0.135694
  C      -2.973656      1.840177      1.652910
  H       0.487847     -3.030382      0.492996
  H      -0.871074     -4.180684      0.612622
  H      -0.745129     -3.111321     -0.796123
  H      -1.312024     -2.234442      2.108734
  H      -2.485871     -2.240174      0.762142
  H       0.221088      0.542817     -2.467631
  H       0.748397     -0.940212     -1.659918
  H       0.951531      1.718891     -0.375375
  H       5.227041      1.433430     -0.203472
  H       3.878193      1.154280     -1.362694
  H       4.694092     -0.241801     -0.576382
  H      -2.933407      2.954259     -0.217645
  H      -3.627500      1.321231     -0.367182
  H      -3.937747      2.262604      1.968277
  H      -2.917591      0.803485      2.001611
  H      -2.171549      2.411816      2.135714
>
30
-1408.72540965; 31P isotropic shielding: 245.335839 ppm
  C      -0.579998     -3.169188      0.292050
  C      -1.428326     -2.140373      1.026884
  O      -1.013534     -0.755995      0.742920
  P      -1.305438     -0.086527     -0.704405
  O      -2.363472     -0.759137     -1.502163
  C       0.347884      0.068207     -1.488370
  N       1.337198      0.839572     -0.715812
  S       2.066775      0.018451      0.664329
  O       2.342101     -1.336951      0.135799
  O       3.463777      0.922153      0.687998
  C       4.365614      0.805620     -0.457688
  O      -1.548265      1.467797     -0.331516
  C      -2.867328      1.920023      0.129716
  C      -2.983996      1.844316      1.647070
  H      -0.747823     -3.110480     -0.790202
  H       0.485897     -3.024128      0.497874
  H      -0.870888     -4.176434      0.621417
  H      -1.314636     -2.227600      2.112882
  H      -2.488903     -2.237893      0.766777
  H       0.213165      0.541824     -2.470031
  H       0.742700     -0.938725     -1.659468
  H       0.942611      1.723337     -0.380457
  H       4.684837     -0.234914     -0.580848
  H       5.220702      1.439614     -0.208893
  H       3.870622      1.162097     -1.367141
  H      -2.944747      2.953370     -0.226591
  H      -3.636072      1.318850     -0.371908
  H      -2.926193      0.808620      1.998527
  H      -2.183159      2.418738      2.128701
  H      -3.949005      2.265756      1.960951
>
30
-1408.72538998; 31P isotropic shielding: 245.338609 ppm
  C      -0.564032     -3.178261      0.286645
  C      -1.407275     -2.147447      1.024694
  O      -0.981234     -0.764668      0.749024
  P      -1.271001     -0.083369     -0.693443
  O      -2.331954     -0.746003     -1.495470
  C       0.383172      0.069015     -1.475323
  N       1.375878      0.827719     -0.694978
  S       2.104898     -0.010499      0.674269
  O       2.368718     -1.362988      0.132856
  O       3.509754      0.882307      0.700892
  C       4.405542      0.768178     -0.449984
  O      -1.507355      1.469652     -0.310788
  C      -2.824536      1.923061      0.155826
  C      -2.935697      1.843143      1.673316
  H      -0.728494     -3.112503     -0.795710
  H       0.502338     -3.041483      0.495885
  H      -0.862089     -4.185243      0.610355
  H      -1.297443     -2.241252      2.110546
  H      -2.467772     -2.236244      0.761257
  H       0.252115      0.551317     -2.453250
  H       0.771997     -0.938924     -1.654241
  H       0.986928      1.710865     -0.351851
  H       5.268324      1.390768     -0.199018
  H       3.909990      1.139083     -1.353397
  H       4.713530     -0.274204     -0.585527
  H      -2.901541      2.957439     -0.197519
  H      -3.595927      1.324611     -0.344942
  H      -2.875340      0.806488      2.021624
  H      -2.133959      2.417192      2.153932
  H      -3.900134      2.262346      1.992019
>
30
-1408.72537931; 31P isotropic shielding: 245.319749 ppm
  C      -0.802757     -2.811701      1.879445
  C      -1.009613     -2.276164      0.473926
  O      -1.070365     -0.807084      0.561029
  P      -1.342496      0.050226     -0.787259
  O      -2.364270     -0.510760     -1.707650
  C       0.321754      0.332953     -1.514341
  N       1.292004      0.984888     -0.617816
  S       1.954011     -0.011213      0.677185
  O       2.106815     -1.339627      0.037481
  O       3.432272      0.746411      0.770193
  C       4.310493      0.665848     -0.396330
  O      -1.628332      1.516737     -0.175710
  C      -2.999044      1.915126      0.175037
  C      -3.382805      1.446578      1.572505
  H      -1.625246     -2.510995      2.540230
  H      -0.763449     -3.908881      1.851680
  H       0.141321     -2.444991      2.298734
  H      -1.946369     -2.628696      0.026460
  H      -0.170208     -2.552757     -0.176045
  H       0.199849      0.946611     -2.416389
  H       0.728034     -0.633944     -1.829424
  H       0.898179      1.827377     -0.188920
  H       3.850407      1.173631     -1.250799
  H       4.517580     -0.381671     -0.640634
  H       5.229373      1.175059     -0.094087
  H      -2.989192      3.008565      0.106671
  H      -3.679041      1.517630     -0.588522
  H      -4.376304      1.840520      1.828041
  H      -3.419602      0.353070      1.628292
  H      -2.663700      1.808052      2.317617
>
30
-1408.72654951; 31P isotropic shielding: 246.619558 ppm
  C      -0.807099     -2.809132      1.881934
  C      -1.013961     -2.277286      0.475059
  O      -1.077043     -0.808085      0.558665
  P      -1.347953      0.045510     -0.792204
  O      -2.367166     -0.519594     -1.712867
  C       0.317185      0.329303     -1.516910
  N       1.284305      0.986471     -0.620772
  S       1.945142     -0.003205      0.679639
  O       2.099037     -1.334614      0.046522
  O       3.422929      0.755522      0.770641
  C       4.302748      0.669230     -0.394280
  O      -1.637294      1.513105     -0.184968
  C      -3.008666      1.908552      0.166550
  C      -3.386906      1.447685      1.568079
  H       0.136401     -2.440488      2.300802
  H      -1.630196     -2.507752      2.541659
  H      -0.766645     -3.906344      1.856789
  H      -1.949983     -2.632285      0.028020
  H      -0.173777     -2.554320     -0.173746
  H       0.195843      0.939431     -2.421418
  H       0.726194     -0.637839     -1.827689
  H       0.888004      1.829957     -0.196129
  H       5.222009      1.178023     -0.092504
  H       3.844738      1.174565     -1.251323
  H       4.508504     -0.379513     -0.634427
  H      -3.003320      3.001563      0.091078
  H      -3.689029      1.503482     -0.592689
  H      -3.419056      0.354445      1.631308
  H      -2.667344      1.817030      2.308887
  H      -4.381302      1.839385      1.823594
>
30
-1408.72654313; 31P isotropic shielding: 246.623894 ppm
  C      -0.577345     -3.088646     -0.033452
  C      -1.395301     -2.120174      0.809581
  O      -0.934877     -0.727369      0.677486
  P      -1.215396      0.110622     -0.680936
  O      -2.292699     -0.441304     -1.542813
  C       0.430316      0.321765     -1.467961
  N       1.455687      0.959568     -0.624809
  S       2.179363     -0.051467      0.626169
  O       2.398421     -1.337883     -0.073397
  O       3.607655      0.795796      0.733865
  C       4.484426      0.796349     -0.436800
  O      -1.407397      1.610827     -0.110947
  C      -2.632571      1.961317      0.619192
  C      -3.711036      2.457826     -0.334596
  H       0.492214     -2.999402      0.184844
  H      -0.898816     -4.116365      0.186022
  H      -0.741061     -2.908378     -1.102837
  H      -1.287916     -2.328220      1.879723
  H      -2.457555     -2.154607      0.540718
  H       0.292732      0.920935     -2.378094
  H       0.790788     -0.665448     -1.775750
  H       1.092631      1.803488     -0.171745
  H       5.374413      1.347739     -0.122252
  H       3.993786      1.298923     -1.276983
  H       4.748891     -0.230983     -0.709790
  H      -2.968908      1.088414      1.194098
  H      -2.324351      2.739376      1.326922
  H      -3.998368      1.668525     -1.037596
  H      -4.597975      2.762670      0.238225
  H      -3.353553      3.324906     -0.903688
>
30
-1408.72537897; 31P isotropic shielding: 245.017598 ppm
  C      -0.532024     -3.192160      0.130589
  C      -1.308915     -2.232496      1.021041
  O      -0.879549     -0.833502      0.852414
  P      -1.274728     -0.005262     -0.483357
  O      -2.399649     -0.583629     -1.263131
  C       0.304994      0.235394     -1.388686
  N       1.377374      0.893875     -0.623254
  S       2.201310     -0.097373      0.581235
  O       2.395998     -1.383822     -0.125260
  O       3.617459      0.776636      0.588330
  C       4.415896      0.780799     -0.637335
  O      -1.453478      1.493368      0.095508
  C      -2.611207      1.821732      0.937288
  C      -3.806621      2.236703      0.089581
  H      -0.765713     -3.017774     -0.926679
  H       0.547833     -3.086595      0.279708
  H      -0.824205     -4.223595      0.372383
  H      -1.129126     -2.432812      2.082921
  H      -2.385507     -2.285040      0.821333
  H       0.090050      0.830568     -2.286385
  H       0.660514     -0.745126     -1.722535
  H       1.034122      1.735614     -0.151130
  H       3.844141      1.223742     -1.459621
  H       4.719881     -0.240334     -0.891473
  H       5.291151      1.391910     -0.401825
  H      -2.843510      0.958623      1.575242
  H      -2.265023      2.638858      1.580439
  H      -3.550927      3.094067     -0.545299
  H      -4.133320      1.410185     -0.550502
  H      -4.638819      2.528647      0.745260
>
30
-1408.72540228; 31P isotropic shielding: 244.950036 ppm
  C      -0.534374     -3.187313      0.130128
  C      -1.313833     -2.226779      1.017366
  O      -0.885457     -0.827676      0.846857
  P      -1.279409     -0.002172     -0.490975
  O      -2.401958     -0.583600     -1.271878
  C       0.301629      0.239300     -1.393725
  N       1.372010      0.899545     -0.627058
  S       2.195402     -0.089896      0.579207
  O       2.392272     -1.376701     -0.126010
  O       3.610861      0.785456      0.587467
  C       4.410843      0.788965     -0.637262
  O      -1.461471      1.497137      0.084954
  C      -2.620452      1.825018      0.925273
  C      -3.816368      2.235187      0.075962
  H       0.545098     -3.080326      0.280972
  H      -0.825813     -4.218589      0.373488
  H      -0.766342     -3.015229     -0.927882
  H      -1.135775     -2.424891      2.079949
  H      -2.390014     -2.280715      0.815854
  H       0.087646      0.833406     -2.292365
  H       0.658703     -0.741161     -1.726075
  H       1.027151      1.741363     -0.156271
  H       4.716503     -0.232099     -0.889617
  H       5.284954      1.401529     -0.401357
  H       3.839547      1.230044     -1.460857
  H      -2.850988      0.963010      1.565339
  H      -2.276459      2.644595      1.566472
  H      -3.562262      3.091453     -0.561023
  H      -4.141170      1.406411     -0.562153
  H      -4.649373      2.527127      0.730621
>
30
-1408.72540551; 31P isotropic shielding: 244.957618 ppm
  C      -0.532974     -3.192897      0.120980
  C      -1.308145     -2.233575      1.013272
  O      -0.874170     -0.835361      0.849337
  P      -1.266582     -0.001390     -0.483683
  O      -2.391420     -0.575040     -1.267020
  C       0.314357      0.239909     -1.386466
  N       1.387855      0.891855     -0.617034
  S       2.208646     -0.107820      0.582632
  O       2.399649     -1.391338     -0.130053
  O       3.627863      0.761408      0.594463
  C       4.426994      0.767704     -0.630798
  O      -1.443345      1.495372      0.100377
  C      -2.598906      1.822190      0.945787
  C      -3.797883      2.235523      0.102274
  H      -0.764804     -3.014637     -0.936039
  H       0.547014     -3.090946      0.271751
  H      -0.828331     -4.224190      0.359532
  H      -1.130506     -2.437561      2.074819
  H      -2.384617     -2.282160      0.811923
  H       0.101326      0.840206     -2.281237
  H       0.667587     -0.739724     -1.725318
  H       1.046296      1.732061     -0.140966
  H       4.730835     -0.253048     -0.886616
  H       5.302165      1.378184     -0.393468
  H       3.855843      1.212332     -1.452596
  H      -2.827574      0.958750      1.584614
  H      -2.251690      2.639892      1.587640
  H      -3.545568      3.093192     -0.533561
  H      -4.125922      1.408657     -0.536663
  H      -4.627993      2.526553      0.761014
>
30
-1408.72540132; 31P isotropic shielding: 244.962382 ppm
  C      -0.591315     -3.116515     -0.109593
  C      -1.366860     -2.196275      0.822764
  O      -0.904233     -0.799222      0.751236
  P      -1.239494      0.116564     -0.542661
  O      -2.352992     -0.384303     -1.389718
  C       0.373397      0.372644     -1.382498
  N       1.434176      0.958662     -0.545185
  S       2.198511     -0.121958      0.620827
  O       2.381725     -1.370080     -0.154128
  O       3.635921      0.711101      0.717190
  C       4.467680      0.765021     -0.485251
  O      -1.405300      1.581870      0.119058
  C      -2.603394      1.892539      0.910621
  C      -3.713789      2.440644      0.024024
  H       0.487059     -3.043453      0.067017
  H      -0.909192     -4.154213      0.063217
  H      -0.799866     -2.873187     -1.158481
  H      -1.214783     -2.465897      1.873525
  H      -2.439725     -2.211553      0.598190
  H       0.201402      1.025407     -2.248840
  H       0.717910     -0.594542     -1.763496
  H       1.093961      1.778205     -0.033533
  H       5.345234      1.348889     -0.195425
  H       3.925275      1.259234     -1.298131
  H       4.763061     -0.246577     -0.783636
  H      -2.921087      0.989155      1.447851
  H      -2.268340      2.630219      1.648612
  H      -3.375039      3.337610     -0.509039
  H      -4.026601      1.690424     -0.710103
  H      -4.579402      2.713486      0.643686
>
30
-1408.72535607; 31P isotropic shielding: 244.998075 ppm
  C      -0.593232     -3.118088     -0.116871
  C      -1.362339     -2.199717      0.822629
  O      -0.899161     -0.802955      0.753586
  P      -1.234554      0.115868     -0.538176
  O      -2.350377     -0.381190     -1.384390
  C       0.376565      0.371166     -1.382458
  N       1.442078      0.952188     -0.547789
  S       2.200220     -0.131528      0.619434
  O       2.381641     -1.379292     -0.156497
  O       3.639309      0.698030      0.720099
  C       4.475063      0.750101     -0.479251
  O      -1.394358      1.579814      0.128163
  C      -2.583252      1.889899      0.932891
  C      -3.706181      2.433100      0.059082
  H      -0.806939     -2.870844     -1.163785
  H       0.486107     -3.047483      0.054730
  H      -0.912214     -4.155746      0.054074
  H      -1.204724     -2.473126      1.871613
  H      -2.436489     -2.213087      0.603959
  H       0.201880      1.027992     -2.245196
  H       0.717578     -0.594894     -1.769231
  H       1.107138      1.774596     -0.037193
  H       4.756981     -0.263155     -0.785185
  H       5.360031      1.318797     -0.181901
  H       3.942163      1.258148     -1.289877
  H      -2.891740      0.987166      1.476635
  H      -2.240758      2.630192      1.664896
  H      -4.025786      1.680537     -0.669739
  H      -4.564870      2.704907      0.688665
  H      -3.376280      3.329705     -0.480116
>
30
-1408.72535396; 31P isotropic shielding: 244.995874 ppm
  C      -0.405545     -3.272470      0.173242
  C      -1.301551     -2.320019      0.952869
  O      -0.972454     -0.905679      0.706464
  P      -1.329012     -0.210242     -0.713370
  O      -2.346078     -0.924574     -1.526591
  C       0.292155      0.097519     -1.519796
  N       1.247492      0.894103     -0.731118
  S       2.049751      0.061473      0.601408
  O       2.387335     -1.255349      0.014813
  O       3.397045      1.037480      0.635513
  C       4.279029      1.015904     -0.530988
  O      -1.670646      1.305518     -0.263169
  C      -2.918024      1.578290      0.457600
  C      -3.055791      3.084439      0.602850
  H      -0.628038     -4.305248      0.475739
  H      -0.595725     -3.191462     -0.903869
  H       0.652858     -3.067314      0.366148
  H      -1.165782     -2.433426      2.033939
  H      -2.358606     -2.471330      0.704875
  H       0.101090      0.609517     -2.472452
  H       0.747587     -0.870648     -1.752569
  H       0.805873      1.736745     -0.351508
  H       4.661335      0.002544     -0.694709
  H       5.097087      1.695726     -0.278787
  H       3.742109      1.368027     -1.418122
  H      -3.749787      1.148060     -0.115006
  H      -2.865336      1.080823      1.435576
  H      -3.983112      3.321626      1.141031
  H      -2.213144      3.502561      1.167534
  H      -3.093416      3.568107     -0.380846
>
30
-1408.72567616; 31P isotropic shielding: 247.149672 ppm
  C      -0.407888     -3.280846      0.150147
  C      -1.298575     -2.334869      0.943690
  O      -0.960277     -0.919009      0.717098
  P      -1.318174     -0.199596     -0.690127
  O      -2.343571     -0.895735     -1.508823
  C       0.301520      0.108348     -1.499007
  N       1.265673      0.887248     -0.703168
  S       2.071629      0.030896      0.610784
  O       2.397367     -1.278865      0.002109
  O       3.424401      0.999476      0.650105
  C       4.297829      0.991137     -0.523362
  O      -1.648798      1.311522     -0.218381
  C      -2.893585      1.582792      0.508023
  C      -3.054700      3.089927      0.615343
  H       0.651607     -3.084246      0.345706
  H      -0.635774     -4.316621      0.437937
  H      -0.597706     -3.182867     -0.925574
  H      -1.163047     -2.463884      2.022994
  H      -2.356437     -2.476112      0.693626
  H       0.110562      0.634648     -2.443803
  H       0.749544     -0.859688     -1.746160
  H       0.832468      1.727806     -0.309758
  H       4.694067     -0.016206     -0.690402
  H       5.107492      1.683100     -0.276878
  H       3.749658      1.336612     -1.406206
  H      -3.724660      1.124708     -0.043537
  H      -2.821516      1.111814      1.497710
  H      -3.114327      3.546576     -0.380024
  H      -3.978108      3.325802      1.160766
  H      -2.211274      3.536732      1.156371
>
30
-1408.72566094; 31P isotropic shielding: 247.190562 ppm
  C      -0.409327     -3.284031      0.140163
  C      -1.299388     -2.337269      0.933391
  O      -0.954693     -0.922083      0.712812
  P      -1.306814     -0.196073     -0.692499
  O      -2.332817     -0.885073     -1.516471
  C       0.315956      0.108895     -1.496250
  N       1.280731      0.881623     -0.695298
  S       2.083678      0.016806      0.614903
  O       2.405395     -1.291271      0.000416
  O       3.439828      0.980607      0.659280
  C       4.313740      0.974059     -0.513755
  O      -1.633047      1.314313     -0.215264
  C      -2.879167      1.587316      0.508073
  C      -3.021869      3.093975      0.643541
  H      -0.595396     -3.182749     -0.935915
  H       0.650196     -3.091357      0.339541
  H      -0.641298     -4.319845      0.424551
  H      -1.168685     -2.470555      2.012788
  H      -2.356819     -2.473552      0.678710
  H       0.129436      0.638540     -2.440079
  H       0.761163     -0.860039     -1.745064
  H       0.849141      1.721236     -0.298119
  H       5.128503      1.658136     -0.262163
  H       3.768369      1.329825     -1.394258
  H       4.702454     -0.035038     -0.687800
  H      -3.711788      1.150346     -0.058087
  H      -2.820239      1.096528      1.489009
  H      -3.946923      3.331159      1.185600
  H      -2.177549      3.519206      1.200320
  H      -3.067071      3.570664     -0.343174
>
30
-1408.72566598; 31P isotropic shielding: 247.204449 ppm
  C      -0.783871     -2.831889      1.762946
  C      -1.019315     -2.277887      0.369149
  O      -1.073272     -0.809306      0.476390
  P      -1.395928      0.065053     -0.850838
  O      -2.439683     -0.500555     -1.742873
  C       0.237356      0.380447     -1.631798
  N       1.239157      1.012682     -0.756577
  S       1.946324     -0.011177      0.492027
  O       2.075593     -1.325049     -0.181566
  O       3.426711      0.746016      0.548623
  C       4.263491      0.690128     -0.649355
  O      -1.672169      1.520078     -0.210540
  C      -2.989894      1.836901      0.359055
  C      -3.000181      1.618570      1.865972
  H      -1.592859     -2.539949      2.444172
  H      -0.745940     -3.928605      1.720117
  H       0.168483     -2.471179      2.168670
  H      -1.966570     -2.621817     -0.062215
  H      -0.194641     -2.546513     -0.302429
  H       0.076348      1.019093     -2.510111
  H       0.634468     -0.574398     -1.991728
  H       0.861449      1.845775     -0.296185
  H       5.187219      1.205216     -0.373024
  H       3.767718      1.203867     -1.479961
  H       4.472345     -0.351910     -0.914666
  H      -3.159279      2.888935      0.103020
  H      -3.747002      1.228349     -0.151117
  H      -3.972891      1.926131      2.274435
  H      -2.836066      0.564003      2.112666
  H      -2.218402      2.215488      2.351743
>
30
-1408.72680730; 31P isotropic shielding: 245.880252 ppm
  C      -0.785487     -2.830693      1.765276
  C      -1.022100     -2.280627      0.370153
  O      -1.077347     -0.812075      0.473314
  P      -1.399839      0.059934     -0.855829
  O      -2.441219     -0.509021     -1.748301
  C       0.234345      0.377535     -1.634087
  N       1.233477      1.012693     -0.758066
  S       1.939831     -0.008994      0.493344
  O       2.072797     -1.323208     -0.178707
  O       3.418289      0.751726      0.552492
  C       4.258013      0.696230     -0.643458
  O      -1.679819      1.515213     -0.217763
  C      -2.998064      1.829267      0.351965
  C      -3.004521      1.619184      1.860084
  H      -1.594572     -2.538205      2.446147
  H      -0.745999     -3.927448      1.725037
  H       0.166456     -2.467483      2.169670
  H      -1.969180     -2.626537     -0.060126
  H      -0.197504     -2.550356     -0.301147
  H       0.073557      1.015317     -2.513113
  H       0.633682     -0.576896     -1.992563
  H       0.853157      1.845216     -0.298758
  H       4.465825     -0.345667     -0.910142
  H       5.181836      1.209485     -0.364073
  H       3.765339      1.212037     -1.474642
  H      -3.173048      2.879041      0.090409
  H      -3.753468      1.214590     -0.153377
  H      -2.836176      0.566553      2.112197
  H      -2.223832      2.221476      2.340948
  H      -3.977428      1.925512      2.269018
>
30
-1408.72681364; 31P isotropic shielding: 245.892815 ppm
  C      -0.517538     -3.152098      0.748780
  C      -1.457951     -2.040256      1.188031
  O      -0.935725     -0.717600      0.818325
  P      -1.288415     -0.053911     -0.615900
  O      -2.350244     -0.748055     -1.390804
  C       0.352841      0.125902     -1.418432
  N       1.337496      0.905210     -0.649781
  S       2.103278      0.077615      0.706516
  O       2.378049     -1.269869      0.158775
  O       3.495414      0.992207      0.708524
  C       4.361567      0.909902     -0.465426
  O      -1.566876      1.498145     -0.250759
  C      -2.922711      1.947061      0.083189
  C      -3.293209      1.632283      1.527045
  H       0.489722     -3.010058      1.155467
  H      -0.907609     -4.118491      1.097198
  H      -0.446313     -3.191862     -0.345021
  H      -1.565828     -2.001103      2.277943
  H      -2.447811     -2.156572      0.731108
  H       0.202217      0.597662     -2.398654
  H       0.760121     -0.875689     -1.592904
  H       0.942098      1.785168     -0.306500
  H       5.207186      1.564630     -0.237836
  H       3.829553      1.260527     -1.356045
  H       4.704737     -0.120611     -0.607473
  H      -2.899450      3.027669     -0.096296
  H      -3.621128      1.483441     -0.624652
  H      -3.378889      0.552527      1.692937
  H      -2.542344      2.032033      2.219188
  H      -4.263438      2.090792      1.762555
>
30
-1408.72519670; 31P isotropic shielding: 246.207743 ppm
  C      -0.894416     -2.987381      1.429775
  C      -0.969499     -2.233281      0.114146
  O      -0.968764     -0.793558      0.425660
  P      -1.219948      0.277212     -0.764739
  O      -2.215779     -0.137853     -1.785499
  C       0.447775      0.698442     -1.408667
  N       1.420575      1.140689     -0.395886
  S       2.070497     -0.106235      0.667040
  O       2.171363     -1.289782     -0.219820
  O       3.575300      0.573266      0.873882
  C       4.431318      0.693955     -0.304837
  O      -1.521728      1.612388      0.089349
  C      -2.807176      1.756750      0.788821
  C      -3.849655      2.399752     -0.115665
  H      -1.752647     -2.746935      2.069641
  H      -0.899681     -4.068064      1.234302
  H       0.027980     -2.740360      1.968720
  H      -1.884507     -2.460885     -0.444914
  H      -0.095427     -2.447884     -0.512809
  H       0.333816      1.487066     -2.164032
  H       0.844534     -0.185774     -1.918200
  H       1.035916      1.883141      0.194914
  H       5.360486      1.136531      0.063611
  H       3.960592      1.347642     -1.047238
  H       4.623735     -0.295233     -0.734221
  H      -3.130778      0.770727      1.146178
  H      -2.581175      2.381365      1.660505
  H      -4.782565      2.548630      0.445806
  H      -3.502238      3.377485     -0.471976
  H      -4.056204      1.760985     -0.981144
>
30
-1408.72666889; 31P isotropic shielding: 246.129853 ppm
  C      -1.158260     -3.742442      0.696062
  C      -1.703892     -2.366910      1.052941
  O      -1.939123     -1.587265     -0.166956
  P      -1.071317     -0.279934     -0.541534
  O      -1.648287      0.461417     -1.689848
  C       0.657998     -0.834857     -0.804970
  N       1.554650      0.278891     -1.163031
  S       2.103422      1.269986      0.196103
  O       2.477282      0.258772      1.208835
  O       3.458827      1.864279     -0.563178
  C       4.518552      0.914326     -0.900553
  O      -0.900937      0.571713      0.825722
  C      -1.787607      1.709676      1.102048
  C      -3.144869      1.250866      1.619782
  H      -0.169831     -3.670598      0.225630
  H      -1.059098     -4.350589      1.605616
  H      -1.834943     -4.259383      0.005180
  H      -1.027935     -1.817826      1.720185
  H      -2.680470     -2.443262      1.546304
  H       0.652172     -1.568761     -1.622303
  H       1.059396     -1.326662      0.087827
  H       1.118175      0.899580     -1.853489
  H       4.156541      0.186725     -1.634448
  H       4.866843      0.402492      0.003166
  H       5.319747      1.525301     -1.324599
  H      -1.245724      2.297578      1.850472
  H      -1.888395      2.298836      0.182897
  H      -3.032354      0.629686      2.517104
  H      -3.753756      2.127006      1.881645
  H      -3.683506      0.677559      0.855889
