37
-1388.92072735; 31P isotropic shielding: 247.981982 ppm
  C       0.458632      3.168421      0.832697
  C      -0.503336      2.472932     -0.113791
  O      -0.930930      1.211271      0.512315
  P      -1.400756     -0.059203     -0.360667
  O      -1.578611      0.203683     -1.813370
  C      -0.017107     -1.253826     -0.002743
  C      -0.328123     -2.743184     -0.217546
  F      -0.737084     -3.002945     -1.492676
  F       0.780783     -3.504807      0.019057
  F      -1.302842     -3.181481      0.628989
  N       1.094632     -0.839233     -0.848743
  C       2.120491     -0.005781     -0.373199
  C       2.615815     -0.097133      0.940799
  C       3.650547      0.741406      1.361567
  C       4.221117      1.674227      0.488836
  C       3.742393      1.754308     -0.824396
  C       2.702099      0.929756     -1.252004
  O      -2.646510     -0.655959      0.443310
  C      -4.025337     -0.320926      0.049648
  C      -4.406162      1.095575      0.459594
  H       1.356572      2.564034      0.994966
  H      -0.018631      3.363843      1.801039
  H       0.763755      4.130061      0.398307
  H      -1.405272      3.073312     -0.290564
  H      -0.040245      2.254102     -1.081575
  H       0.245811     -1.143412      1.052800
  H       0.788552     -0.612209     -1.793341
  H       2.210300     -0.831719      1.632601
  H       4.017482      0.656603      2.383247
  H       5.027133      2.323165      0.824016
  H       4.173915      2.472006     -1.520440
  H       2.324541      1.008927     -2.271458
  H      -4.634276     -1.069330      0.566737
  H      -4.116057     -0.468021     -1.033007
  H      -3.830639      1.840508     -0.102911
  H      -4.234672      1.252853      1.531115
  H      -5.471477      1.261874      0.248895
>
37
-1388.92051030; 31P isotropic shielding: 251.800964 ppm
  C      -0.934255      3.851025      0.248773
  C       0.069767      2.721251      0.083136
  O      -0.427247      1.497612      0.733734
  P      -1.137102      0.330732     -0.103533
  O      -1.277291      0.535325     -1.570032
  C       0.041170     -1.074393      0.278697
  C      -0.531366     -2.484291      0.101013
  F      -1.596045     -2.695135      0.934023
  F      -0.965557     -2.703967     -1.177377
  F       0.394875     -3.440881      0.384402
  N       1.211917     -0.904847     -0.577837
  C       2.228664      0.009476     -0.231355
  C       2.862217      0.741264     -1.253935
  C       3.888942      1.637233     -0.955789
  C       4.299684      1.833574      0.367787
  C       3.675017      1.104006      1.385727
  C       2.654534      0.196272      1.096110
  O      -2.484755      0.103883      0.734039
  C      -3.691111     -0.429117      0.074160
  C      -4.559641      0.708184     -0.440835
  H      -1.869299      3.623670     -0.277282
  H      -0.518711      4.776663     -0.173282
  H      -1.158723      4.023959      1.308390
  H       0.263210      2.504245     -0.972453
  H       1.021267      2.932768      0.581428
  H       0.323952     -0.994178      1.331786
  H       0.930555     -0.810573     -1.553133
  H       2.532012      0.611284     -2.284449
  H       4.361847      2.193962     -1.763401
  H       5.094865      2.538248      0.601402
  H       3.986412      1.237298      2.420669
  H       2.196189     -0.364338      1.907188
  H      -4.192142     -1.012602      0.853486
  H      -3.394604     -1.103764     -0.736867
  H      -4.039093      1.261932     -1.230374
  H      -4.819039      1.398788      0.371115
  H      -5.490515      0.300332     -0.858833
>
37
-1388.92042850; 31P isotropic shielding: 248.611413 ppm
  C      -0.996551      3.808783      0.493911
  C       0.037965      2.724187      0.237199
  O      -0.395794      1.451263      0.836875
  P      -1.131950      0.322811     -0.029386
  O      -1.329637      0.598171     -1.477391
  C       0.071524     -1.088036      0.237661
  C      -0.499441     -2.494111      0.029064
  F      -0.994736     -2.664090     -1.235073
  F       0.444672     -3.454260      0.226974
  F      -1.521096     -2.747008      0.903309
  N       1.199495     -0.872617     -0.665326
  C       2.216284      0.047233     -0.332181
  C       2.776057      0.841694     -1.350945
  C       3.800581      1.744880     -1.066345
  C       4.281387      1.886067      0.240492
  C       3.729563      1.094475      1.254457
  C       2.712494      0.179239      0.977218
  O      -2.446921      0.045239      0.844800
  C      -3.670147     -0.474453      0.204444
  C      -4.559293      0.673156     -0.249599
  H      -0.626482      4.768787      0.107811
  H      -1.190985      3.919355      1.567695
  H      -1.940640      3.576279     -0.013375
  H       0.204557      2.569362     -0.833753
  H       0.997282      2.941147      0.717641
  H       0.403479     -1.048668      1.278773
  H       0.870083     -0.742827     -1.621444
  H       2.389835      0.755307     -2.366417
  H       4.215980      2.350597     -1.870320
  H       5.074602      2.596171      0.464218
  H       4.096613      1.184384      2.275732
  H       2.312112     -0.431381      1.783004
  H      -4.144585     -1.084135      0.980262
  H      -3.394460     -1.122346     -0.635205
  H      -4.063746      1.253968     -1.035562
  H      -4.799032      1.336163      0.590899
  H      -5.499567      0.272814     -0.653614
>
37
-1388.92038633; 31P isotropic shielding: 248.586426 ppm
  C      -0.927966      3.781264      0.676487
  C       0.042645      2.686545      0.261800
  O      -0.367616      1.399274      0.846526
  P      -1.137853      0.287692     -0.012616
  O      -1.401471      0.596017     -1.443090
  C       0.076764     -1.124389      0.177293
  C      -0.488209     -2.522737     -0.094291
  F       0.454530     -3.487348      0.092534
  F      -1.530151     -2.810257      0.743868
  F      -0.950725     -2.647298     -1.375150
  N       1.195614     -0.866092     -0.725121
  C       2.210790      0.047194     -0.373381
  C       2.773113      0.858288     -1.377723
  C       3.796114      1.757340     -1.076063
  C       4.273592      1.877916      0.234086
  C       3.719564      1.069720      1.233595
  C       2.703675      0.158487      0.939296
  O      -2.410893     -0.021308      0.912328
  C      -3.684990     -0.454578      0.310162
  C      -4.557975      0.750246     -0.007796
  H      -0.575610      4.749582      0.294721
  H      -1.002223      3.846123      1.768876
  H      -1.927868      3.593864      0.266647
  H       0.089651      2.578725     -0.826904
  H       1.053016      2.858400      0.646601
  H       0.417875     -1.132349      1.216261
  H       0.862591     -0.719508     -1.677247
  H       2.389992      0.787679     -2.395610
  H       4.213089      2.376017     -1.869225
  H       5.065449      2.585075      0.471365
  H       4.083051      1.144137      2.257393
  H       2.299571     -0.462058      1.735411
  H      -4.136396     -1.103983      1.067320
  H      -3.479590     -1.046661     -0.588787
  H      -4.088036      1.370473     -0.779341
  H      -4.724877      1.357536      0.890381
  H      -5.533638      0.410368     -0.382105
>
37
-1388.92051714; 31P isotropic shielding: 249.056485 ppm
  C      -0.942305      3.834996      0.445641
  C       0.077742      2.727393      0.233234
  O      -0.408046      1.465716      0.816689
  P      -1.125525      0.348873     -0.080225
  O      -1.257744      0.626799     -1.535367
  C       0.042605     -1.082126      0.235362
  C      -0.542242     -2.478096      0.000593
  F      -1.600031     -2.717885      0.834475
  F      -0.991884     -2.636754     -1.282052
  F       0.378748     -3.453608      0.230296
  N       1.211152     -0.884617     -0.619060
  C       2.228349      0.017173     -0.240199
  C       2.671067      0.136767      1.089411
  C       3.690348      1.034224      1.412672
  C       4.297332      1.819453      0.425675
  C       3.869963      1.690017     -0.900771
  C       2.843677      0.804850     -1.231691
  O      -2.479799      0.093427      0.738956
  C      -3.682690     -0.409687      0.049108
  C      -4.539988      0.749435     -0.435541
  H      -1.869149      3.622549     -0.100688
  H      -0.534824      4.785851      0.074890
  H      -1.178992      3.951345      1.510283
  H       0.283993      2.566149     -0.829850
  H       1.021615      2.924568      0.751368
  H       0.331297     -1.049164      1.289463
  H       0.923817     -0.746194     -1.587492
  H       2.226648     -0.469545      1.875099
  H       4.015475      1.115239      2.448789
  H       5.092103      2.515489      0.685189
  H       4.329060      2.290940     -1.684312
  H       2.499058      0.727726     -2.262744
  H      -4.194569     -1.016024      0.803494
  H      -3.381924     -1.058545     -0.781154
  H      -5.469776      0.361243     -0.874151
  H      -4.009308      1.325347     -1.202058
  H      -4.801953      1.414478      0.396668
>
37
-1388.92037985; 31P isotropic shielding: 248.424888 ppm
  C       0.470013      3.430955     -0.010627
  C      -0.662336      2.866413      0.833153
  O      -0.489666      1.415164      1.024646
  P      -1.180236      0.371040      0.026329
  O      -1.322140      0.763333     -1.401337
  C       0.052335     -1.020836      0.246887
  C      -0.509370     -2.427296      0.007589
  F      -1.019972     -2.563601     -1.256073
  F       0.446763     -3.381835      0.164253
  F      -1.516615     -2.716062      0.885633
  N       1.167965     -0.772634     -0.657556
  C       2.215139      0.102784     -0.303518
  C       2.690014      0.226792      1.014092
  C       3.746055      1.094252      1.301890
  C       4.355190      1.846776      0.291985
  C       3.892774      1.714538     -1.022937
  C       2.833426      0.857861     -1.318629
  O      -2.551730      0.008926      0.781956
  C      -3.723812     -0.457534      0.017213
  C      -4.607638      0.719380     -0.366709
  H       0.434900      3.023768     -1.026288
  H       1.443691      3.190930      0.431019
  H       0.371678      4.524173     -0.068545
  H      -0.662793      3.276582      1.848908
  H      -1.642335      3.056733      0.377796
  H       0.389848     -1.002921      1.286416
  H       0.833676     -0.602501     -1.605218
  H       2.243285     -0.349114      1.820794
  H       4.095293      1.179046      2.329857
  H       5.176697      2.521047      0.524276
  H       4.350680      2.292270     -1.824364
  H       2.464019      0.778290     -2.340861
  H      -4.231493     -1.152684      0.693999
  H      -3.384282     -1.006493     -0.868084
  H      -4.079845      1.384483     -1.059540
  H      -4.906450      1.288185      0.522706
  H      -5.516729      0.352391     -0.863110
>
37
-1388.92048407; 31P isotropic shielding: 249.593945 ppm
  C       0.468007      3.427110     -0.111543
  C      -0.660633      2.890333      0.755060
  O      -0.487562      1.445847      0.991904
  P      -1.178886      0.370369      0.027914
  O      -1.320515      0.715709     -1.411926
  C       0.053602     -1.014390      0.292171
  C      -0.512449     -2.427374      0.108914
  F      -1.043364     -2.605136     -1.141521
  F       0.444472     -3.377974      0.282008
  F      -1.505982     -2.684104      1.012115
  N       1.163661     -0.800391     -0.627985
  C       2.212540      0.087552     -0.311020
  C       2.820789      0.811389     -1.354441
  C       3.881555      1.678031     -1.094795
  C       4.355092      1.851783      0.211288
  C       3.755711      1.130491      1.249453
  C       2.698621      0.253137      0.997917
  O      -2.550668      0.034251      0.795014
  C      -3.720525     -0.464511      0.047305
  C      -4.601666      0.694240     -0.393772
  H       0.426732      2.989416     -1.114189
  H       1.443618      3.198668      0.331974
  H       0.371121      4.518255     -0.201919
  H      -0.656082      3.332565      1.757263
  H      -1.642845      3.066574      0.298776
  H       0.398093     -0.958855      1.328052
  H       0.822206     -0.660853     -1.578173
  H       2.442489      0.699883     -2.370389
  H       4.331752      2.231029     -1.917749
  H       5.177509      2.534015      0.415398
  H       4.113675      1.247732      2.271214
  H       2.260080     -0.298395      1.825885
  H      -4.231782     -1.127218      0.753342
  H      -3.378353     -1.054633     -0.810129
  H      -4.070611      1.326590     -1.114172
  H      -4.903375      1.303536      0.467420
  H      -5.509232      0.305432     -0.876163
>
37
-1388.92047306; 31P isotropic shielding: 249.526546 ppm
  C      -0.971499      3.809670      0.582990
  C       0.070066      2.732060      0.324414
  O      -0.379823      1.441448      0.872369
  P      -1.117257      0.352945     -0.042508
  O      -1.290852      0.679996     -1.482627
  C       0.065700     -1.081318      0.193153
  C      -0.518786     -2.472729     -0.070186
  F      -0.989364     -2.596691     -1.349166
  F       0.409877     -3.450391      0.116844
  F      -1.561317     -2.740753      0.774016
  N       1.208914     -0.852985     -0.687739
  C       2.224705      0.054791     -0.319081
  C       2.704916      0.151503      0.999366
  C       3.721700      1.055416      1.312346
  C       4.288898      1.870211      0.325407
  C       3.823818      1.764272     -0.990423
  C       2.799410      0.872678     -1.310435
  O      -2.447628      0.061586      0.803850
  C      -3.670029     -0.414197      0.128772
  C      -4.537759      0.763754     -0.288099
  H      -1.199280      3.886243      1.653181
  H      -1.899219      3.594730      0.039120
  H      -0.589086      4.780948      0.239437
  H       0.268589      2.609674     -0.745278
  H       1.014680      2.933391      0.839488
  H       0.384290     -1.080156      1.239215
  H       0.894056     -0.698729     -1.645134
  H       2.291275     -0.477412      1.784126
  H       4.076505      1.118153      2.339959
  H       5.081900      2.571258      0.576815
  H       4.251224      2.388629     -1.773575
  H       2.424815      0.813949     -2.332212
  H      -4.162533     -1.047802      0.873534
  H      -3.393597     -1.031192     -0.733606
  H      -4.025794      1.367648     -1.045697
  H      -4.776244      1.396488      0.575730
  H      -5.479571      0.393812     -0.716764
>
37
-1388.92035724; 31P isotropic shielding: 248.571797 ppm
  C       0.484187      3.421890     -0.010280
  C      -0.620243      2.853254      0.867066
  O      -0.439637      1.401563      1.046623
  P      -1.171862      0.361470      0.073718
  O      -1.362401      0.754050     -1.348271
  C       0.060391     -1.036916      0.251978
  C      -0.514819     -2.440438      0.029008
  F       0.439900     -3.399797      0.165523
  F      -1.502279     -2.721836      0.931571
  F      -1.055786     -2.576854     -1.221614
  N       1.147572     -0.792990     -0.688079
  C       2.206942      0.081246     -0.368016
  C       2.790923      0.838569     -1.401504
  C       3.860254      1.693954     -1.139691
  C       4.367173      1.822356      0.159061
  C       3.792387      1.067202      1.187022
  C       2.726597      0.201222      0.932943
  O      -2.518036      0.007548      0.877518
  C      -3.722725     -0.441105      0.154503
  C      -4.606432      0.748300     -0.189793
  H       1.471459      3.182790      0.400595
  H       0.381906      4.515006     -0.062828
  H       0.418559      3.016395     -1.025086
  H      -0.588859      3.259798      1.883813
  H      -1.614366      3.044332      0.443721
  H       0.431736     -1.021989      1.279936
  H       0.782671     -0.621382     -1.624150
  H       2.386953      0.762154     -2.410813
  H       4.290974      2.273722     -1.954604
  H       5.196462      2.495589      0.365232
  H       4.176882      1.148568      2.202607
  H       2.307646     -0.377238      1.752645
  H      -4.213039     -1.134383      0.845867
  H      -3.423051     -0.988545     -0.746068
  H      -5.538335      0.395064     -0.652671
  H      -4.097033      1.410439     -0.899009
  H      -4.863570      1.315994      0.713228
>
37
-1388.92056431; 31P isotropic shielding: 249.553507 ppm
  C       0.664102      3.179622      0.870994
  C      -0.368984      2.547042     -0.044143
  O      -0.884960      1.332009      0.611496
  P      -1.370421      0.049512     -0.237087
  O      -1.603114      0.316754     -1.681290
  C       0.014831     -1.162622      0.047921
  C      -0.334948     -2.648454     -0.136813
  F       0.780821     -3.425830     -0.012182
  F      -1.227725     -3.074124      0.801512
  F      -0.871049     -2.899357     -1.365707
  N       1.079395     -0.767054     -0.864005
  C       2.171737      0.008492     -0.444343
  C       2.742029     -0.123571      0.835637
  C       3.835655      0.664385      1.202306
  C       4.392127      1.584737      0.307753
  C       3.839582      1.703032     -0.973271
  C       2.740828      0.929801     -1.346501
  O      -2.564606     -0.543938      0.640083
  C      -3.893817      0.095231      0.610113
  C      -4.740049     -0.463221     -0.524313
  H       1.514428      2.508254      1.026748
  H       0.223962      3.428412      1.844697
  H       1.036190      4.106160      0.413426
  H      -1.226149      3.210682     -0.214300
  H       0.055488      2.278871     -1.016953
  H       0.339690     -1.048789      1.085695
  H       0.720991     -0.514220     -1.783204
  H       2.348987     -0.851246      1.541794
  H       4.259895      0.549138      2.198501
  H       5.244085      2.194152      0.600821
  H       4.259803      2.410653     -1.686335
  H       2.307790      1.038356     -2.340885
  H      -3.763735      1.182440      0.527772
  H      -4.322795     -0.128737      1.592501
  H      -5.742875     -0.015320     -0.486308
  H      -4.842897     -1.550798     -0.429173
  H      -4.287993     -0.234355     -1.495356
>
37
-1388.92039105; 31P isotropic shielding: 252.949384 ppm
  C      -0.923110      3.679218     -0.194988
  C       0.019161      2.486215     -0.216681
  O      -0.570847      1.375343      0.548254
  P      -1.148208      0.055348     -0.175244
  O      -1.348112      0.191451     -1.641573
  C       0.132165     -1.227745      0.269761
  C      -0.284899     -2.692385      0.062678
  F      -1.388947     -3.012816      0.792107
  F      -0.558742     -2.961873     -1.247066
  F       0.714603     -3.538006      0.451161
  N       1.316580     -0.948181     -0.529982
  C       2.282004     -0.001537     -0.148608
  C       3.032603      0.636338     -1.156963
  C       4.015568      1.569165     -0.830539
  C       4.272098      1.895778      0.506829
  C       3.533167      1.260278      1.510192
  C       2.549855      0.319590      1.194732
  O      -2.393655     -0.344111      0.744086
  C      -3.643476      0.434523      0.682324
  C      -4.551089     -0.072985     -0.429073
  H      -0.448031      4.533802     -0.696211
  H      -1.160401      3.972993      0.835132
  H      -1.856628      3.449527     -0.723606
  H       0.213307      2.150783     -1.240360
  H       0.972119      2.702855      0.276615
  H       0.356975     -1.125518      1.334631
  H       1.106998     -0.933393     -1.525997
  H       2.830022      0.399251     -2.201447
  H       4.579084      2.050081     -1.628633
  H       5.035037      2.628151      0.761284
  H       3.720283      1.496854      2.556534
  H       1.993364     -0.151960      2.000248
  H      -3.393954      1.496281      0.555649
  H      -4.093518      0.301387      1.671903
  H      -4.773207     -1.137724     -0.289747
  H      -4.081087      0.063380     -1.409000
  H      -5.498184      0.484238     -0.409902
>
37
-1388.92047980; 31P isotropic shielding: 252.543772 ppm
  C      -0.989202      3.665958      0.016342
  C      -0.013433      2.503899     -0.080743
  O      -0.548140      1.343761      0.650257
  P      -1.151921      0.060304     -0.115887
  O      -1.428701      0.277366     -1.559864
  C       0.158873     -1.231704      0.192117
  C      -0.255818     -2.686076     -0.083060
  F      -0.580265     -2.882161     -1.394327
  F       0.764567     -3.543329      0.215394
  F      -1.327329     -3.058265      0.669929
  N       1.304061     -0.894027     -0.642338
  C       2.273122      0.046471     -0.252864
  C       2.970288      0.747762     -1.257293
  C       3.955729      1.675846     -0.924662
  C       4.267771      1.934303      0.415765
  C       3.581691      1.235986      1.414949
  C       2.596458      0.299618      1.092730
  O      -2.345527     -0.402722      0.841680
  C      -3.613730      0.347594      0.860654
  C      -4.565256     -0.161842     -0.212022
  H      -1.207328      3.908464      1.063946
  H      -1.928991      3.429209     -0.497782
  H      -0.553514      4.555203     -0.459743
  H       0.163254      2.219264     -1.122777
  H       0.946019      2.727555      0.396517
  H       0.431262     -1.191106      1.250038
  H       1.049089     -0.826321     -1.625547
  H       2.724718      0.563416     -2.303237
  H       4.477163      2.206704     -1.719711
  H       5.032579      2.662883      0.675525
  H       3.812484      1.419140      2.463297
  H       2.081242     -0.221180      1.895335
  H      -3.396505      1.417247      0.740997
  H      -4.008364      0.186642      1.869635
  H      -4.756898     -1.233515     -0.080685
  H      -4.148281      0.002091     -1.211566
  H      -5.522066      0.373463     -0.135600
>
37
-1388.92049610; 31P isotropic shielding: 252.333594 ppm
  C       0.797607      3.585132      0.939423
  C      -0.480922      2.942012      0.430602
  O      -0.455991      1.521339      0.814825
  P      -1.207935      0.408285     -0.056353
  O      -1.409218      0.690888     -1.503176
  C       0.022004     -0.975487      0.207303
  C      -0.544048     -2.392433      0.067022
  F       0.419812     -3.336385      0.242853
  F      -1.517074     -2.629556      0.999786
  F      -1.102202     -2.602094     -1.164547
  N       1.109122     -0.766114     -0.745223
  C       2.184753      0.085713     -0.413551
  C       2.798839      0.052632      0.851185
  C       3.876176      0.894679      1.131564
  C       4.373646      1.771947      0.160913
  C       3.774245      1.795356     -1.103697
  C       2.686223      0.968805     -1.388062
  O      -2.537948      0.121105      0.795883
  C      -3.743564     -0.417289      0.136419
  C      -4.644083      0.716707     -0.328832
  H       0.790815      4.655479      0.691681
  H       1.677406      3.125140      0.477290
  H       0.879520      3.484275      2.028475
  H      -1.374583      3.389995      0.884809
  H      -0.566274      3.003898     -0.660571
  H       0.393031     -0.893988      1.232616
  H       0.735034     -0.562011     -1.671815
  H       2.447214     -0.638535      1.614147
  H       4.336270      0.857049      2.117776
  H       5.215334      2.423630      0.385336
  H       4.144903      2.472415     -1.871841
  H       2.206106      1.011693     -2.365387
  H      -4.219545     -1.035951      0.904275
  H      -3.444159     -1.058518     -0.700145
  H      -4.143773      1.309536     -1.102756
  H      -4.911071      1.371457      0.510125
  H      -5.569968      0.302894     -0.751953
>
37
-1388.92092238; 31P isotropic shielding: 251.021990 ppm
  C       0.763885      3.629584      0.677601
  C      -0.474313      2.945544      0.124301
  O      -0.502297      1.570321      0.648093
  P      -1.206502      0.381655     -0.161173
  O      -1.328690      0.536723     -1.635924
  C       0.005733     -0.968808      0.289567
  C      -0.550078     -2.395502      0.234050
  F      -1.569161     -2.564427      1.131428
  F      -1.042665     -2.706292     -1.003922
  F       0.406163     -3.316341      0.533570
  N       1.146808     -0.832477     -0.611598
  C       2.205516      0.041803     -0.286527
  C       2.775044      0.834971     -1.300449
  C       3.848622      1.681467     -1.020339
  C       4.366122      1.768152      0.277313
  C       3.801646      0.979867      1.286830
  C       2.737750      0.118743      1.012975
  O      -2.579252      0.160489      0.640676
  C      -3.753612     -0.422599     -0.036165
  C      -4.640772      0.679330     -0.594486
  H       1.674307      3.121780      0.342408
  H       0.749240      3.637208      1.774241
  H       0.793073      4.669912      0.325576
  H      -1.397646      3.441866      0.451113
  H      -0.463775      2.898706     -0.970865
  H       0.315637     -0.799625      1.324394
  H       0.828893     -0.705530     -1.572271
  H       2.359101      0.792502     -2.306787
  H       4.272235      2.288057     -1.819344
  H       5.196552      2.435494      0.497499
  H       4.197889      1.027721      2.299945
  H       2.334172     -0.502698      1.809429
  H      -4.256476     -1.004529      0.743238
  H      -3.417253     -1.103151     -0.826354
  H      -5.549138      0.238322     -1.027925
  H      -4.115159      1.233244     -1.380641
  H      -4.940097      1.376617      0.197925
>
37
-1388.92096428; 31P isotropic shielding: 250.995610 ppm
  C       0.540936      3.212835      0.999606
  C      -0.444599      2.574584      0.037226
  O      -0.877327      1.288747      0.608893
  P      -1.358946      0.062798     -0.318314
  O      -1.556807      0.395628     -1.754066
  C       0.027648     -1.149674     -0.042911
  C      -0.298613     -2.625513     -0.322177
  F      -0.775985     -2.814671     -1.586320
  F       0.816431     -3.401723     -0.186922
  F      -1.230320     -3.106263      0.549974
  N       1.123677     -0.697247     -0.889239
  C       2.168221      0.098902     -0.391813
  C       2.746559      1.069644     -1.233982
  C       3.803342      1.861138     -0.784777
  C       4.302982      1.712015      0.514586
  C       3.736244      0.743842      1.350510
  C       2.684898     -0.061880      0.907442
  O      -2.594120     -0.572223      0.472500
  C      -3.978146     -0.241191      0.093658
  C      -4.368088      1.163694      0.533530
  H       1.436503      2.593910      1.113169
  H       0.083787      3.361568      1.985763
  H       0.845961      4.193366      0.609566
  H      -1.342056      3.192640     -0.095612
  H       0.000736      2.397064     -0.947175
  H       0.312113     -1.091851      1.011171
  H       0.800294     -0.418353     -1.813942
  H       2.353487      1.202781     -2.241902
  H       4.231669      2.607115     -1.452489
  H       5.121902      2.335130      0.867043
  H       4.119207      0.605204      2.360356
  H       2.282287     -0.824526      1.569923
  H      -4.577562     -1.005131      0.599000
  H      -4.073886     -0.367148     -0.991190
  H      -5.435392      1.326499      0.330131
  H      -3.800289      1.923545     -0.016821
  H      -4.193949      1.300945      1.607403
>
37
-1388.92038736; 31P isotropic shielding: 251.716840 ppm
  C       0.619392      3.146599      0.730592
  C      -0.407630      2.475205     -0.164245
  O      -0.956251      1.308425      0.549944
  P      -1.349491     -0.054780     -0.216803
  O      -1.524186      0.089251     -1.686559
  C       0.066174     -1.186515      0.215742
  C      -0.229930     -2.695188      0.193210
  F      -0.708745     -3.107703     -1.014666
  F       0.907188     -3.409335      0.447629
  F      -1.141923     -3.043280      1.144816
  N       1.133954     -0.856225     -0.717565
  C       2.218042     -0.043171     -0.351367
  C       2.771948      0.831517     -1.307547
  C       3.860154      1.640748     -0.982257
  C       4.415568      1.605712      0.302527
  C       3.874420      0.730929      1.250794
  C       2.792693     -0.093641      0.932593
  O      -2.559621     -0.623245      0.653701
  C      -3.899914     -0.016039      0.546708
  C      -4.694674     -0.646547     -0.587307
  H       1.004177      4.045810      0.230924
  H       1.463087      2.478741      0.931197
  H       0.168897      3.447865      1.684457
  H      -1.252543      3.139337     -0.385840
  H       0.028442      2.144624     -1.112465
  H       0.368909     -0.948267      1.239480
  H       0.781409     -0.681892     -1.657036
  H       2.334407      0.876575     -2.304819
  H       4.268952      2.311969     -1.735991
  H       5.259145      2.243392      0.557282
  H       4.303033      0.679117      2.250423
  H       2.412509     -0.788382      1.677915
  H      -3.788547      1.068516      0.416752
  H      -4.358325     -0.202738      1.523550
  H      -4.776010     -1.730739     -0.444626
  H      -4.215959     -0.452374     -1.553131
  H      -5.708151     -0.221872     -0.602712
>
37
-1388.92046540; 31P isotropic shielding: 253.073079 ppm
  C       0.456148      3.204759      0.859109
  C      -0.510000      2.489879     -0.068567
  O      -0.914516      1.230136      0.575645
  P      -1.416001     -0.042036     -0.277256
  O      -1.623868      0.211633     -1.727497
  C      -0.034754     -1.244251      0.062330
  C      -0.355247     -2.731301     -0.154802
  F       0.749403     -3.500188      0.077695
  F      -1.331023     -3.165652      0.692626
  F      -0.768484     -2.985446     -1.429623
  N       1.071179     -0.834536     -0.793784
  C       2.097631      0.006492     -0.332893
  C       2.672854      0.932666     -1.225614
  C       3.714634      1.763310     -0.813472
  C       4.201074      1.698690      0.497723
  C       3.636467      0.775392      1.384486
  C       2.600234     -0.068771      0.979347
  O      -2.649245     -0.621499      0.558669
  C      -4.033400     -0.282524      0.188512
  C      -4.400562      1.136699      0.601632
  H      -0.010127      3.401098      1.832588
  H       0.742468      4.167056      0.413482
  H       1.363850      2.612974      1.013107
  H      -1.420024      3.079451     -0.240484
  H      -0.056320      2.266350     -1.039767
  H       0.239862     -1.139461      1.115439
  H       0.759178     -0.617677     -1.738764
  H       2.289542      0.999572     -2.243802
  H       4.141362      2.473526     -1.520052
  H       5.008214      2.352373      0.820765
  H       4.009137      0.703132      2.405046
  H       2.198622     -0.795006      1.682136
  H      -4.636393     -1.026876      0.718299
  H      -4.144116     -0.431828     -0.891964
  H      -3.831027      1.877723      0.027937
  H      -4.210277      1.295433      1.669768
  H      -5.468475      1.307808      0.408600
>
37
-1388.92047888; 31P isotropic shielding: 251.841369 ppm
  C       0.409591      3.183628      0.916060
  C      -0.486767      1.969368      1.083053
  O      -0.699605      1.382874     -0.243218
  P      -1.369611     -0.057888     -0.485766
  O      -1.718400     -0.265725     -1.909947
  C      -0.045723     -1.227934      0.114927
  C      -0.429252     -2.716027      0.077281
  F       0.541594     -3.475644      0.669643
  F      -1.592471     -2.954862      0.752629
  F      -0.586379     -3.175393     -1.192414
  N       1.150452     -1.002135     -0.688833
  C       2.137131     -0.092596     -0.264156
  C       2.749016      0.756289     -1.205546
  C       3.755210      1.639769     -0.814887
  C       4.160588      1.711786      0.523457
  C       3.555160      0.868886      1.461699
  C       2.560057     -0.032867      1.076948
  O      -2.546355     -0.195671      0.600671
  C      -3.957674     -0.126285      0.181036
  C      -4.406322      1.315230     -0.014700
  H      -0.053007      3.915889      0.243176
  H       1.384108      2.894425      0.509551
  H       0.567416      3.660053      1.892989
  H      -0.015884      1.226035      1.740108
  H      -1.467113      2.231895      1.500112
  H       0.162265     -1.002568      1.165085
  H       0.930485     -0.924582     -1.680358
  H       2.415299      0.730219     -2.242379
  H       4.211936      2.289936     -1.559399
  H       4.937640      2.409233      0.828532
  H       3.868730      0.899898      2.504050
  H       2.137050     -0.710451      1.815816
  H      -4.502210     -0.618778      0.993209
  H      -4.070755     -0.711446     -0.738389
  H      -5.475816      1.336662     -0.265368
  H      -3.854739      1.788454     -0.835842
  H      -4.256844      1.901524      0.900570
>
37
-1388.91858882; 31P isotropic shielding: 259.235843 ppm
  C       0.550656      3.343947      0.757173
  C      -0.419457      2.629537     -0.166893
  O      -0.872214      1.400359      0.504883
  P      -1.343204      0.098927     -0.320471
  O      -1.527442      0.308486     -1.781136
  C       0.040978     -1.084795      0.070998
  C      -0.272700     -2.580576     -0.089100
  F      -0.686380     -2.885905     -1.352193
  F       0.836846     -3.334134      0.170890
  F      -1.244499     -2.987362      0.776340
  N       1.147971     -0.701530     -0.795773
  C       2.186574      0.133476     -0.352973
  C       2.769552      1.038204     -1.262720
  C       3.820569      1.864914     -0.866801
  C       4.309132      1.817829      0.444423
  C       3.737629      0.915062      1.347659
  C       2.692119      0.074359      0.959044
  O      -2.584067     -0.466446      0.512784
  C      -3.964758     -0.137403      0.119530
  C      -4.343715      1.283732      0.515119
  H       0.072648      3.583693      1.715086
  H       0.874384      4.283004      0.288365
  H       1.437004      2.730283      0.946084
  H      -1.310386      3.237779     -0.370462
  H       0.043158      2.366717     -1.123865
  H       0.310674     -0.937244      1.120320
  H       0.836452     -0.501760     -1.744626
  H       2.384464      1.091834     -2.281012
  H       4.252883      2.558661     -1.586242
  H       5.123718      2.468603      0.754365
  H       4.112375      0.855632      2.368290
  H       2.286311     -0.637411      1.674126
  H      -4.571665     -0.879916      0.647367
  H      -4.059258     -0.296859     -0.961024
  H      -3.767418      2.022332     -0.054826
  H      -4.171077      1.451682      1.584809
  H      -5.409057      1.448886      0.303560
>
37
-1388.92054585; 31P isotropic shielding: 251.842008 ppm
  C      -2.255070      3.391061      1.005796
  C      -0.952113      2.887427      0.401476
  O      -0.692204      1.487479      0.776786
  P      -1.294250      0.283698     -0.094176
  O      -1.515858      0.542603     -1.543115
  C       0.075210     -0.951188      0.191745
  C      -0.356191     -2.425281      0.163646
  F       0.717691     -3.255314      0.270356
  F      -1.198492     -2.717221      1.202273
  F      -1.009858     -2.751114     -0.993029
  N       1.095401     -0.677979     -0.805315
  C       2.338329     -0.122697     -0.460164
  C       2.972791      0.752877     -1.363643
  C       4.224091      1.292274     -1.067069
  C       4.865938      0.984403      0.138983
  C       4.239222      0.114132      1.036796
  C       2.992665     -0.444686      0.743717
  O      -2.589095     -0.166029      0.739728
  C      -3.704003     -0.863390      0.068067
  C      -4.783895      0.131433     -0.327063
  H      -2.257333      3.258569      2.094324
  H      -3.118901      2.861855      0.587836
  H      -2.369148      4.461520      0.785569
  H      -0.955541      2.956038     -0.692768
  H      -0.086246      3.432393      0.791416
  H       0.461311     -0.763696      1.199503
  H       0.702052     -0.322573     -1.674702
  H       2.471431      1.012088     -2.296074
  H       4.695531      1.967695     -1.779501
  H       5.839198      1.411102      0.371644
  H       4.728791     -0.147434      1.973696
  H       2.546588     -1.152219      1.438855
  H      -4.058783     -1.588373      0.807897
  H      -3.321182     -1.402949     -0.804669
  H      -4.406870      0.829970     -1.082927
  H      -5.132695      0.697211      0.545742
  H      -5.641909     -0.407186     -0.752736
