27
-1378.38100539; 31P isotropic shielding: 254.551959 ppm
  O      -2.583664      2.042811     -1.157775
  C      -2.510962      0.904133     -0.737777
  C      -1.786754     -0.236681     -1.464381
  P      -1.090348     -1.321105     -0.130991
  O      -1.386289     -2.785692     -0.230510
  C      -1.920425     -0.411304      1.259861
  C      -3.055783      0.437065      0.626172
  C      -3.564142      1.581302      1.504349
  C       0.690295     -0.942881     -0.037793
  C       1.590842     -2.015251      0.020426
  C       2.964303     -1.764026      0.099438
  C       3.446299     -0.452486      0.119181
  C       2.536052      0.607959      0.057346
  C       1.162552      0.379134     -0.021316
  Cl      3.133870      2.262653      0.077313
  H      -2.526492     -0.849067     -2.000733
  H      -1.055185      0.138919     -2.184728
  H      -1.192618      0.240417      1.761475
  H      -2.288215     -1.140130      1.990183
  H      -3.890005     -0.247452      0.390746
  H      -4.344358      2.152509      0.988597
  H      -2.749940      2.276506      1.745815
  H      -3.977866      1.194031      2.443474
  H       1.203513     -3.031393      0.000002
  H       3.667849     -2.593338      0.145256
  H       4.512082     -0.248140      0.179905
  H       0.484489      1.228208     -0.074637
>
27
-1378.38093609; 31P isotropic shielding: 253.969146 ppm
  O      -2.226776      2.057997     -1.116559
  C      -2.257015      0.931105     -0.657986
  C      -1.923932     -0.324833     -1.465462
  P      -1.182199     -1.506384     -0.258278
  O      -1.327244     -2.974626     -0.508274
  C      -2.139973     -0.822436      1.171973
  C      -2.590076      0.627331      0.825464
  C      -2.013009      1.705014      1.760200
  C       0.554552     -0.991121     -0.032500
  C       1.475307     -1.992135      0.316296
  C       2.813347     -1.660162      0.544020
  C       3.246674     -0.336483      0.424693
  C       2.323046      0.649543      0.067079
  C       0.982128      0.339434     -0.166209
  Cl      2.858974      2.316862     -0.100450
  H      -2.862665     -0.803525     -1.787251
  H      -1.324818     -0.098813     -2.351098
  H      -1.543713     -0.865575      2.089874
  H      -2.993199     -1.499796      1.302020
  H      -3.689846      0.678428      0.880442
  H      -2.378556      1.556353      2.783346
  H      -2.305386      2.704437      1.422221
  H      -0.916792      1.656499      1.779007
  H       1.133371     -3.021955      0.389845
  H       3.528686     -2.435582      0.812131
  H       4.285869     -0.069011      0.597766
  H       0.305043      1.135734     -0.460212
>
27
-1378.37983392; 31P isotropic shielding: 248.144443 ppm
  O      -3.018099      1.494694     -1.888737
  C      -2.772141      0.667257     -1.030244
  C      -2.200918     -0.720097     -1.323790
  P      -1.122181     -1.121935      0.118789
  O      -0.934513     -2.557839      0.494923
  C      -2.109764     -0.089297      1.298753
  C      -2.958612      0.932788      0.484852
  C      -2.684033      2.403620      0.838826
  C       0.454042     -0.246527     -0.166369
  C       0.553607      0.971125     -0.859436
  C       1.799419      1.587970     -1.005400
  C       2.949708      1.003009     -0.467781
  C       2.837846     -0.212431      0.213295
  C       1.604719     -0.846400      0.368296
  Cl      4.281780     -0.961471      0.882057
  H      -3.014849     -1.461519     -1.283704
  H      -1.726924     -0.771281     -2.307060
  H      -1.447904      0.404049      2.018877
  H      -2.736483     -0.795320      1.857016
  H      -4.025714      0.727375      0.671984
  H      -1.620339      2.641908      0.708669
  H      -2.952167      2.600774      1.883690
  H      -3.264800      3.070809      0.193635
  H      -0.320910      1.441070     -1.301321
  H       1.879378      2.528645     -1.547146
  H       3.921918      1.475890     -0.579825
  H       1.527233     -1.801268      0.881851
>
27
-1378.37820585; 31P isotropic shielding: 249.381462 ppm
  O      -3.094310      2.075855     -1.346172
  C      -2.851877      1.002391     -0.827906
  C      -1.974524     -0.082647     -1.460668
  P      -1.045643     -0.849531     -0.050139
  O      -1.005577     -2.345027      0.004902
  C      -2.042303     -0.004087      1.273440
  C      -3.303299      0.591872      0.587587
  C      -3.975297      1.724838      1.364829
  C       0.602699     -0.071428     -0.055332
  C       0.777185      1.313263     -0.212038
  C       2.064523      1.854794     -0.205141
  C       3.180718      1.026959     -0.041899
  C       2.991273     -0.348878      0.111224
  C       1.713070     -0.910722      0.104914
  Cl      4.390532     -1.394804      0.313530
  H      -2.618348     -0.878033     -1.864543
  H      -1.350346      0.310105     -2.267236
  H      -1.443788      0.794191      1.731252
  H      -2.287514     -0.736498      2.050106
  H      -4.022189     -0.233087      0.439798
  H      -4.844393      2.110516      0.820080
  H      -3.278058      2.559608      1.511006
  H      -4.306878      1.374411      2.349850
  H      -0.079445      1.971385     -0.347822
  H       2.206396      2.926727     -0.329688
  H       4.185771      1.440671     -0.035589
  H       1.568624     -1.982345      0.217057
>
27
-1378.38087041; 31P isotropic shielding: 255.226872 ppm
  O      -2.422230      2.063924     -1.146573
  C      -2.412648      0.931173     -0.704313
  C      -1.783666     -0.269042     -1.420842
  P      -1.073971     -1.334453     -0.078265
  O      -1.392362     -2.796410     -0.135157
  C      -1.852063     -0.375624      1.311307
  C      -2.948794      0.528825      0.683957
  C      -3.360224      1.722131      1.547643
  C       0.713586     -0.978335     -0.039731
  C       1.601779     -2.061175      0.016432
  C       2.980023     -1.826421      0.053520
  C       3.478615     -0.521226      0.033601
  C       2.580767      0.549998     -0.025696
  C       1.202958      0.337509     -0.063356
  Cl      3.199966      2.196572     -0.054814
  H      -2.580077     -0.866130     -1.889163
  H      -1.073221      0.038223     -2.192583
  H      -1.090044      0.239723      1.807340
  H      -2.252973     -1.082421      2.045829
  H      -3.830649     -0.105766      0.486452
  H      -3.773084      1.381858      2.505205
  H      -4.115497      2.331117      1.038194
  H      -2.496864      2.367726      1.752994
  H       1.201234     -3.072319      0.027249
  H       3.674415     -2.663499      0.097444
  H       4.548174     -0.329757      0.061922
  H       0.534449      1.194097     -0.116694
>
27
-1378.38103473; 31P isotropic shielding: 254.587199 ppm
  O      -2.338854      2.144710     -1.085175
  C      -2.340546      1.009340     -0.649845
  C      -1.736893     -0.195487     -1.382390
  P      -1.051151     -1.295457     -0.056411
  O      -1.426529     -2.743458     -0.119387
  C      -1.779777     -0.321610      1.348795
  C      -2.868185      0.605113      0.740875
  C      -3.252022      1.798195      1.617733
  C       0.749154     -1.010628     -0.037675
  C       1.593674     -2.128854     -0.005084
  C       2.980593     -1.950192      0.013007
  C       3.531232     -0.665834     -0.002457
  C       2.676438      0.440985     -0.037685
  C       1.290588      0.284683     -0.056143
  Cl      3.360865      2.061867     -0.060916
  H      -2.546105     -0.766562     -1.861086
  H      -1.020190      0.108843     -2.149617
  H      -0.996058      0.277726      1.830645
  H      -2.181347     -1.020986      2.089988
  H      -3.761870     -0.014225      0.547602
  H      -3.999201      2.425127      1.118206
  H      -2.375436      2.426098      1.822093
  H      -3.664437      1.457982      2.575471
  H       1.152651     -3.123031      0.002515
  H       3.640788     -2.815259      0.038343
  H       4.607948     -0.517723      0.010901
  H       0.656671      1.168138     -0.091103
>
27
-1378.38109429; 31P isotropic shielding: 254.390204 ppm
  O      -2.407663      2.081655     -1.138237
  C      -2.399179      0.949411     -0.694843
  C      -1.778705     -0.253522     -1.414006
  P      -1.069360     -1.323114     -0.074592
  O      -1.400402     -2.782591     -0.128623
  C      -1.831974     -0.357439      1.318474
  C      -2.928998      0.550171      0.696651
  C      -3.330726      1.745973      1.561519
  C       0.721329     -0.982690     -0.047268
  C       1.600192     -2.073217      0.003983
  C       2.980583     -1.850708      0.031471
  C       3.490706     -0.550056      0.006821
  C       2.601897      0.528881     -0.047339
  C       1.222102      0.328700     -0.075427
  Cl      3.235317      2.169889     -0.082228
  H      -2.579819     -0.846514     -1.879464
  H      -1.069793      0.050842     -2.188295
  H      -1.063566      0.255806      1.807213
  H      -2.230691     -1.060593      2.057653
  H      -3.814137     -0.081527      0.504723
  H      -2.463665      2.388543      1.760478
  H      -3.738682      1.408438      2.522130
  H      -4.086927      2.357057      1.056015
  H       1.190815     -3.080763      0.018541
  H       3.667802     -2.693884      0.071427
  H       4.562060     -0.368016      0.027584
  H       0.560783      1.191068     -0.125060
>
27
-1378.38106877; 31P isotropic shielding: 254.439962 ppm
  O      -3.115003      2.104133     -1.207403
  C      -2.878235      1.008411     -0.734891
  C      -2.022521     -0.060687     -1.421107
  P      -1.071597     -0.879412     -0.054817
  O      -1.022928     -2.375585     -0.060274
  C      -2.053181     -0.091682      1.314889
  C      -3.314595      0.548698      0.670404
  C      -3.957259      1.660055      1.501946
  C       0.572714     -0.092695     -0.052604
  C       0.738475      1.298027     -0.157127
  C       2.023346      1.845414     -0.148497
  C       3.145667      1.017537     -0.035108
  C       2.964902     -0.364218      0.066512
  C       1.689299     -0.931904      0.057484
  Cl      4.371903     -1.410062      0.205849
  H      -2.679493     -0.838903     -1.837131
  H      -1.411033      0.354207     -2.226230
  H      -1.445076      0.676935      1.809297
  H      -2.299505     -0.860396      2.055394
  H      -4.048071     -0.258953      0.500827
  H      -3.245120      2.478671      1.666637
  H      -4.275701      1.276601      2.478958
  H      -4.830455      2.078393      0.988798
  H      -0.122886      1.956694     -0.254611
  H       2.158355      2.922112     -0.233102
  H       4.148824      1.435825     -0.028018
  H       1.551376     -2.007818      0.129524
>
27
-1378.38093542; 31P isotropic shielding: 255.400291 ppm
  O      -3.107158      2.061647     -1.294452
  C      -2.862047      0.998721     -0.755930
  C      -2.022594     -0.115930     -1.389183
  P      -1.060884     -0.864113      0.009231
  O      -1.049458     -2.358083      0.101720
  C      -1.994410      0.035370      1.342551
  C      -3.269376      0.633331      0.684969
  C      -3.897108      1.796565      1.454785
  C       0.601971     -0.122303     -0.072674
  C       0.799024      1.255667     -0.260085
  C       2.096554      1.769793     -0.313044
  C       3.200915      0.920847     -0.179717
  C       2.988893     -0.447943      0.004212
  C       1.700116     -0.982646      0.058279
  Cl      4.373346     -1.520226      0.168912
  H      -2.690709     -0.910678     -1.752723
  H      -1.419370      0.247803     -2.224872
  H      -1.366231      0.836159      1.753898
  H      -2.222037     -0.670679      2.148373
  H      -4.006102     -0.183186      0.585259
  H      -4.205911      1.475321      2.457023
  H      -4.774564      2.186451      0.926671
  H      -3.180670      2.621124      1.561706
  H      -0.048454      1.929728     -0.373651
  H       2.255280      2.836373     -0.461026
  H       4.213867      1.312843     -0.219679
  H       1.537917     -2.048754      0.195646
>
27
-1378.38087842; 31P isotropic shielding: 255.127473 ppm
  O      -3.985874      0.983155     -1.409882
  C      -3.001380      0.627598     -0.793517
  C      -1.756277      0.007646     -1.440381
  P      -1.083324     -1.159902     -0.180888
  O      -1.458103     -2.597962     -0.363288
  C      -1.866772     -0.301752      1.271680
  C      -2.859888      0.767923      0.738599
  C      -2.408109      2.213982      1.052616
  C       0.720676     -0.897352     -0.087457
  C       1.554752     -2.007037     -0.284020
  C       2.943436     -1.850886     -0.226673
  C       3.507989     -0.597702      0.026171
  C       2.664180      0.500135      0.223501
  C       1.277431      0.364280      0.170936
  Cl      3.362791      2.083150      0.548231
  H      -1.990648     -0.481776     -2.389879
  H      -1.025203      0.807789     -1.628178
  H      -1.102749      0.131178      1.927267
  H      -2.379889     -1.089793      1.835170
  H      -3.860396      0.617634      1.161849
  H      -1.420363      2.427238      0.621128
  H      -2.340119      2.362518      2.137256
  H      -3.122469      2.937936      0.644140
  H       1.103313     -2.977648     -0.476545
  H       3.594771     -2.709628     -0.378673
  H       4.586081     -0.467696      0.073039
  H       0.651841      1.238672      0.335897
>
27
-1378.37799965; 31P isotropic shielding: 246.138574 ppm
  O      -2.301683      2.291029     -1.196248
  C      -2.318770      1.154361     -0.764743
  C      -1.707806     -0.051496     -1.489314
  P      -1.064142     -1.166220     -0.154434
  O      -1.455641     -2.609262     -0.233044
  C      -1.810013     -0.189087      1.239487
  C      -2.877747      0.748584      0.613148
  C      -3.270511      1.941225      1.486830
  C       0.738926     -0.903894     -0.095086
  C       1.568245     -2.032887     -0.048651
  C       2.956534     -1.872078      0.001223
  C       3.523586     -0.594816      0.003795
  C       2.683843      0.523018     -0.045555
  C       1.296959      0.384439     -0.095657
  Cl      3.389179      2.134925     -0.046172
  H      -2.509549     -0.611580     -1.992909
  H      -0.969155      0.251133     -2.236230
  H      -1.029500      0.401787      1.736823
  H      -2.232264     -0.885197      1.972229
  H      -3.772273      0.137450      0.398414
  H      -4.006041      2.573351      0.976695
  H      -2.394377      2.563979      1.708127
  H      -3.701081      1.600005      2.436201
  H       1.114643     -3.021407     -0.055328
  H       3.605096     -2.745518      0.037469
  H       4.601509     -0.460436      0.041826
  H       0.674831      1.275793     -0.140397
>
27
-1378.38111828; 31P isotropic shielding: 254.274956 ppm
  O      -4.269173      1.439463     -0.952272
  C      -3.270972      0.990142     -0.425631
  C      -1.873003      1.022030     -1.055349
  P      -1.032777     -0.505983     -0.452328
  O      -1.032137     -1.664766     -1.399870
  C      -2.110943     -0.703925      1.050696
  C      -3.265997      0.331928      0.971826
  C      -3.142248      1.449912      2.033767
  C       0.642000     -0.040274      0.104057
  C       0.878535      0.966168      1.053103
  C       2.186987      1.272665      1.433120
  C       3.266448      0.580077      0.873913
  C       3.016872     -0.421850     -0.067641
  C       1.715747     -0.742221     -0.460263
  Cl      4.368736     -1.297958     -0.771724
  H      -1.916495      1.081198     -2.146328
  H      -1.341406      1.906264     -0.673950
  H      -1.524526     -0.606332      1.971266
  H      -2.485529     -1.733198      1.001922
  H      -4.239737     -0.157256      1.095200
  H      -3.170652      1.019413      3.042348
  H      -3.964920      2.167934      1.937596
  H      -2.196381      1.998960      1.928813
  H       0.049549      1.510430      1.502406
  H       2.374162      2.052336      2.169308
  H       4.288136      0.810753      1.164098
  H       1.522925     -1.524212     -1.190383
>
27
-1378.37752373; 31P isotropic shielding: 246.779802 ppm
  O      -4.080553      1.013684     -1.488015
  C      -3.049883      0.696005     -0.928970
  C      -1.861360      0.024570     -1.627191
  P      -1.102897     -1.065286     -0.347513
  O      -1.516619     -2.503560     -0.393761
  C      -1.749753     -0.090511      1.098150
  C      -2.786553      0.940950      0.573446
  C      -2.320712      2.404707      0.754785
  C       0.706695     -0.841572     -0.421844
  C       1.501021     -1.984419     -0.588913
  C       2.892378     -1.859624     -0.653009
  C       3.498889     -0.604612     -0.550815
  C       2.694260      0.527024     -0.382043
  C       1.305414      0.422878     -0.315342
  Cl      3.446359      2.112813     -0.247586
  H      -2.167630     -0.519481     -2.524888
  H      -1.142154      0.805562     -1.915466
  H      -0.928328      0.386551      1.644965
  H      -2.209283     -0.827512      1.767028
  H      -3.749778      0.819666      1.083793
  H      -1.367937      2.590849      0.239537
  H      -2.174543      2.626270      1.819128
  H      -3.067354      3.099180      0.352778
  H       1.016431     -2.955270     -0.664037
  H       3.513260     -2.744263     -0.782410
  H       4.579553     -0.498700     -0.598798
  H       0.710279      1.322901     -0.177709
>
27
-1378.37802584; 31P isotropic shielding: 246.183194 ppm
  O      -4.035965      1.005480     -1.499138
  C      -3.019087      0.681059     -0.919211
  C      -1.815092      0.014395     -1.595245
  P      -1.089497     -1.089131     -0.307976
  O      -1.507523     -2.525251     -0.373711
  C      -1.762509     -0.121187      1.130028
  C      -2.791369      0.911521      0.591858
  C      -2.335195      2.374885      0.798488
  C       0.722048     -0.870140     -0.342084
  C       1.517157     -2.014136     -0.498523
  C       2.910037     -1.892334     -0.532299
  C       3.517101     -0.639467     -0.410165
  C       2.711741      0.493175     -0.252214
  C       1.321546      0.392105     -0.215892
  Cl      3.464907      2.076422     -0.092587
  H      -2.099285     -0.519068     -2.506417
  H      -1.087163      0.796955     -1.856168
  H      -0.950718      0.354931      1.691875
  H      -2.231764     -0.860912      1.789122
  H      -3.765693      0.780913      1.078205
  H      -3.073821      3.070833      0.384367
  H      -1.370712      2.567815      0.308134
  H      -2.215746      2.587360      1.867992
  H       1.032348     -2.983503     -0.589356
  H       3.530995     -2.778057     -0.653586
  H       4.598791     -0.535817     -0.434563
  H       0.726470      1.293351     -0.086037
>
27
-1378.37824444; 31P isotropic shielding: 246.330953 ppm
  O      -4.017396      1.002850     -1.490931
  C      -3.007697      0.672747     -0.901602
  C      -1.796122      0.011503     -1.569394
  P      -1.083755     -1.100950     -0.282847
  O      -1.498623     -2.536985     -0.365940
  C      -1.774504     -0.146120      1.155159
  C      -2.798217      0.889879      0.613941
  C      -2.346921      2.351952      0.838851
  C       0.727661     -0.879030     -0.292699
  C       1.527295     -2.019633     -0.448596
  C       2.920266     -1.894609     -0.463358
  C       3.523042     -0.641556     -0.322855
  C       2.712914      0.487872     -0.165918
  C       1.322601      0.383671     -0.148372
  Cl      3.460038      2.071477      0.016641
  H      -2.071109     -0.515662     -2.487023
  H      -1.065463      0.795831     -1.817139
  H      -0.969053      0.326069      1.729360
  H      -2.250140     -0.891287      1.803395
  H      -3.778165      0.753052      1.087218
  H      -2.241213      2.555722      1.911487
  H      -3.080959      3.050628      0.421186
  H      -1.376573      2.549641      0.362150
  H       1.046162     -2.989397     -0.553882
  H       3.544708     -2.777965     -0.584067
  H       4.604715     -0.535524     -0.332271
  H       0.724206      1.282725     -0.018695
>
27
-1378.37850285; 31P isotropic shielding: 246.275769 ppm
  O      -3.929920      0.940382     -1.364760
  C      -2.964482      0.576775     -0.723395
  C      -1.695891     -0.026289     -1.339280
  P      -1.077304     -1.230973     -0.087416
  O      -1.455422     -2.660006     -0.324754
  C      -1.910916     -0.407830      1.357062
  C      -2.872823      0.685620      0.814865
  C      -2.413659      2.118970      1.172658
  C       0.723847     -0.989084      0.080101
  C       1.553998     -2.101281     -0.117337
  C       2.941034     -1.961516     -0.005863
  C       3.508100     -0.721669      0.301968
  C       2.667674      0.378710      0.499729
  C       1.282380      0.259132      0.393887
  Cl      3.368627      1.944896      0.893553
  H      -1.892400     -0.487592     -2.311068
  H      -0.957600      0.778266     -1.472793
  H      -1.170158     -0.001618      2.055215
  H      -2.453755     -1.206187      1.876348
  H      -3.888402      0.539210      1.202088
  H      -1.409656      2.327576      0.777970
  H      -2.379509      2.245407      2.261731
  H      -3.104683      2.860897      0.756232
  H       1.100972     -3.061554     -0.353288
  H       3.588998     -2.822705     -0.158620
  H       4.584965     -0.604269      0.390874
  H       0.659586      1.135031      0.561092
>
27
-1378.37785798; 31P isotropic shielding: 246.341807 ppm
  O      -3.595460      1.996708     -0.504221
  C      -2.866958      1.054070     -0.265857
  C      -1.812520      0.527589     -1.261533
  P      -1.118672     -1.039564     -0.568904
  O      -1.042498     -2.212280     -1.496213
  C      -2.362431     -1.151080      0.795500
  C      -2.892192      0.277229      1.064805
  C      -2.055738      1.060726      2.105713
  C       0.490099     -0.602372      0.184465
  C       0.877636     -1.117479      1.431058
  C       2.153170     -0.854374      1.937437
  C       3.059346     -0.078906      1.209391
  C       2.671099      0.421402     -0.036585
  C       1.402317      0.165573     -0.556751
  Cl      3.802795      1.392497     -0.968488
  H      -2.295179      0.312225     -2.223821
  H      -1.063895      1.307294     -1.440643
  H      -1.975043     -1.642599      1.693657
  H      -3.155882     -1.793215      0.389172
  H      -3.934352      0.251227      1.408410
  H      -2.478755      2.060595      2.254800
  H      -1.010566      1.169665      1.793076
  H      -2.064731      0.531952      3.067305
  H       0.191184     -1.729416      2.010678
  H       2.447604     -1.255053      2.905680
  H       4.052466      0.134320      1.595811
  H       1.142155      0.555667     -1.537541
>
27
-1378.37463443; 31P isotropic shielding: 239.511541 ppm
  O      -2.019021      2.229873     -0.937706
  C      -2.170769      1.077050     -0.578673
  C      -1.735426     -0.137284     -1.398301
  P      -1.159743     -1.379907     -0.159476
  O      -1.312204     -2.830830     -0.492537
  C      -2.241000     -0.725857      1.199058
  C      -2.779845      0.678826      0.787592
  C      -2.576806      1.770000      1.848368
  C       0.556755     -0.923472      0.259791
  C       1.482391     -1.967048      0.408704
  C       2.804290     -1.680063      0.761496
  C       3.213483     -0.359713      0.967275
  C       2.282274      0.671687      0.811532
  C       0.958733      0.407566      0.457656
  Cl      2.787263      2.338185      1.062617
  H      -2.621677     -0.592246     -1.868410
  H      -1.015294      0.125787     -2.176742
  H      -1.681288     -0.688021      2.140170
  H      -3.047283     -1.458280      1.322790
  H      -3.860723      0.585527      0.586716
  H      -1.512744      1.876172      2.097306
  H      -3.118352      1.516801      2.767746
  H      -2.935058      2.737922      1.482945
  H       1.154185     -2.989968      0.239170
  H       3.524825     -2.487845      0.876397
  H       4.239247     -0.126612      1.240940
  H       0.272586      1.240650      0.334476
>
27
-1378.37859639; 31P isotropic shielding: 251.504980 ppm
  O      -2.047928      2.214473     -0.973606
  C      -2.173930      1.066512     -0.589870
  C      -1.773909     -0.156853     -1.414890
  P      -1.168487     -1.399109     -0.191347
  O      -1.343002     -2.850842     -0.510637
  C      -2.200645     -0.731784      1.197458
  C      -2.713446      0.689161      0.811972
  C      -2.405481      1.775434      1.853683
  C       0.564086     -0.954292      0.171432
  C       1.471958     -2.007540      0.358720
  C       2.805892     -1.730306      0.671065
  C       3.245649     -0.409711      0.798267
  C       2.332319      0.630913      0.604250
  C       0.996803      0.376486      0.289963
  Cl      2.875819      2.297724      0.753705
  H      -2.678376     -0.605738     -1.855438
  H      -1.078134      0.097279     -2.218170
  H      -1.619312     -0.719389      2.126055
  H      -3.021617     -1.445950      1.331928
  H      -3.807121      0.636223      0.678371
  H      -2.906324      1.549226      2.802646
  H      -2.741435      2.756254      1.501908
  H      -1.325746      1.834652      2.043342
  H       1.121533     -3.031134      0.247893
  H       3.512268     -2.545958      0.814693
  H       4.281198     -0.184074      1.039321
  H       0.326768      1.216843      0.132482
>
27
-1378.37845033; 31P isotropic shielding: 250.627232 ppm
  O      -2.596382      2.217257     -1.395124
  C      -2.557681      1.082667     -0.959313
  C      -1.925388     -0.103725     -1.697072
  P      -1.169220     -1.164845     -0.377369
  O      -1.469077     -2.630531     -0.434115
  C      -1.929345     -0.225205      1.035188
  C      -3.055095      0.662908      0.438150
  C      -3.469749      1.843785      1.317538
  C       0.613978     -0.785648     -0.378950
  C       1.517267     -1.856891     -0.350985
  C       2.892884     -1.604393     -0.344130
  C       3.373958     -0.292603     -0.365933
  C       2.460881      0.767034     -0.396415
  C       1.085289      0.536923     -0.404069
  Cl      3.057769      2.421876     -0.426606
  H      -2.722467     -0.710133     -2.152033
  H      -1.237586      0.219806     -2.482647
  H      -1.165499      0.399437      1.516864
  H      -2.300006     -0.942880      1.775078
  H      -3.929341      0.013291      0.255426
  H      -4.254501      2.435265      0.832565
  H      -2.616495      2.509753      1.498674
  H      -3.845457      1.491526      2.285990
  H       1.129769     -2.873128     -0.337865
  H       3.598654     -2.432823     -0.322662
  H       4.441348     -0.087503     -0.360772
  H       0.405194      1.385476     -0.435010
