32
-846.99717858; 31P isotropic shielding: 209.587034 ppm
  C       4.170482      1.144187     -0.777611
  C       2.948909      0.345759     -0.418453
  C       2.799604     -0.972549     -0.638457
  C       1.516526     -1.636587     -0.200491
  P       0.596783     -0.301933      0.711255
  O       0.400490     -0.527321      2.182124
  C       1.785952      1.049518      0.255925
  C      -0.972581      0.003844     -0.207839
  C      -1.913637     -1.216903     -0.074729
  C      -3.261455     -0.974839     -0.780413
  C      -3.944706      0.306647     -0.270016
  C      -3.013380      1.525033     -0.402637
  C      -1.664812      1.288683      0.304567
  H       4.935536      0.519417     -1.254116
  H       3.918050      1.966430     -1.464784
  H       4.611090      1.608525      0.117805
  H       3.584559     -1.565788     -1.109875
  H       1.683139     -2.479178      0.485407
  H       0.931884     -2.021253     -1.049483
  H       2.091312      1.574856      1.172295
  H       1.324794      1.798341     -0.405708
  H      -0.697392      0.138423     -1.268723
  H      -2.084114     -1.409305      0.994587
  H      -1.434024     -2.117300     -0.483765
  H      -3.094198     -0.889795     -1.866815
  H      -3.918560     -1.843303     -0.630692
  H      -4.218979      0.173747      0.788901
  H      -4.881188      0.482856     -0.818090
  H      -3.496415      2.421720      0.011081
  H      -2.832717      1.728899     -1.470886
  H      -1.010269      2.159788      0.160504
  H      -1.825783      1.190979      1.388232
>
32
-847.00642434; 31P isotropic shielding: 212.693069 ppm
  C       3.815458      1.328528     -1.279467
  C       2.795011      0.431237     -0.638238
  C       2.643140     -0.877827     -0.908303
  C       1.587284     -1.648570     -0.153596
  P       0.652922     -0.346673      0.791312
  O       0.370755     -0.621080      2.239254
  C       1.864636      1.008961      0.411079
  C      -0.861210      0.015436     -0.201243
  C      -1.829156     -1.191020     -0.158642
  C      -3.128820     -0.903866     -0.934268
  C      -3.822199      0.371764     -0.423769
  C      -2.865369      1.576491     -0.460534
  C      -1.564909      1.292487      0.316011
  H       4.488940      1.759439     -0.522828
  H       4.424227      0.788079     -2.014504
  H       3.332378      2.177733     -1.786890
  H       3.271954     -1.386937     -1.640389
  H       2.016618     -2.355022      0.572694
  H       0.927603     -2.229331     -0.812314
  H       2.396533      1.266059      1.339622
  H       1.367470      1.925808      0.065480
  H      -0.526286      0.179323     -1.240472
  H      -2.064984     -1.410702      0.892846
  H      -1.344344     -2.088720     -0.566368
  H      -2.895052     -0.787443     -2.005311
  H      -3.806516     -1.765599     -0.852442
  H      -4.161460      0.209941      0.612043
  H      -4.721397      0.581380     -1.020434
  H      -3.356994      2.467676     -0.044960
  H      -2.618290      1.812400     -1.508627
  H      -0.893518      2.159118      0.242987
  H      -1.792124      1.158830      1.383869
>
32
-847.00658612; 31P isotropic shielding: 209.886216 ppm
  C       3.623714      0.456289     -1.857635
  C       2.607714      0.002875     -0.847803
  C       2.251656     -1.277253     -0.637190
  C       1.228999     -1.574651      0.432476
  P       0.680105      0.098562      1.027861
  O       0.700162      0.322980      2.511157
  C       1.928708      1.038720      0.027201
  C      -0.965564      0.441039      0.264662
  C      -1.040991      0.193994     -1.257552
  C      -2.440902      0.539062     -1.805562
  C      -3.548902     -0.225092     -1.057771
  C      -3.468854      0.014540      0.461036
  C      -2.074527     -0.330454      1.017472
  H       4.044568     -0.389375     -2.414825
  H       3.176864      1.158127     -2.578722
  H       4.450175      0.994757     -1.369116
  H       2.696112     -2.094212     -1.207830
  H       1.655831     -2.115468      1.290119
  H       0.386899     -2.176199      0.062435
  H       2.634001      1.519205      0.721907
  H       1.463969      1.842979     -0.561853
  H      -1.114717      1.519143      0.452194
  H      -0.824531     -0.863839     -1.469886
  H      -0.278465      0.780919     -1.786168
  H      -2.611733      1.622628     -1.699719
  H      -2.483378      0.317741     -2.881610
  H      -3.444303     -1.303840     -1.260197
  H      -4.536495      0.070142     -1.439600
  H      -4.234438     -0.577719      0.982008
  H      -3.690473      1.072650      0.674894
  H      -2.014045     -0.108244      2.089415
  H      -1.902458     -1.413804      0.907903
>
32
-847.00613097; 31P isotropic shielding: 211.970219 ppm
  C       3.272245      2.100142     -0.530811
  C       2.476375      0.840640     -0.336807
  C       2.531861     -0.235549     -1.142124
  C       1.685244     -1.436166     -0.796560
  P       0.664283     -0.883868      0.654294
  O       0.643361     -1.789936      1.849854
  C       1.546789      0.736929      0.857433
  C      -1.020181     -0.508189     -0.001166
  C      -1.937606     -0.009002      1.139310
  C      -3.375630      0.219303      0.636561
  C      -3.410710      1.173779     -0.571044
  C      -2.492404      0.679691     -1.703780
  C      -1.048980      0.452553     -1.209724
  H       2.609088      2.972892     -0.633726
  H       3.914390      2.296707      0.341356
  H       3.908900      2.043039     -1.422012
  H       3.182139     -0.260691     -2.017933
  H       2.285955     -2.300676     -0.476520
  H       1.056942     -1.775746     -1.632692
  H       2.098551      0.708513      1.809036
  H       0.851761      1.586433      0.918169
  H      -1.393544     -1.494346     -0.329358
  H      -1.541219      0.939643      1.537112
  H      -1.921350     -0.728827      1.966101
  H      -3.813464     -0.749899      0.347560
  H      -3.997367      0.613365      1.452948
  H      -3.081649      2.175990     -0.250111
  H      -4.440213      1.285548     -0.939638
  H      -2.490940      1.398451     -2.535623
  H      -2.887694     -0.267070     -2.106092
  H      -0.430027      0.065830     -2.029694
  H      -0.613904      1.421317     -0.920121
>
32
-847.00627173; 31P isotropic shielding: 211.748537 ppm
  C       3.328633      1.943495     -0.410274
  C       2.484196      0.709295     -0.265031
  C       2.500260     -0.337155     -1.110197
  C       1.608066     -1.516958     -0.810847
  P       0.611275     -0.984714      0.664057
  O       0.564578     -1.933455      1.825560
  C       1.549447      0.596293      0.924332
  C      -1.062164     -0.530606      0.031170
  C      -1.960440     -0.049127      1.194136
  C      -3.392073      0.242477      0.706422
  C      -3.401084      1.244399     -0.462618
  C      -2.501660      0.767313     -1.617583
  C      -1.064598      0.477190     -1.138442
  H       3.965445      1.895437     -1.301890
  H       2.700100      2.844576     -0.481241
  H       3.974967      2.081923      0.469888
  H       3.151328     -0.354562     -1.985619
  H       2.175053     -2.416599     -0.528603
  H       0.965181     -1.796726     -1.657969
  H       2.098427      0.514651      1.874420
  H       0.884683      1.467197      1.014697
  H      -1.466477     -1.491243     -0.334056
  H      -1.533840      0.870328      1.627761
  H      -1.963676     -0.801330      1.991739
  H      -3.860076     -0.700820      0.381276
  H      -3.999238      0.622797      1.540101
  H      -3.039821      2.222278     -0.103583
  H      -4.427653      1.402720     -0.822185
  H      -2.480757      1.517564     -2.420901
  H      -2.927168     -0.150299     -2.055123
  H      -0.459762      0.104595     -1.975325
  H      -0.599754      1.420062     -0.812073
>
32
-847.00626290; 31P isotropic shielding: 211.746201 ppm
  C       4.041319      1.110344     -0.676218
  C       2.845919      0.310047     -0.242091
  C       2.698429     -1.014475     -0.425538
  C       1.443751     -1.674872      0.092091
  P       0.366988     -0.259103      0.639327
  O      -0.276854     -0.386637      1.989980
  C       1.710612      1.014888      0.475389
  C      -0.783295      0.058466     -0.775168
  C      -1.791796     -1.099928     -0.988247
  C      -2.903404     -1.132664      0.079173
  C      -3.632591      0.220253      0.169488
  C      -2.644747      1.372130      0.430042
  C      -1.531472      1.409288     -0.635859
  H       4.788602      0.481689     -1.175451
  H       3.747171      1.914795     -1.367779
  H       4.520720      1.598983      0.185834
  H       3.464734     -1.611853     -0.921896
  H       1.630873     -2.313971      0.968195
  H       0.948528     -2.302511     -0.660937
  H       1.999314      1.340216      1.486369
  H       1.371957      1.911166     -0.062377
  H      -0.113535      0.111472     -1.649856
  H      -1.270874     -2.066848     -1.022493
  H      -2.249581     -0.962414     -1.981570
  H      -3.616742     -1.932510     -0.166381
  H      -2.463434     -1.373657      1.055886
  H      -4.390138      0.187711      0.965039
  H      -4.173843      0.407687     -0.773756
  H      -2.192840      1.242619      1.422394
  H      -3.175844      2.334780      0.432998
  H      -1.976879      1.645677     -1.616173
  H      -0.826349      2.223032     -0.416417
>
32
-847.00586596; 31P isotropic shielding: 202.526742 ppm
  C       4.069232      1.182737     -0.821841
  C       2.877987      0.368061     -0.403129
  C       2.733180     -0.951433     -0.620718
  C       1.483690     -1.630360     -0.114440
  P       0.416639     -0.238250      0.506684
  O      -0.182133     -0.408393      1.873611
  C       1.744830      1.051491      0.338152
  C      -0.781252      0.111757     -0.860047
  C      -1.785164     -1.049699     -1.077988
  C      -2.862096     -1.127221      0.022110
  C      -3.600119      0.214921      0.176990
  C      -2.614926      1.367328      0.444498
  C      -1.536741      1.449984     -0.654007
  H       4.551150      1.649934      0.050610
  H       4.815849      0.569335     -1.340599
  H       3.769913      2.004178     -1.490807
  H       3.498440     -1.533442     -1.136571
  H       1.682062     -2.308705      0.728955
  H       0.977108     -2.222898     -0.888296
  H       2.044657      1.370982      1.347646
  H       1.388867      1.948695     -0.186977
  H      -0.139558      0.199278     -1.752902
  H      -1.256542     -2.009630     -1.159649
  H      -2.275619     -0.885822     -2.051581
  H      -3.575176     -1.926590     -0.225587
  H      -2.389443     -1.393537      0.976790
  H      -4.334369      0.150341      0.992143
  H      -4.169754      0.426811     -0.744166
  H      -2.130534      1.210289      1.417355
  H      -3.154147      2.324100      0.495953
  H      -2.015335      1.712735     -1.611770
  H      -0.832296      2.263421     -0.431123
>
32
-847.00591351; 31P isotropic shielding: 202.984534 ppm
  C       3.441031      0.243932     -1.878709
  C       2.408689     -0.109352     -0.846591
  C       1.805096     -1.307152     -0.739278
  C       0.815163     -1.506981      0.382163
  P       0.546881      0.200213      1.070303
  O       0.532132      0.301240      2.567579
  C       2.007722      0.929370      0.182562
  C      -0.924960      1.040470      0.312726
  C      -1.054212      0.998837     -1.230321
  C      -1.684280     -0.298956     -1.770917
  C      -3.005263     -0.638380     -1.054538
  C      -2.832807     -0.680970      0.475230
  C      -2.246020      0.636451      1.012671
  H       4.387284      0.540599     -1.400856
  H       3.644190     -0.597344     -2.552407
  H       3.115647      1.103226     -2.485348
  H       2.034741     -2.127450     -1.420750
  H       1.227794     -2.113024      1.203978
  H      -0.113480     -1.991618      0.064519
  H       2.803546      1.106275      0.922212
  H       1.771833      1.902893     -0.270753
  H      -0.705750      2.081425      0.604820
  H      -0.082409      1.173890     -1.709938
  H      -1.698303      1.843428     -1.524307
  H      -1.859876     -0.189630     -2.850630
  H      -0.978637     -1.133139     -1.663054
  H      -3.398499     -1.596784     -1.422350
  H      -3.758373      0.126349     -1.306975
  H      -2.181029     -1.522608      0.753280
  H      -3.801080     -0.873426      0.958267
  H      -2.977412      1.442895      0.840809
  H      -2.083557      0.580121      2.095903
>
32
-847.00207534; 31P isotropic shielding: 208.372305 ppm
  C       2.664119      2.311928     -0.580881
  C       2.116666      0.937451     -0.321321
  C       2.409087     -0.158938     -1.044499
  C       1.795716     -1.472627     -0.625249
  P       0.532419     -1.002430      0.656672
  O       0.482882     -1.827435      1.909319
  C       1.187638      0.724351      0.858253
  C      -1.089002     -1.030651     -0.246881
  C      -2.283926     -0.746641      0.697099
  C      -2.542909      0.756083      0.908039
  C      -2.701664      1.495462     -0.433731
  C      -1.485999      1.277108     -1.354351
  C      -1.186612     -0.219611     -1.562974
  H       1.851435      3.034910     -0.749711
  H       3.231851      2.677945      0.288376
  H       3.326091      2.324937     -1.455195
  H       3.083601     -0.116510     -1.900948
  H       2.523693     -2.146322     -0.148083
  H       1.345390     -2.027564     -1.460171
  H       1.730400      0.749378      1.816305
  H       0.398433      1.480850      0.920614
  H      -1.126937     -2.101786     -0.507960
  H      -2.120946     -1.254070      1.655654
  H      -3.182745     -1.197248      0.245848
  H      -3.446705      0.887868      1.519327
  H      -1.718580      1.202350      1.483966
  H      -2.858456      2.570046     -0.263179
  H      -3.607384      1.123067     -0.940167
  H      -0.607582      1.783046     -0.932200
  H      -1.665159      1.746739     -2.331984
  H      -2.009370     -0.656276     -2.152040
  H      -0.278244     -0.342709     -2.166448
>
32
-847.00216610; 31P isotropic shielding: 207.799427 ppm
  C       3.421882     -0.288591     -1.645868
  C       2.387830     -0.232854     -0.557967
  C       1.823454     -1.306521      0.024810
  C       0.818453     -1.070481      1.126032
  P       0.462779      0.752708      1.037770
  O       0.379438      1.465188      2.355831
  C       1.932101      1.117488     -0.039354
  C      -1.003810      1.128535     -0.036067
  C      -1.065581      0.447649     -1.426103
  C      -1.623581     -0.988116     -1.394624
  C      -2.964411     -1.065349     -0.639896
  C      -2.858863     -0.464209      0.773998
  C      -2.339342      0.984099      0.734860
  H       4.351327      0.209772     -1.330480
  H       3.661662     -1.322182     -1.923333
  H       3.074416      0.240904     -2.546496
  H       2.091683     -2.323118     -0.265930
  H       1.237672     -1.259729      2.126699
  H      -0.082259     -1.685890      1.036362
  H       2.700926      1.601965      0.581715
  H       1.685274      1.819782     -0.848416
  H      -0.834452      2.206890     -0.195980
  H      -0.081683      0.458761     -1.913004
  H      -1.727945      1.061199     -2.058180
  H      -1.750282     -1.346814     -2.426006
  H      -0.896575     -1.664075     -0.925916
  H      -3.308554     -2.108098     -0.587925
  H      -3.730141     -0.511169     -1.207623
  H      -2.193847     -1.084301      1.393351
  H      -3.840703     -0.485604      1.267472
  H      -3.089346      1.612244      0.227264
  H      -2.221920      1.385519      1.748804
>
32
-847.00212730; 31P isotropic shielding: 208.123660 ppm
  C       2.712411      2.130217     -0.087474
  C       2.112927      0.753241     -0.103844
  C       2.351537     -0.181251     -1.042199
  C       1.684618     -1.527039     -0.892792
  P       0.442483     -1.273730      0.469180
  O       0.344019     -2.336935      1.523737
  C       1.184780      0.337500      1.021148
  C      -1.175873     -1.034972     -0.408822
  C      -2.356736     -0.883773      0.581972
  C      -2.537197      0.557037      1.093242
  C      -2.645961      1.562016     -0.068999
  C      -1.441023      1.464495     -1.023252
  C      -1.230162      0.027071     -1.534544
  H       3.369942      2.294559     -0.949728
  H       1.927253      2.901703     -0.097894
  H       3.297978      2.292590      0.830414
  H       3.018422      0.010143     -1.884224
  H       2.383730     -2.313608     -0.570519
  H       1.209102     -1.879965     -1.818562
  H       1.737340      0.129695      1.951064
  H       0.435846      1.099655      1.260821
  H      -1.269000     -2.029075     -0.877908
  H      -2.223513     -1.581471      1.417693
  H      -3.276433     -1.187237      0.055955
  H      -3.436747      0.610070      1.722441
  H      -1.694600      0.832607      1.744855
  H      -2.738399      2.586397      0.319036
  H      -3.570109      1.356952     -0.634224
  H      -0.536111      1.817315     -0.511893
  H      -1.585528      2.134857     -1.882413
  H      -2.078530     -0.235346     -2.187310
  H      -0.332264     -0.020821     -2.163657
>
32
-847.00219803; 31P isotropic shielding: 207.489270 ppm
  C       2.559870      1.778058     -1.523684
  C       1.961242      0.631740     -0.759907
  C       1.760487     -0.603999     -1.253749
  C       1.171428     -1.645111     -0.334740
  P       0.560988     -0.671522      1.131200
  O       0.849474     -1.270121      2.477297
  C       1.556362      0.836346      0.686327
  C      -1.275913     -0.313349      0.962092
  C      -1.664745      1.179667      0.835964
  C      -1.551186      1.723967     -0.599666
  C      -2.361318      0.864977     -1.587393
  C      -1.924033     -0.609385     -1.521579
  C      -2.032155     -1.163547     -0.088661
  H       1.869768      2.635428     -1.554065
  H       3.480156      2.135784     -1.037103
  H       2.803339      1.493411     -2.554561
  H       2.025808     -0.861201     -2.280117
  H       1.930961     -2.340809      0.054265
  H       0.393352     -2.255510     -0.806726
  H       2.427968      0.844151      1.359037
  H       1.022273      1.780042      0.847584
  H      -1.588025     -0.658034      1.958769
  H      -1.081917      1.792346      1.536604
  H      -2.714493      1.271950      1.158972
  H      -1.898621      2.766487     -0.625801
  H      -0.500480      1.732587     -0.920531
  H      -2.243090      1.249461     -2.610151
  H      -3.433473      0.940596     -1.342435
  H      -0.888590     -0.686077     -1.881000
  H      -2.539006     -1.220140     -2.197714
  H      -3.095132     -1.170475      0.202395
  H      -1.703797     -2.210719     -0.047625
>
32
-846.99752034; 31P isotropic shielding: 200.746827 ppm
  C       3.910275      1.389178     -0.946352
  C       2.842496      0.454633     -0.452532
  C       2.711860     -0.831367     -0.827199
  C       1.593785     -1.643425     -0.218017
  P       0.544097     -0.379628      0.650655
  O       0.018966     -0.734934      2.011118
  C       1.829912      0.956839      0.560041
  C      -0.768022      0.092486     -0.555725
  C      -1.794657     -1.072568     -0.717798
  C      -2.983389     -0.908623      0.244679
  C      -3.790357      0.377839     -0.071581
  C      -2.894056      1.499674     -0.658515
  C      -1.460795      1.412988     -0.105816
  H       3.468016      2.275898     -1.425920
  H       4.524822      1.759463     -0.111465
  H       4.572078      0.898440     -1.670269
  H       3.395292     -1.291695     -1.542188
  H       1.952288     -2.365009      0.531738
  H       1.021126     -2.213302     -0.962210
  H       2.271762      1.077741      1.560946
  H       1.400288      1.928200      0.280856
  H      -0.258828      0.259565     -1.517223
  H      -1.310580     -2.044748     -0.553480
  H      -2.157964     -1.085163     -1.756156
  H      -3.638513     -1.788031      0.186286
  H      -2.594332     -0.874942      1.270130
  H      -4.275438      0.734847      0.847581
  H      -4.598403      0.152636     -0.782133
  H      -3.325581      2.485156     -0.437329
  H      -2.857923      1.418963     -1.755635
  H      -0.868660      2.274418     -0.439989
  H      -1.497466      1.460270      0.992602
>
32
-846.99836390; 31P isotropic shielding: 203.518110 ppm
  C       3.952140      1.117447     -1.208033
  C       2.859425      0.322243     -0.551511
  C       2.698350     -1.008666     -0.668536
  C       1.560789     -1.659400      0.081840
  P       0.547187     -0.227189      0.694444
  O       0.033740     -0.301587      2.103006
  C       1.854777      1.039900      0.330678
  C      -0.770798      0.043606     -0.566485
  C      -1.731347     -1.182354     -0.606831
  C      -3.127862     -0.773452     -1.106601
  C      -3.808004      0.214404     -0.123182
  C      -2.776614      1.113953      0.607514
  C      -1.539068      1.369647     -0.269472
  H       3.533317      1.898643     -1.860881
  H       4.566053      1.635854     -0.455600
  H       4.610680      0.479300     -1.809661
  H       3.373611     -1.615858     -1.273214
  H       1.904011     -2.231925      0.956984
  H       0.969208     -2.345602     -0.538159
  H       2.299186      1.367064      1.282933
  H       1.438972      1.935083     -0.152261
  H      -0.257847      0.134197     -1.536343
  H      -1.825342     -1.616113      0.399692
  H      -1.307537     -1.964516     -1.249486
  H      -3.030068     -0.309627     -2.100013
  H      -3.755967     -1.663824     -1.244884
  H      -4.389616     -0.346423      0.621718
  H      -4.527864      0.835749     -0.675001
  H      -2.445979      0.638824      1.539652
  H      -3.241615      2.068193      0.888878
  H      -1.847896      1.823757     -1.222801
  H      -0.880421      2.102072      0.216618
>
32
-846.99834568; 31P isotropic shielding: 203.633738 ppm
  C       4.220418      1.161586     -0.470204
  C       2.971449      0.351612     -0.263220
  C       2.833204     -0.944478     -0.594644
  C       1.520728     -1.631428     -0.302566
  P       0.500590     -0.334117      0.553871
  O       0.073232     -0.654714      1.957491
  C       1.767664      1.012955      0.381170
  C      -0.893221      0.085753     -0.574761
  C      -1.892817     -1.109270     -0.669717
  C      -3.021759     -0.975197      0.366535
  C      -3.883465      0.287532      0.100229
  C      -3.061784      1.429654     -0.552945
  C      -1.594374      1.390252     -0.092176
  H       4.024015      2.035637     -1.110143
  H       4.595743      1.553321      0.487511
  H       5.015468      0.565885     -0.934689
  H       3.649078     -1.506960     -1.051186
  H       1.633100     -2.490620      0.374306
  H       1.025837     -1.999884     -1.213080
  H       1.997641      1.409556      1.380910
  H       1.391873      1.854661     -0.218881
  H      -0.446544      0.259611     -1.566306
  H      -1.370138     -2.065959     -0.534532
  H      -2.321461     -1.136732     -1.682544
  H      -3.654367     -1.872679      0.351212
  H      -2.569150     -0.927116      1.365001
  H      -4.313437      0.637457      1.049074
  H      -4.732577      0.035720     -0.551087
  H      -3.508394      2.403831     -0.312563
  H      -3.094480      1.338942     -1.649498
  H      -1.047780      2.265181     -0.467397
  H      -1.563194      1.444808      1.005928
>
32
-846.99868282; 31P isotropic shielding: 207.366404 ppm
  C       3.959974      1.030696     -1.044054
  C       2.844573      0.275358     -0.378526
  C       2.679616     -1.059240     -0.431537
  C       1.518383     -1.665958      0.319251
  P       0.497273     -0.199999      0.832101
  O      -0.050305     -0.200953      2.229617
  C       1.819976      1.041940      0.437070
  C      -0.787509      0.012529     -0.472849
  C      -1.753198     -1.209661     -0.478936
  C      -3.132352     -0.819135     -1.038384
  C      -3.835048      0.218147     -0.124415
  C      -2.820063      1.147978      0.591112
  C      -1.555602      1.354995     -0.260311
  H       4.557939      1.581531     -0.301863
  H       4.629168      0.359488     -1.595946
  H       3.564986      1.781393     -1.745746
  H       3.368162     -1.699012     -0.985557
  H       1.834175     -2.195003      1.231303
  H       0.939959     -2.380224     -0.281219
  H       2.240171      1.418295      1.382084
  H       1.421680      1.911306     -0.104294
  H      -0.249898      0.054308     -1.432660
  H      -1.877852     -1.591851      0.544949
  H      -1.316766     -2.024593     -1.070282
  H      -3.002327     -0.403954     -2.049489
  H      -3.761464     -1.712225     -1.152614
  H      -4.440869     -0.303358      0.629727
  H      -4.535300      0.814570     -0.726596
  H      -2.519946      0.718138      1.555073
  H      -3.287289      2.117072      0.811412
  H      -1.833440      1.766261     -1.242210
  H      -0.906408      2.105460      0.210689
>
32
-846.99840282; 31P isotropic shielding: 203.668381 ppm
  C       3.675508      1.308840     -1.422844
  C       2.718414      0.416137     -0.685091
  C       2.561661     -0.900887     -0.912752
  C       1.569837     -1.660654     -0.064232
  P       0.652003     -0.331654      0.856047
  O       0.376604     -0.558881      2.313138
  C       1.862615      1.006643      0.419879
  C      -0.861126      0.012289     -0.136859
  C      -1.878342     -1.141775      0.002713
  C      -3.080819     -0.940329     -0.955790
  C      -3.432327      0.558806     -1.154370
  C      -3.042665      1.379356      0.085581
  C      -1.507405      1.362362      0.302869
  H       4.236469      0.757356     -2.187180
  H       3.142740      2.137560     -1.914067
  H       4.396527      1.768974     -0.729843
  H       3.139078     -1.422118     -1.677742
  H       2.056797     -2.316072      0.673650
  H       0.892636     -2.292026     -0.655143
  H       2.453647      1.243738      1.317648
  H       1.361044      1.934472      0.113082
  H      -0.536312      0.078826     -1.187834
  H      -2.216668     -1.174675      1.046227
  H      -1.406838     -2.113508     -0.194336
  H      -2.858130     -1.396777     -1.930623
  H      -3.949944     -1.478312     -0.551700
  H      -4.501851      0.670645     -1.376596
  H      -2.893119      0.957010     -2.027637
  H      -3.549049      0.963525      0.968963
  H      -3.388582      2.417595     -0.007366
  H      -1.048370      2.181021     -0.267754
  H      -1.291134      1.548914      1.363763
>
32
-846.99796451; 31P isotropic shielding: 208.078538 ppm
  C       3.910620      1.162124     -1.087868
  C       2.807894      0.336521     -0.487063
  C       2.650972     -0.986638     -0.671387
  C       1.505980     -1.682823      0.023379
  P       0.588671     -0.316853      0.890976
  O       0.336604     -0.496717      2.359252
  C       1.794749      1.013265      0.416121
  C      -0.938683     -0.012761     -0.091341
  C      -1.942064     -1.173595      0.083973
  C      -3.154722     -1.007338     -0.868991
  C      -3.516024      0.483182     -1.109275
  C      -3.130297      1.340678      0.106748
  C      -1.594284      1.340509      0.322152
  H       3.502042      1.977187     -1.704821
  H       4.515368      1.639032     -0.301398
  H       4.575912      0.554663     -1.713303
  H       3.339456     -1.561322     -1.292967
  H       1.843945     -2.406863      0.779376
  H       0.854766     -2.228874     -0.673917
  H       2.256682      1.407044      1.333852
  H       1.297553      1.859694     -0.078938
  H      -0.623911      0.032011     -1.147075
  H      -2.271434     -1.184899      1.130832
  H      -1.461046     -2.144570     -0.093480
  H      -2.938793     -1.491847     -1.831705
  H      -4.017438     -1.536803     -0.440708
  H      -4.586568      0.581393     -1.333037
  H      -2.980830      0.860137     -1.994376
  H      -3.631979      0.944880      1.001924
  H      -3.484321      2.373278     -0.013829
  H      -1.141655      2.151461     -0.264470
  H      -1.377466      1.548443      1.378865
>
32
-846.99683835; 31P isotropic shielding: 210.547503 ppm
  C       3.781556      0.514650     -1.711810
  C       2.675295      0.040241     -0.812081
  C       2.343712     -1.248568     -0.615438
  C       1.223674     -1.568709      0.344218
  P       0.654633      0.088553      0.968641
  O       0.713546      0.287802      2.454780
  C       1.871132      1.066509     -0.037123
  C      -1.012115      0.405796      0.250313
  C      -1.071305      0.276319     -1.300688
  C      -2.484774     -0.124216     -1.796429
  C      -3.576476      0.511750     -0.919694
  C      -3.506824     -0.028189      0.535343
  C      -2.077674     -0.480189      0.932497
  H       4.529275      1.088172     -1.143035
  H       4.290247     -0.323322     -2.203394
  H       3.394227      1.190325     -2.489851
  H       2.877415     -2.058298     -1.115605
  H       1.563047     -2.155885      1.210000
  H       0.408613     -2.136421     -0.127298
  H       2.499549      1.647850      0.653700
  H       1.370801      1.786224     -0.701328
  H      -1.216775      1.450634      0.535785
  H      -0.340200     -0.459662     -1.661723
  H      -0.785396      1.237090     -1.749541
  H      -2.603975      0.173336     -2.846945
  H      -2.593206     -1.218897     -1.771839
  H      -4.572119      0.327997     -1.344488
  H      -3.439334      1.604001     -0.921552
  H      -4.193273     -0.878616      0.651742
  H      -3.853047      0.747604      1.232087
  H      -1.953653     -0.447728      2.020948
  H      -1.920276     -1.526054      0.630107
>
32
-846.99751679; 31P isotropic shielding: 210.973814 ppm
  C       3.327142      2.026762     -0.572636
  C       2.492308      0.794960     -0.364537
  C       2.505620     -0.286727     -1.164334
  C       1.623253     -1.457350     -0.805473
  P       0.645581     -0.871370      0.661904
  O       0.625872     -1.770926      1.861933
  C       1.571319      0.728391      0.839078
  C      -1.034583     -0.445407      0.040763
  C      -1.912414      0.096065      1.209088
  C      -3.108420      0.940426      0.695660
  C      -3.600398      0.432200     -0.669636
  C      -2.502132      0.602864     -1.753312
  C      -1.067789      0.517836     -1.163418
  H       3.953510      1.943957     -1.469082
  H       2.691900      2.920111     -0.674671
  H       3.983082      2.206806      0.292800
  H       3.146509     -0.337200     -2.046026
  H       2.198348     -2.342852     -0.496336
  H       0.969678     -1.773139     -1.631737
  H       2.131023      0.699537      1.785942
  H       0.897028      1.595126      0.893843
  H      -1.441201     -1.417370     -0.284127
  H      -1.304737      0.705044      1.893668
  H      -2.268851     -0.754954      1.800545
  H      -3.919468      0.917601      1.435592
  H      -2.810349      1.995584      0.598974
  H      -4.514999      0.957588     -0.974996
  H      -3.873738     -0.629706     -0.576215
  H      -2.622047      1.571958     -2.258024
  H      -2.627710     -0.167486     -2.527075
  H      -0.362268      0.210638     -1.944500
  H      -0.741769      1.514131     -0.833157
