40
-1734.32771277; 31P isotropic shielding: 255.837256 ppm
  C      -4.417652     -1.001642     -1.531986
  C      -3.558948      0.256676     -1.547494
  O      -2.131587     -0.063797     -1.396965
  P      -1.483583     -0.159538      0.070905
  O      -1.978172      0.782953      1.102723
  C       0.287327     -0.150452     -0.375047
  C       1.163195      0.838101     -0.113974
  C       2.648468      0.667748     -0.343725
  C       3.114791     -0.753659     -0.569942
  C       2.245956     -1.717494     -0.916159
  C       0.768170     -1.417403     -1.061835
  C       2.596405     -3.156093     -1.208175
  C       4.604262     -0.928185     -0.398913
  C       0.794424      2.201114      0.439352
  Cl      0.763599      2.192754      2.265104
  F      -0.383693      2.681799     -0.029955
  F       1.746090      3.131627      0.071622
  O      -1.758647     -1.712620      0.472419
  C      -1.793943     -2.081684      1.891926
  C      -0.395306     -2.175946      2.492416
  H      -5.464683     -0.731460     -1.727762
  H      -4.365122     -1.505175     -0.560417
  H      -4.091249     -1.706414     -2.306605
  H      -3.842898      0.955572     -0.751514
  H      -3.621118      0.773981     -2.511161
  H       3.183284      1.097801      0.518395
  H       2.960700      1.296657     -1.196526
  H       0.508668     -1.341103     -2.134582
  H       0.187302     -2.274189     -0.700717
  H       2.214996     -3.450483     -2.198385
  H       2.116280     -3.827793     -0.479509
  H       3.671192     -3.354960     -1.191796
  H       4.953719     -1.936558     -0.635184
  H       4.903700     -0.702099      0.636439
  H       5.152922     -0.222050     -1.041604
  H      -2.405071     -1.345143      2.426189
  H      -2.302939     -3.052122      1.906048
  H       0.099625     -1.197496      2.493458
  H       0.228616     -2.887770      1.937789
  H      -0.465176     -2.519957      3.533451
>
40
-1734.32511269; 31P isotropic shielding: 258.213049 ppm
  C      -0.605456     -0.571926      3.180847
  C      -1.984537     -0.529108      2.533691
  O      -1.930445     -0.194549      1.104309
  P      -1.292056     -1.253942      0.062446
  O      -1.352155     -2.658089      0.551872
  C       0.421412     -0.725950     -0.296374
  C       0.892716      0.524404     -0.467151
  C       2.372365      0.804857     -0.630282
  C       3.295957     -0.320952     -0.218287
  C       2.836650     -1.575936     -0.083903
  C       1.377747     -1.903342     -0.316299
  C       3.665710     -2.781762      0.286797
  C       4.725410      0.121321     -0.020799
  C       0.062585      1.786639     -0.492551
  Cl      0.123379      2.634414      1.145354
  F      -1.237504      1.626290     -0.823663
  F       0.582048      2.678204     -1.405104
  O      -2.044280     -0.948683     -1.317995
  C      -3.469614     -1.283669     -1.460292
  C      -4.321304     -0.027377     -1.339965
  H      -0.718290     -0.739940      4.260916
  H      -0.067857      0.370306      3.029823
  H      -0.007381     -1.395927      2.774385
  H      -2.602478      0.266559      2.963771
  H      -2.502223     -1.489145      2.643404
  H       2.623627      1.712254     -0.058591
  H       2.572100      1.080065     -1.681429
  H       1.263908     -2.426499     -1.285038
  H       1.037449     -2.644829      0.419138
  H       3.314424     -3.213975      1.236383
  H       4.731698     -2.562844      0.389610
  H       3.554827     -3.571831     -0.472100
  H       4.796231      0.847085      0.804459
  H       5.098198      0.636717     -0.919925
  H       5.407611     -0.703910      0.198604
  H      -3.555541     -1.738259     -2.453802
  H      -3.739139     -2.039976     -0.712206
  H      -4.021378      0.717058     -2.087164
  H      -4.221028      0.418994     -0.344586
  H      -5.377387     -0.281149     -1.507303
>
40
-1734.32811129; 31P isotropic shielding: 253.883986 ppm
  C      -4.308405     -1.581733     -1.395863
  C      -3.313806     -0.591416     -1.988298
  O      -1.950905     -0.826400     -1.495290
  P      -1.514080     -0.225315     -0.065114
  O      -2.188401      1.036682      0.320312
  C       0.304705     -0.240150     -0.273405
  C       1.177070      0.618622      0.288919
  C       2.662564      0.562096      0.011705
  C       3.136202     -0.551902     -0.891369
  C       2.282287     -1.449967     -1.408536
  C       0.794967     -1.371339     -1.157898
  C       2.662106     -2.609148     -2.299073
  C       4.629714     -0.530580     -1.112139
  C       0.790828      1.750548      1.227596
  Cl      0.249788      3.226899      0.317658
  F       1.874529      2.138002      1.988506
  F      -0.169809      1.399302      2.131289
  O      -1.808151     -1.490774      0.904957
  C      -1.934001     -1.309530      2.356096
  C      -0.673686     -1.788248      3.063984
  H      -3.989802     -2.614826     -1.580968
  H      -5.292435     -1.431985     -1.861503
  H      -4.414184     -1.437534     -0.314869
  H      -3.590577      0.444746     -1.760166
  H      -3.229030     -0.709543     -3.074276
  H       3.206328      0.500193      0.968195
  H       2.973768      1.536953     -0.407029
  H       0.272779     -1.314306     -2.125198
  H       0.442669     -2.325419     -0.726329
  H       2.325132     -3.559504     -1.856417
  H       3.736627     -2.687754     -2.481466
  H       2.158864     -2.527768     -3.275238
  H       4.937053      0.421563     -1.572478
  H       4.987795     -1.341219     -1.751267
  H       5.163997     -0.595999     -0.151415
  H      -2.152318     -0.256483      2.565807
  H      -2.804862     -1.910782      2.643960
  H      -0.466536     -2.837988      2.821524
  H      -0.805123     -1.703871      4.151478
  H       0.193237     -1.183121      2.777820
>
40
-1734.32579188; 31P isotropic shielding: 260.153324 ppm
  C      -4.310274     -1.590705     -1.399535
  C      -3.316494     -0.600621     -1.993768
  O      -1.953479     -0.832797     -1.499986
  P      -1.518115     -0.228042     -0.070712
  O      -2.194424      1.033921      0.311569
  C       0.300673     -0.241187     -0.278419
  C       1.171531      0.619667      0.283404
  C       2.657042      0.565853      0.005707
  C       3.132498     -0.547135     -0.897753
  C       2.280335     -1.447314     -1.414075
  C       0.792847     -1.371864     -1.162253
  C       2.662323     -2.606213     -2.303996
  C       4.625877     -0.522762     -1.119059
  C       0.783591      1.751166      1.221602
  Cl      0.243159      3.227384      0.310965
  F       1.866245      2.139127      1.983955
  F      -0.177969      1.399432      2.123971
  O      -1.811764     -1.491485      0.901707
  C      -1.939569     -1.308073      2.352441
  C      -0.679818     -1.784818      3.062662
  H      -3.990180     -2.623824     -1.581987
  H      -5.294280     -1.443388     -1.865958
  H      -4.416850     -1.443868     -0.318964
  H      -3.594634      0.435685     -1.767900
  H      -3.231292     -0.720930     -3.079484
  H       3.201297      0.504451      0.962003
  H       2.966331      1.541501     -0.412451
  H       0.269938     -1.316990     -2.129289
  H       0.443166     -2.326449     -0.729684
  H       2.333260     -3.557474     -1.857270
  H       3.736303     -2.678977     -2.491886
  H       2.153345     -2.530010     -3.277582
  H       5.160782     -0.589642     -0.158780
  H       4.931429      0.431041     -1.577158
  H       4.984951     -1.331268     -1.760349
  H      -2.158660     -0.254767      2.559976
  H      -2.810223     -1.909529      2.640382
  H      -0.813439     -1.699192      4.149835
  H       0.187301     -1.179459      2.777584
  H      -0.471457     -2.834746      2.822036
>
40
-1734.32578288; 31P isotropic shielding: 260.144953 ppm
  C      -4.522302     -0.412590     -1.155819
  C      -3.440620      0.641357     -1.359425
  O      -2.094059      0.057352     -1.355796
  P      -1.395880     -0.341065      0.037180
  O      -1.803917      0.416507      1.247362
  C       0.372442     -0.288317     -0.434803
  C       1.131489      0.824038     -0.408016
  C       2.616007      0.803952     -0.692025
  C       3.234786     -0.558821     -0.897368
  C       2.480128     -1.666710     -0.981130
  C       0.976143     -1.618208     -0.836112
  C       2.999778     -3.065197     -1.213522
  C       4.739159     -0.509532     -1.014070
  C       0.621438      2.207704     -0.056774
  Cl      0.831724      2.545199      1.724961
  F      -0.677502      2.429014     -0.390857
  F       1.345327      3.169397     -0.729417
  O      -1.707672     -1.930033      0.153192
  C      -2.099822     -2.506436      1.442546
  C      -0.890903     -2.826496      2.313127
  H      -5.511528      0.050342     -1.276721
  H      -4.470609     -0.844788     -0.149742
  H      -4.424034     -1.221014     -1.890398
  H      -3.482584      1.416287     -0.584823
  H      -3.522725      1.115549     -2.343370
  H       3.133744      1.323709      0.133344
  H       2.823256      1.432134     -1.575075
  H       0.500565     -1.944438     -1.779966
  H       0.665140     -2.387152     -0.115762
  H       2.525330     -3.509957     -2.102338
  H       2.741901     -3.719384     -0.365829
  H       4.082359     -3.112387     -1.354907
  H       5.041730      0.163915     -1.831302
  H       5.195324     -1.485220     -1.198632
  H       5.183921     -0.098477     -0.094277
  H      -2.771718     -1.806308      1.951504
  H      -2.655582     -3.413159      1.177560
  H      -1.224470     -3.304160      3.244746
  H      -0.349058     -1.910486      2.577570
  H      -0.205408     -3.515821      1.804182
>
40
-1734.32614567; 31P isotropic shielding: 256.078104 ppm
  C      -2.295352      0.363751     -2.808095
  C      -2.966779      0.066382     -1.473996
  O      -2.201166     -0.935530     -0.723134
  P      -1.262064     -0.499432      0.523747
  O      -1.798295      0.592530      1.369857
  C       0.401610     -0.319669     -0.218752
  C       1.040419      0.839326     -0.470809
  C       2.439614      0.885569     -1.042427
  C       3.070128     -0.443684     -1.384206
  C       2.420195     -1.602676     -1.189972
  C       1.041184     -1.648734     -0.575854
  C       2.956740     -2.974539     -1.521957
  C       4.458118     -0.300572     -1.961222
  C       0.466943      2.218784     -0.189589
  Cl      0.698731      2.702969      1.546921
  F      -0.852381      2.334310     -0.518567
  F       1.110985      3.174626     -0.947765
  O      -1.070010     -1.914037      1.271806
  C      -1.950964     -2.258485      2.394878
  C      -3.300863     -2.779878      1.918981
  H      -2.175889     -0.554001     -3.397302
  H      -1.310589      0.820182     -2.662473
  H      -2.914804      1.065483     -3.383592
  H      -3.956851     -0.382252     -1.619547
  H      -3.077983      0.965258     -0.857347
  H       3.087188      1.431139     -0.331623
  H       2.440535      1.521435     -1.942567
  H       0.355396     -2.193786     -1.248632
  H       1.073507     -2.276507      0.328079
  H       2.287688     -3.487079     -2.230763
  H       2.991680     -3.604753     -0.619469
  H       3.958319     -2.959380     -1.958715
  H       4.435567      0.302572     -2.882585
  H       4.932568     -1.255858     -2.198545
  H       5.113985      0.235008     -1.257165
  H      -1.394924     -3.027022      2.943203
  H      -2.061898     -1.372061      3.030557
  H      -3.869566     -1.995635      1.407005
  H      -3.885638     -3.119481      2.785169
  H      -3.173684     -3.625275      1.231869
>
40
-1734.32573792; 31P isotropic shielding: 260.346635 ppm
  C      -2.297098      0.369524     -2.793029
  C      -2.966609      0.054490     -1.462082
  O      -2.196660     -0.953001     -0.723221
  P      -1.260370     -0.527055      0.529551
  O      -1.801335      0.553610      1.387017
  C       0.402726     -0.332706     -0.210479
  C       1.037902      0.831134     -0.448275
  C       2.437026      0.888679     -1.019122
  C       3.072699     -0.434416     -1.374591
  C       2.426215     -1.597670     -1.194932
  C       1.046357     -1.655241     -0.583704
  C       2.967798     -2.963941     -1.541437
  C       4.461302     -0.280096     -1.947240
  C       0.460057      2.205483     -0.150651
  Cl      0.688264      2.669221      1.591601
  F      -0.859405      2.320968     -0.479620
  F       1.101923      3.172444     -0.896512
  O      -1.063454     -1.949031      1.262278
  C      -1.941613     -2.307407      2.383064
  C      -3.288217     -2.833068      1.902530
  H      -2.918596      1.076028     -3.360323
  H      -2.174684     -0.540898     -3.392867
  H      -1.313747      0.827264     -2.642039
  H      -3.955164     -0.396121     -1.611678
  H      -3.080331      0.945891     -0.835068
  H       3.082306      1.429840     -0.302890
  H       2.435840      1.533740     -1.912707
  H       0.362903     -2.193298     -1.264579
  H       1.078962     -2.294751      0.311911
  H       3.003015     -3.603732     -0.645743
  H       3.970024     -2.940793     -1.976292
  H       2.301536     -3.470863     -2.256849
  H       4.438959      0.338049     -2.858567
  H       4.937504     -1.230647     -2.199533
  H       5.115432      0.244865     -1.233622
  H      -1.380897     -3.076737      2.925466
  H      -2.058125     -1.426669      3.025569
  H      -3.155855     -3.673100      1.209860
  H      -3.860461     -2.048355      1.395216
  H      -3.872330     -3.181633      2.765591
>
40
-1734.32576096; 31P isotropic shielding: 260.318821 ppm
  C      -2.331484      0.299973     -2.758889
  C      -2.978512      0.012289     -1.410746
  O      -2.187778     -0.969695     -0.659702
  P      -1.248351     -0.509868      0.578742
  O      -1.791031      0.587155      1.413971
  C       0.410251     -0.323081     -0.173755
  C       1.031674      0.839892     -0.449611
  C       2.427244      0.895762     -1.029154
  C       3.091278     -0.430851     -1.312409
  C       2.458830     -1.595314     -1.095164
  C       1.066449     -1.648837     -0.512252
  C       3.029352     -2.966637     -1.367172
  C       4.489615     -0.278939     -1.861200
  C       0.440851      2.216835     -0.193197
  Cl      0.678599      2.741687      1.529919
  F      -0.882792      2.306968     -0.514009
  F       1.065272      3.164258     -0.978118
  O      -1.040800     -1.913085      1.343878
  C      -1.913674     -2.250128      2.475380
  C      -3.262375     -2.786072      2.012124
  H      -2.207322     -0.624599     -3.336344
  H      -1.351228      0.771949     -2.633554
  H      -2.968520      0.984598     -3.335665
  H      -3.965171     -0.450390     -1.534016
  H      -3.091151      0.917711     -0.804035
  H       3.062544      1.490023     -0.347292
  H       2.408526      1.490146     -1.957478
  H       0.399194     -2.199629     -1.199485
  H       1.082942     -2.274484      0.393035
  H       3.081772     -3.555142     -0.437718
  H       4.029622     -2.945858     -1.806831
  H       2.372249     -3.526817     -2.050587
  H       4.480331      0.318344     -2.786522
  H       4.977472     -1.231314     -2.082631
  H       5.126029      0.266987     -1.147261
  H      -1.349772     -3.008336      3.029981
  H      -2.027750     -1.357086      3.101148
  H      -3.838667     -2.011193      1.494400
  H      -3.840797     -3.120043      2.884698
  H      -3.132620     -3.637979      1.333621
>
40
-1734.32575217; 31P isotropic shielding: 260.379978 ppm
  C      -4.432545     -0.465006     -1.234159
  C      -3.338280      0.575736     -1.438466
  O      -1.996204     -0.011954     -1.357190
  P      -1.357287     -0.365927      0.076045
  O      -1.819995      0.425465      1.244527
  C       0.429658     -0.324562     -0.322198
  C       1.183433      0.792314     -0.316796
  C       2.679320      0.771319     -0.540329
  C       3.293393     -0.587834     -0.763470
  C       2.545256     -1.700075     -0.816728
  C       1.048960     -1.674251     -0.622976
  C       3.104655     -3.080737     -1.058623
  C       4.802332     -0.578681     -0.940767
  C       0.653410      2.185290     -0.039092
  Cl      0.800368      2.591300      1.735510
  F      -0.634870      2.384397     -0.424194
  F       1.393011      3.127560     -0.721532
  O      -1.663003     -1.953110      0.226104
  C      -2.155882     -2.489137      1.497812
  C      -1.026467     -2.731043      2.491407
  H      -4.425686     -0.851663     -0.208355
  H      -4.306813     -1.305685     -1.927136
  H      -5.413671     -0.005313     -1.417264
  H      -3.407345      1.382774     -0.699280
  H      -3.378903      1.008427     -2.443889
  H       3.166544      1.262146      0.321548
  H       2.925603      1.423872     -1.394350
  H       0.549009     -2.098509     -1.512897
  H       0.778898     -2.377545      0.179047
  H       2.873649     -3.748806     -0.213735
  H       4.188642     -3.083743     -1.203230
  H       2.643487     -3.537640     -1.948549
  H       5.101707     -0.958025     -1.927643
  H       5.308039     -1.197276     -0.186735
  H       5.200267      0.438799     -0.848049
  H      -2.895387     -1.794076      1.911574
  H      -2.656155     -3.424403      1.221650
  H      -0.271804     -3.411409      2.076952
  H      -1.431804     -3.187385      3.405082
  H      -0.545339     -1.785706      2.769174
>
40
-1734.32445276; 31P isotropic shielding: 255.877524 ppm
  C      -4.436702     -0.493823     -1.231608
  C      -3.349368      0.549827     -1.457300
  O      -2.003250     -0.029012     -1.376067
  P      -1.355499     -0.361559      0.058367
  O      -1.811795      0.448062      1.216779
  C       0.428367     -0.327173     -0.352632
  C       1.184306      0.787364     -0.365500
  C       2.677301      0.757599     -0.600284
  C       3.294177     -0.607223     -0.795247
  C       2.543653     -1.720516     -0.833307
  C       1.045274     -1.679140     -0.642837
  C       3.065915     -3.121043     -1.048955
  C       4.794946     -0.555406     -0.953360
  C       0.659783      2.185194     -0.102899
  Cl      0.817831      2.614190      1.665171
  F      -0.630060      2.382234     -0.483355
  F       1.398258      3.115861     -0.802216
  O      -1.660037     -1.946194      0.235291
  C      -2.142305     -2.462765      1.519191
  C      -1.004414     -2.689779      2.506686
  H      -4.309173     -1.344498     -1.911893
  H      -5.421080     -0.042392     -1.417684
  H      -4.423339     -0.864273     -0.199964
  H      -3.418302      1.366970     -0.729320
  H      -3.398438      0.967576     -2.468617
  H       3.171847      1.270106      0.244424
  H       2.916858      1.388025     -1.472721
  H       0.546300     -2.107948     -1.531005
  H       0.770936     -2.376082      0.162883
  H       2.820713     -3.762300     -0.187802
  H       4.146899     -3.165943     -1.202204
  H       2.582642     -3.581569     -1.924787
  H       5.250231     -1.535635     -1.114313
  H       5.261295     -0.110756     -0.060329
  H       5.072965      0.089389     -1.801621
  H      -2.878177     -1.761306      1.928543
  H      -2.644648     -3.402009      1.260985
  H      -1.402846     -3.127810      3.432267
  H      -0.518296     -1.740874      2.762545
  H      -0.255469     -3.380071      2.098393
>
40
-1734.32608598; 31P isotropic shielding: 255.998333 ppm
  C      -2.374976     -0.659021     -2.866056
  C      -2.951972     -1.255663     -1.588212
  O      -1.903425     -1.604963     -0.625590
  P      -1.288173     -0.461160      0.349329
  O      -2.074894      0.797903      0.326895
  C       0.469085     -0.382608     -0.158405
  C       1.314604      0.612241      0.171457
  C       2.724561      0.694585     -0.366351
  C       3.157608     -0.430670     -1.276530
  C       2.342178     -1.458614     -1.564761
  C       0.929138     -1.528119     -1.035157
  C       2.697321     -2.638964     -2.437595
  C       4.570759     -0.263080     -1.781429
  C       0.954368      1.778464      1.071623
  Cl      0.315727      3.182427      0.096245
  F       2.071661      2.237903      1.736139
  F       0.053126      1.473438      2.043237
  O      -1.154675     -1.225295      1.758461
  C      -2.206831     -1.081749      2.772274
  C      -3.441404     -1.911175      2.439700
  H      -1.865095      0.289049     -2.656205
  H      -3.187463     -0.456647     -3.577534
  H      -1.668525     -1.349392     -3.343852
  H      -3.467678     -2.202875     -1.783320
  H      -3.648584     -0.556646     -1.111943
  H       3.429534      0.762917      0.477986
  H       2.840167      1.661170     -0.890165
  H       0.236507     -1.630197     -1.884108
  H       0.787753     -2.471442     -0.477033
  H       3.716619     -2.602286     -2.829457
  H       2.008978     -2.708223     -3.294509
  H       2.586376     -3.579347     -1.875364
  H       4.900724     -1.075585     -2.433215
  H       5.277367     -0.197097     -0.939422
  H       4.669177      0.679474     -2.342422
  H      -1.731796     -1.422485      3.698447
  H      -2.450906     -0.016855      2.865959
  H      -3.945047     -1.529539      1.544158
  H      -4.151515     -1.861652      3.276840
  H      -3.173779     -2.961422      2.271883
>
40
-1734.32617933; 31P isotropic shielding: 256.292491 ppm
  C      -4.457206     -0.482104     -1.219696
  C      -3.371610      0.563541     -1.444768
  O      -2.025729     -0.018255     -1.383552
  P      -1.357493     -0.350367      0.041453
  O      -1.794202      0.461543      1.205683
  C       0.420253     -0.318769     -0.394738
  C       1.176813      0.795348     -0.417019
  C       2.666375      0.764081     -0.672562
  C       3.284983     -0.603657     -0.839953
  C       2.533466     -1.716572     -0.870125
  C       1.033000     -1.670028     -0.697132
  C       3.055313     -3.120615     -1.060997
  C       4.787133     -0.553805     -0.983783
  C       0.658310      2.194272     -0.148854
  Cl      0.840785      2.625477      1.616026
  F      -0.636139      2.393800     -0.512520
  F       1.389707      3.121929     -0.859795
  O      -1.664367     -1.933995      0.224601
  C      -2.126657     -2.448823      1.516372
  C      -0.966278     -2.723255      2.464912
  H      -4.431260     -0.866302     -0.193306
  H      -4.338544     -1.323969     -1.912475
  H      -5.443638     -0.028077     -1.387745
  H      -3.432496      1.372459     -0.706956
  H      -3.430790      0.993117     -2.450599
  H       3.171121      1.300414      0.150646
  H       2.891314      1.372258     -1.564920
  H       0.542276     -2.082238     -1.598131
  H       0.745640     -2.377669      0.093903
  H       4.136775     -3.168730     -1.209925
  H       2.575097     -3.594431     -1.931513
  H       2.806739     -3.748201     -0.190770
  H       5.244563     -1.534952     -1.132226
  H       5.244667     -0.100442     -0.090523
  H       5.073181      0.084365     -1.834565
  H      -2.825567     -1.727591      1.954868
  H      -2.667308     -3.368535      1.265071
  H      -0.443708     -1.792827      2.717392
  H      -0.251324     -3.429200      2.023786
  H      -1.348094     -3.162195      3.397035
>
40
-1734.32609597; 31P isotropic shielding: 256.073726 ppm
  C      -1.242665     -0.008462     -3.021372
  C      -2.396734     -0.144444     -2.035887
  O      -2.088165     -1.131807     -0.993392
  P      -1.554932     -0.614911      0.442081
  O      -2.267472      0.553930      1.005665
  C       0.240794     -0.480472      0.144826
  C       1.029636      0.601126      0.289827
  C       2.446930      0.612652     -0.246716
  C       2.732802     -0.422450     -1.315658
  C       1.980486     -1.531297     -1.406271
  C       0.838757     -1.755084     -0.434025
  C       2.164017     -2.646424     -2.404624
  C       3.913560     -0.081011     -2.190619
  C       0.610307      1.903073      0.944646
  Cl     -0.344284      2.956762     -0.206813
  F       1.722478      2.637613      1.303329
  F      -0.095816      1.735329      2.090759
  O      -1.681069     -2.000804      1.254859
  C      -2.054417     -1.967548      2.674686
  C      -0.854798     -1.662725      3.562946
  H      -1.531949      0.674039     -3.832268
  H      -0.991242     -0.980160     -3.464351
  H      -0.347768      0.397996     -2.537620
  H      -3.297260     -0.530781     -2.526897
  H      -2.643763      0.811751     -1.558785
  H       3.156825      0.490569      0.592063
  H       2.665457      1.614840     -0.642864
  H       0.053984     -2.346868     -0.919083
  H       1.186159     -2.382492      0.407131
  H       2.270209     -3.613247     -1.888256
  H       3.037126     -2.513080     -3.049123
  H       1.275997     -2.735803     -3.049352
  H       4.810478      0.099118     -1.577469
  H       3.728018      0.849658     -2.749237
  H       4.156062     -0.864128     -2.913971
  H      -2.850615     -1.226447      2.809380
  H      -2.457734     -2.967363      2.869274
  H      -1.152636     -1.729830      4.618449
  H      -0.477190     -0.649841      3.381420
  H      -0.044370     -2.381676      3.388313
>
40
-1734.32590626; 31P isotropic shielding: 261.437058 ppm
  C      -4.472938     -0.432906     -1.218664
  C      -3.384138      0.612905     -1.426712
  O      -2.039807      0.025045     -1.384860
  P      -1.370795     -0.348837      0.029562
  O      -1.803277      0.433151      1.215706
  C       0.406495     -0.311312     -0.408817
  C       1.166503      0.800574     -0.402162
  C       2.655501      0.771929     -0.661669
  C       3.270879     -0.593682     -0.857211
  C       2.515978     -1.703095     -0.916283
  C       1.014571     -1.655461     -0.750448
  C       3.034919     -3.104560     -1.133745
  C       4.774177     -0.546638     -0.990050
  C       0.652905      2.193355     -0.095322
  Cl      0.839527      2.576093      1.680088
  F      -0.641280      2.406974     -0.451478
  F       1.386300      3.137436     -0.782370
  O      -1.683366     -1.935511      0.170191
  C      -2.137754     -2.483580      1.451539
  C      -0.974084     -2.762376      2.394839
  H      -4.443743     -0.838961     -0.200838
  H      -4.361324     -1.260220     -1.929869
  H      -5.458036      0.029090     -1.372218
  H      -3.437702      1.405857     -0.671304
  H      -3.446281      1.063790     -2.422965
  H       3.163268      1.290345      0.170963
  H       2.879303      1.397080     -1.542509
  H       0.527363     -2.036034     -1.667156
  H       0.719980     -2.386785      0.015742
  H       4.114863     -3.151005     -1.293607
  H       2.545434     -3.565063     -2.006108
  H       2.794155     -3.744530     -0.270327
  H       5.069046      0.122790     -1.813149
  H       5.226418     -1.524083     -1.174812
  H       5.229105     -0.132719     -0.076509
  H      -2.846420     -1.781124      1.904601
  H      -2.665829     -3.404756      1.180029
  H      -0.465095     -1.830372      2.668093
  H      -0.249259     -3.448425      1.938714
  H      -1.350360     -3.227178      3.316596
>
40
-1734.32608979; 31P isotropic shielding: 255.958005 ppm
  C      -1.859267      0.484444      3.267265
  C      -2.834046     -0.188782      2.308453
  O      -2.364619     -0.105648      0.924242
  P      -1.319923     -1.204368      0.354249
  O      -1.438313     -2.516852      1.044060
  C       0.383881     -0.543735      0.457215
  C       0.905830      0.531754     -0.164103
  C       2.370201      0.898501     -0.047590
  C       3.263547     -0.141849      0.588798
  C       2.749546     -1.200267      1.236480
  C       1.257409     -1.414895      1.339597
  C       3.548186     -2.280198      1.926210
  C       4.733111      0.162581      0.426532
  C       0.152465      1.471194     -1.080098
  Cl      0.400391      0.995288     -2.837649
  F       0.640277      2.754211     -0.951893
  F      -1.179638      1.557489     -0.853246
  O      -1.582957     -1.178457     -1.221461
  C      -2.883302     -1.584755     -1.771690
  C      -3.678501     -0.361129     -2.202876
  H      -2.287334      0.503288      4.278900
  H      -1.655380      1.516588      2.957261
  H      -0.909379     -0.062252      3.314722
  H      -3.801133      0.326967      2.299280
  H      -2.990290     -1.242979      2.565285
  H       2.458951      1.847451      0.510325
  H       2.750599      1.140803     -1.053815
  H       1.016283     -2.468147      1.135246
  H       0.940595     -1.284734      2.391608
  H       4.625490     -2.095965      1.924188
  H       3.370197     -3.256408      1.449334
  H       3.226310     -2.385474      2.973981
  H       5.383772     -0.547930      0.942361
  H       4.963733      1.169696      0.808030
  H       5.012460      0.163291     -0.638758
  H      -2.640952     -2.231850     -2.622316
  H      -3.420252     -2.185248     -1.026226
  H      -4.619433     -0.681878     -2.671501
  H      -3.112584      0.231893     -2.930706
  H      -3.913527      0.274561     -1.342492
>
40
-1734.32765216; 31P isotropic shielding: 255.528067 ppm
  C      -3.805310      0.840589      1.697619
  C      -2.967432     -0.368900      2.089094
  O      -1.613829     -0.254491      1.529232
  P      -1.213913     -1.123486      0.236778
  O      -1.435968     -2.591979      0.333292
  C       0.564890     -0.705195      0.159468
  C       1.195165      0.330878     -0.424532
  C       2.691780      0.529960     -0.305089
  C       3.444973     -0.486477      0.520642
  C       2.823775     -1.526282      1.100199
  C       1.336487     -1.737805      0.960977
  C       3.490198     -2.590388      1.938989
  C       4.923544     -0.190824      0.600722
  C       0.513903      1.418830     -1.250121
  Cl     -0.678908      2.405319     -0.296096
  F      -0.114229      0.920845     -2.360241
  F       1.440512      2.313892     -1.734851
  O      -2.038726     -0.436228     -0.961818
  C      -2.643049     -1.264113     -2.017074
  C      -1.616854     -1.864650     -2.969046
  H      -3.327680      1.768037      2.035633
  H      -4.796644      0.770706      2.166805
  H      -3.934062      0.892327      0.611045
  H      -3.419088     -1.311116      1.753006
  H      -2.824544     -0.427597      3.174348
  H       2.881399      1.538495      0.101945
  H       3.129840      0.569885     -1.317806
  H       1.135096     -2.732205      0.530276
  H       0.884168     -1.802550      1.967168
  H       3.051625     -2.614925      2.948737
  H       4.569037     -2.452728      2.045085
  H       3.317398     -3.586795      1.503586
  H       5.094780      0.808784      1.030253
  H       5.371093     -0.175346     -0.405610
  H       5.480176     -0.913147      1.202637
  H      -3.235893     -2.050609     -1.536509
  H      -3.314567     -0.570942     -2.535278
  H      -1.022068     -1.088161     -3.460145
  H      -2.143080     -2.440526     -3.743160
  H      -0.948195     -2.550081     -2.435660
>
40
-1734.32366529; 31P isotropic shielding: 254.682093 ppm
  C      -1.384368      1.083335      3.419244
  C      -2.459818      0.548429      2.482548
  O      -1.960094      0.265169      1.128943
  P      -0.994118     -0.994399      0.864326
  O      -0.963631     -1.956873      1.999623
  C       0.684734     -0.461725      0.371736
  C       1.110902      0.693179     -0.172909
  C       2.555965      0.905354     -0.574719
  C       3.498941     -0.252024     -0.342340
  C       3.081825     -1.404557      0.206096
  C       1.645850     -1.609637      0.622074
  C       3.948391     -2.610239      0.480432
  C       4.910780      0.049396     -0.785974
  C       0.228659      1.904362     -0.462187
  Cl     -1.089563      1.565641     -1.667978
  F       0.972969      2.930725     -0.998171
  F      -0.334406      2.426913      0.671569
  O      -1.489996     -1.576019     -0.550708
  C      -2.761860     -2.306380     -0.633322
  C      -3.871522     -1.395728     -1.143823
  H      -0.600825      0.333697      3.578734
  H      -1.840723      1.309139      4.393208
  H      -0.932609      2.000472      3.028207
  H      -3.250256      1.288310      2.315568
  H      -2.903993     -0.370389      2.882277
  H       2.944145      1.798414     -0.054917
  H       2.586827      1.187321     -1.641598
  H       1.248283     -2.509913      0.119936
  H       1.598274     -1.873725      1.691143
  H       3.542584     -3.498785     -0.027539
  H       3.951535     -2.844350      1.556393
  H       4.986009     -2.485714      0.161150
  H       4.931704      0.315720     -1.854381
  H       5.601430     -0.783674     -0.634562
  H       5.309368      0.920160     -0.241896
  H      -2.568249     -3.132609     -1.326987
  H      -2.996584     -2.732156      0.350810
  H      -4.800634     -1.972229     -1.253415
  H      -3.607878     -0.974979     -2.121502
  H      -4.050650     -0.569335     -0.447890
>
40
-1734.32378912; 31P isotropic shielding: 254.447001 ppm
  C      -2.634099      0.804573     -2.871617
  C      -3.371379     -0.091603     -1.884084
  O      -2.449139     -0.998466     -1.189947
  P      -1.667563     -0.474133      0.118607
  O      -2.305717      0.621953      0.882221
  C       0.038002     -0.231276     -0.486267
  C       0.854715      0.817796     -0.271421
  C       2.328153      0.746535     -0.617983
  C       2.881519     -0.655286     -0.771622
  C       2.064678     -1.681471     -1.059467
  C       0.576833     -1.443565     -1.232037
  C       2.482531     -3.116657     -1.258633
  C       4.377932     -0.738724     -0.595771
  C       0.436197      2.134315      0.352821
  Cl      0.394108      2.027750      2.179052
  F      -0.755946      2.598778     -0.097963
  F       1.352906      3.119995      0.047447
  O      -1.543971     -1.886037      0.894949
  C      -1.140497     -1.887188      2.306975
  C       0.350273     -2.167860      2.450639
  H      -3.360417      1.406958     -3.434455
  H      -2.055319      0.206530     -3.586651
  H      -1.955710      1.491005     -2.351647
  H      -4.075250     -0.759421     -2.392918
  H      -3.913140      0.497089     -1.134774
  H       2.896867      1.278862      0.158520
  H       2.517969      1.325688     -1.540315
  H       0.343396     -1.317628     -2.305077
  H       0.026007     -2.341145     -0.928517
  H       2.131315     -3.488793     -2.233791
  H       2.018857     -3.761891     -0.496397
  H       3.564790     -3.264588     -1.212912
  H       4.665117     -0.469270      0.432650
  H       4.884881     -0.020213     -1.258544
  H       4.783474     -1.731439     -0.808737
  H      -1.422568     -0.927764      2.757251
  H      -1.742198     -2.679253      2.767174
  H       0.607993     -2.240396      3.516217
  H       0.953536     -1.367437      2.008185
  H       0.616867     -3.116222      1.967841
>
40
-1734.32537930; 31P isotropic shielding: 261.576716 ppm
  C      -4.003997      1.262041     -1.279728
  C      -3.495942     -0.157664     -1.492713
  O      -2.034247     -0.218762     -1.346569
  P      -1.399134     -0.483437      0.105465
  O      -1.894684      0.315111      1.254775
  C       0.380720     -0.364570     -0.299080
  C       1.096654      0.775382     -0.262808
  C       2.590090      0.804471     -0.492397
  C       3.265350     -0.539083     -0.640513
  C       2.554250     -1.674318     -0.739888
  C       1.044027     -1.674910     -0.669456
  C       3.131789     -3.057225     -0.924375
  C       4.770965     -0.438679     -0.685831
  C       0.520004      2.144970      0.038060
  Cl      0.627565      2.521254      1.820243
  F      -0.765713      2.309475     -0.368524
  F       1.243265      3.121137     -0.615400
  O      -1.667347     -2.075244      0.302562
  C      -2.009561     -2.596489      1.629753
  C      -0.771176     -2.839717      2.483456
  H      -3.519672      1.953997     -1.979212
  H      -3.800240      1.595874     -0.256807
  H      -5.088625      1.294548     -1.454540
  H      -3.686232     -0.512156     -2.512040
  H      -3.958425     -0.864039     -0.790299
  H       3.057248      1.362807      0.337697
  H       2.806768      1.418815     -1.383001
  H       0.626806     -2.010983     -1.637463
  H       0.721449     -2.455467      0.032556
  H       4.219017     -3.066080     -1.034170
  H       2.700268     -3.537864     -1.816245
  H       2.873347     -3.702203     -0.069897
  H       5.090296      0.222957     -1.506339
  H       5.268359     -1.402366     -0.819478
  H       5.154583      0.012992      0.242300
  H      -2.689082     -1.889492      2.118275
  H      -2.544789     -3.530788      1.424264
  H      -0.242622     -1.899244      2.681647
  H      -0.082814     -3.541727      1.996380
  H      -1.069216     -3.269624      3.449643
>
40
-1734.32657922; 31P isotropic shielding: 256.306345 ppm
  C      -0.872886     -1.959210      3.238908
  C      -2.129305     -1.893086      2.378870
  O      -2.008987     -0.867473      1.341097
  P      -1.302735     -1.224762     -0.072000
  O      -1.474982     -2.652177     -0.453224
  C       0.467644     -0.760097     -0.013746
  C       1.011685      0.460173      0.159515
  C       2.505603      0.696621      0.101074
  C       3.350290     -0.480753     -0.326973
  C       2.821228     -1.706231     -0.476024
  C       1.351579     -1.969124     -0.247992
  C       3.582556     -2.946461     -0.878886
  C       4.800231     -0.116789     -0.538780
  C       0.238907      1.744083      0.373076
  Cl      0.030633      2.640966     -1.217924
  F       0.937188      2.589701      1.207761
  F      -0.984680      1.597909      0.933942
  O      -1.897337     -0.123223     -1.064245
  C      -3.335894     -0.076977     -1.359631
  C      -3.977866      1.104313     -0.647124
  H      -0.011628     -2.311634      2.657909
  H      -1.028706     -2.661108      4.069659
  H      -0.633333     -0.973910      3.656906
  H      -2.998476     -1.583221      2.970424
  H      -2.344989     -2.855612      1.900261
  H       2.851180      1.052020      1.087434
  H       2.696886      1.549688     -0.572581
  H       0.939475     -2.539262     -1.094607
  H       1.230805     -2.668023      0.600582
  H       3.440038     -3.743631     -0.132693
  H       4.656985     -2.782182     -0.992532
  H       3.198434     -3.343453     -1.831311
  H       5.212503      0.366515      0.360826
  H       4.899822      0.614517     -1.356315
  H       5.433572     -0.974318     -0.778615
  H      -3.399698      0.021759     -2.449282
  H      -3.795555     -1.031560     -1.073513
  H      -3.483188      2.040853     -0.929734
  H      -3.909360      0.987732      0.439848
  H      -5.038141      1.171027     -0.928359
