37
-1165.33483826; 31P isotropic shielding: 273.091776 ppm
  C       4.083476     -2.081386     -0.225111
  C       4.495449     -0.634554     -0.464560
  O       3.321016      0.170904     -0.843034
  C       2.581784      0.667332      0.173829
  O       2.868388      0.602206      1.356140
  C       1.310283      1.364719     -0.338922
  N       0.149567      0.943930      0.482209
  P      -0.440713     -0.614527      0.177842
  O       0.522288     -1.730822      0.130149
  O      -1.231562     -0.443999     -1.221429
  C      -2.416019      0.410178     -1.239669
  C      -3.449218     -0.014824     -0.175534
  C      -2.781264      0.065066      1.211966
  O      -1.584978     -0.775131      1.301952
  C      -3.952983     -1.446638     -0.452241
  C      -4.622392      0.985226     -0.207236
  C       1.484919      2.889344     -0.277146
  H       3.361981     -2.151955      0.595370
  H       3.621506     -2.509289     -1.122444
  H       4.971354     -2.676269      0.030468
  H       5.171175     -0.532119     -1.320171
  H       4.952278     -0.186215      0.424205
  H       1.126579      1.050121     -1.371824
  H       0.369286      1.062821      1.475151
  H      -2.103174      1.451957     -1.080154
  H      -2.829904      0.309229     -2.249255
  H      -2.500384      1.101517      1.445996
  H      -3.452301     -0.308924      1.993104
  H      -4.436606     -1.498973     -1.436495
  H      -4.689453     -1.746920      0.304592
  H      -3.133786     -2.172308     -0.437203
  H      -5.121087      0.964172     -1.184952
  H      -4.285113      2.013490     -0.018921
  H      -5.371366      0.728154      0.553103
  H       2.331777      3.206891     -0.898410
  H       1.675258      3.208945      0.755298
  H       0.575840      3.384251     -0.637863
>
37
-1165.33748720; 31P isotropic shielding: 273.464863 ppm
  C       4.102869     -2.054017     -0.176440
  C       4.510476     -0.609330     -0.435776
  O       3.333199      0.188803     -0.820451
  C       2.594828      0.694266      0.192584
  O       2.884042      0.642274      1.374938
  C       1.321029      1.383721     -0.324994
  N       0.162541      0.969677      0.502603
  P      -0.426060     -0.592714      0.215267
  O       0.538274     -1.708321      0.178558
  O      -1.218680     -0.437837     -1.184995
  C      -2.403883      0.414816     -1.211237
  C      -3.435687      0.000195     -0.141567
  C      -2.766480      0.095134      1.244443
  O      -1.569368     -0.742905      1.341950
  C      -3.938647     -1.434769     -0.402727
  C      -4.609449      0.999146     -0.182646
  C       1.493351      2.909246     -0.279661
  H       3.631414     -2.491557     -1.064110
  H       4.994614     -2.644918      0.074957
  H       3.390992     -2.117332      0.652939
  H       5.183039     -0.516755     -1.294998
  H       4.969762     -0.148827      0.445479
  H       1.135890      1.058071     -1.354204
  H       0.383526      1.099823      1.493825
  H      -2.092162      1.458651     -1.063296
  H      -2.818768      0.302653     -2.219225
  H      -2.486700      1.134335      1.467404
  H      -3.436508     -0.271211      2.030056
  H      -4.674111     -1.727569      0.358000
  H      -3.118966     -2.159719     -0.381020
  H      -4.423331     -1.497626     -1.385835
  H      -4.272543      2.029589     -0.005989
  H      -5.357425      0.750068      0.581336
  H      -5.109383      0.967207     -1.159444
  H       1.686079      3.239751      0.748892
  H       0.582582      3.399057     -0.643025
  H       2.338046      3.221522     -0.906490
>
37
-1165.33749450; 31P isotropic shielding: 273.455401 ppm
  C       3.247299     -2.205509     -1.146090
  C       2.731598     -0.872179     -1.659555
  O       2.544803     -0.008133     -0.490350
  C       1.811718      1.110972     -0.669845
  O       1.420710      1.525365     -1.745717
  C       1.484205      1.784829      0.678318
  N       0.116520      1.347778      1.078544
  P      -0.319766     -0.282739      1.179927
  O       0.500943     -1.205718      1.985361
  O      -0.413307     -0.752864     -0.362775
  C      -1.427138     -0.128167     -1.214291
  C      -2.839003     -0.263290     -0.609969
  C      -2.846170      0.412075      0.775812
  O      -1.849326     -0.161752      1.683256
  C      -3.237886     -1.748501     -0.488788
  C      -3.830148      0.490365     -1.519522
  C       2.539595      1.567592      1.772247
  H       3.385484     -2.895904     -1.988804
  H       4.211096     -2.087579     -0.635691
  H       2.531831     -2.647140     -0.442757
  H       1.764760     -0.967498     -2.165603
  H       3.434334     -0.378735     -2.343366
  H       1.399897      2.853652      0.441993
  H      -0.222639      1.879048      1.879566
  H      -1.155577      0.923830     -1.368182
  H      -1.359462     -0.655249     -2.172116
  H      -2.653330      1.489822      0.679179
  H      -3.807608      0.264816      1.280611
  H      -2.552620     -2.297387      0.164920
  H      -3.225509     -2.229611     -1.475608
  H      -4.251699     -1.843410     -0.077976
  H      -3.557914      1.549027     -1.625251
  H      -4.848500      0.438163     -1.112447
  H      -3.849850      0.043906     -2.522159
  H       2.604984      0.511009      2.046191
  H       2.265436      2.145048      2.665516
  H       3.525441      1.912365      1.433923
>
37
-1165.33338748; 31P isotropic shielding: 277.732414 ppm
  C       4.110903     -1.977896      0.069588
  C       4.570313     -0.525913      0.088449
  O       3.483504      0.343047      0.571961
  C       2.595785      0.762132     -0.355114
  O       2.698886      0.584324     -1.556603
  C       1.404534      1.538253      0.253500
  N       0.153474      1.086783     -0.418837
  P      -0.413186     -0.470032     -0.053507
  O       0.590511     -1.529355      0.167396
  O      -1.432042     -0.748634     -1.273267
  C      -2.676764      0.017980     -1.354542
  C      -3.475085     -0.011047     -0.035813
  C      -2.568907      0.526827      1.090749
  O      -1.360275     -0.275463      1.240738
  C      -3.939749     -1.447383      0.282215
  C      -4.687064      0.930013     -0.182023
  C       1.297627      1.491880      1.779713
  H       3.814444     -2.307195      1.072443
  H       3.253242     -2.107986     -0.598359
  H       4.934311     -2.616518     -0.279289
  H       4.875664     -0.179915     -0.904681
  H       5.380501     -0.356564      0.805583
  H       1.550001      2.583860     -0.058291
  H       0.279322      1.166671     -1.430784
  H      -2.433882      1.052752     -1.635780
  H      -3.245044     -0.446811     -2.167931
  H      -2.279525      1.568795      0.891144
  H      -3.074979      0.473519      2.061254
  H      -4.598011     -1.822398     -0.512479
  H      -4.499977     -1.470250      1.226174
  H      -3.091483     -2.132811      0.374457
  H      -5.283827      0.938705      0.739431
  H      -5.342305      0.597593     -0.997971
  H      -4.376396      1.961909     -0.394993
  H       0.421323      2.063490      2.106881
  H       2.193260      1.933512      2.228007
  H       1.205997      0.465324      2.147783
>
37
-1165.33428862; 31P isotropic shielding: 271.592151 ppm
  C       4.093891     -0.946089     -2.110202
  C       2.835473     -1.307049     -1.330359
  O       2.572738     -0.330505     -0.268212
  C       1.851129      0.759981     -0.611012
  O       1.477680      1.023407     -1.739926
  C       1.527993      1.638763      0.615296
  N       0.097696      1.417951      0.966694
  P      -0.501650     -0.118523      1.342999
  O       0.164533     -0.914127      2.390521
  O      -0.516153     -0.882873     -0.078869
  C      -1.407110     -0.380654     -1.126889
  C      -2.866166     -0.287769     -0.638368
  C      -2.916095      0.662235      0.574759
  O      -2.046552      0.220360      1.667243
  C      -3.402637     -1.682289     -0.255184
  C      -3.717191      0.328157     -1.767077
  C       2.490683      1.473860      1.800040
  H       3.962436     -0.001301     -2.649382
  H       4.957322     -0.858056     -1.439025
  H       4.310110     -1.734213     -2.844324
  H       2.944848     -2.252726     -0.790409
  H       1.955018     -1.353499     -1.979279
  H       1.581038      2.666836      0.232085
  H      -0.236028      2.123760      1.621842
  H      -1.034772      0.594765     -1.464238
  H      -1.313335     -1.099082     -1.948585
  H      -2.620290      1.678738      0.278883
  H      -3.922425      0.694037      1.007324
  H      -2.807702     -2.137164      0.543026
  H      -3.377878     -2.353971     -1.123448
  H      -4.442561     -1.613326      0.090411
  H      -3.699740     -0.312598     -2.658236
  H      -3.347982      1.321151     -2.056343
  H      -4.764149      0.431034     -1.452583
  H       2.426825      0.467074      2.221519
  H       2.229311      2.196750      2.584485
  H       3.524892      1.668054      1.488023
>
37
-1165.33210915; 31P isotropic shielding: 277.581081 ppm
  C       5.705206      0.028902      0.010140
  C       4.608249     -0.985962     -0.286598
  O       3.381252     -0.319632     -0.749625
  C       2.535804      0.118592      0.211915
  O       2.720629      0.017110      1.411662
  C       1.314339      0.825191     -0.394646
  N       0.121249      0.573039      0.441778
  P      -0.716067     -0.862312      0.120861
  O       0.057090     -2.111891     -0.000543
  O      -1.525735     -0.524225     -1.238398
  C      -2.555076      0.508429     -1.181835
  C      -3.604985      0.216048     -0.089523
  C      -2.883813      0.137186      1.271597
  O      -1.830118     -0.878457      1.286939
  C      -4.342078     -1.105626     -0.388585
  C      -4.599858      1.392514     -0.043167
  C       1.597046      2.334994     -0.498637
  H       6.629470     -0.498014      0.283712
  H       5.913185      0.649614     -0.870525
  H       5.421362      0.678086      0.846074
  H       4.360801     -1.586601      0.594680
  H       4.875789     -1.645305     -1.118409
  H       1.132435      0.416341     -1.394515
  H       0.372916      0.643612      1.431667
  H      -2.072544      1.480238     -1.003406
  H      -3.015934      0.513431     -2.176069
  H      -2.439559      1.109054      1.529266
  H      -3.577712     -0.158786      2.066235
  H      -5.096630     -1.307085      0.383115
  H      -3.651372     -1.954060     -0.419579
  H      -4.854805     -1.048156     -1.357740
  H      -5.356862      1.232692      0.735837
  H      -5.126645      1.491641     -1.001296
  H      -4.092861      2.344244      0.165980
  H       2.480448      2.522261     -1.121612
  H       1.776725      2.758200      0.497823
  H       0.734762      2.843395     -0.944672
>
37
-1165.33673106; 31P isotropic shielding: 273.987070 ppm
  C       2.705098     -2.152282     -0.964526
  C       2.850611     -0.840275     -1.724988
  O       2.035096      0.213909     -1.105441
  C       2.589919      0.870459     -0.058182
  O       3.742074      0.751645      0.308533
  C       1.597860      1.859268      0.578671
  N       0.185043      1.418031      0.454712
  P      -0.282936     -0.155282      0.840275
  O       0.674377     -0.931834      1.649649
  O      -0.631893     -0.921376     -0.539220
  C      -1.724819     -0.407817     -1.346421
  C      -3.052770     -0.416407     -0.561046
  C      -2.877670      0.470608      0.687471
  O      -1.738812      0.076924      1.514261
  C      -3.425801     -1.855613     -0.149899
  C      -4.156292      0.197910     -1.444119
  C       2.001005      2.177915      2.026568
  H       3.284378     -2.933221     -1.476778
  H       3.080294     -2.055225      0.059436
  H       1.655768     -2.461702     -0.918078
  H       2.452774     -0.910659     -2.742885
  H       3.891177     -0.499537     -1.757833
  H       1.687612      2.774436     -0.030569
  H      -0.443704      2.116067      0.845421
  H      -1.472531      0.608749     -1.685158
  H      -1.782363     -1.067010     -2.220045
  H      -2.754813      1.524624      0.391448
  H      -3.749636      0.398563      1.347458
  H      -3.534436     -2.491869     -1.037989
  H      -4.380268     -1.865485      0.392746
  H      -2.661070     -2.300209      0.494667
  H      -3.900017      1.217404     -1.763062
  H      -5.111076      0.240343     -0.903670
  H      -4.311522     -0.410038     -2.344787
  H       1.919750      1.277623      2.644507
  H       1.338449      2.952791      2.434633
  H       3.032644      2.542273      2.066139
>
37
-1165.33131211; 31P isotropic shielding: 274.770624 ppm
  C       2.705945     -2.150149     -0.966457
  C       2.851317     -0.837299     -1.725486
  O       2.035800      0.216152     -1.104697
  C       2.590699      0.871603     -0.056786
  O       3.742901      0.752453      0.309674
  C       1.598652      1.859663      0.581248
  N       0.185849      1.418509      0.456853
  P      -0.282080     -0.155189      0.840894
  O       0.675293     -0.932518      1.649448
  O      -0.631097     -0.919966     -0.539309
  C      -1.724086     -0.405695     -1.345982
  C      -3.051990     -0.414971     -0.560537
  C      -2.876783      0.470873      0.688804
  O      -1.737926      0.076347      1.515177
  C      -3.425060     -1.854540     -0.150704
  C      -4.155547      0.200239     -1.442940
  C       2.001865      2.176662      2.029494
  H       3.081287     -2.054217      0.057558
  H       1.656627     -2.459640     -0.920208
  H       3.285171     -2.930513     -1.479647
  H       2.453385     -0.906580     -2.743421
  H       3.891859     -0.496461     -1.758049
  H       1.688334      2.775528     -0.026949
  H      -0.442938      2.116151      0.848200
  H      -1.471815      0.611167     -1.683842
  H      -1.781672     -1.064118     -2.220185
  H      -2.753878      1.525152      0.393740
  H      -3.748733      0.398261      1.348748
  H      -2.660233     -2.299823      0.493272
  H      -3.533953     -2.489941     -1.039375
  H      -4.379407     -1.864848      0.392145
  H      -4.310893     -0.406818     -2.344189
  H      -3.899248      1.220030     -1.760914
  H      -5.110284      0.242204     -0.902371
  H       1.339299      2.951043      2.438478
  H       3.033496      2.541000      2.069434
  H       1.920644      1.275650      2.646382
>
37
-1165.33131286; 31P isotropic shielding: 274.773917 ppm
  C       5.710762      0.054525      0.014865
  C       4.615534     -0.962351     -0.281328
  O       3.387122     -0.298221     -0.743835
  C       2.541172      0.138264      0.218050
  O       2.726526      0.036878      1.417715
  C       1.318165      0.842630     -0.388000
  N       0.125612      0.587328      0.448272
  P      -0.708328     -0.849869      0.126792
  O       0.067592     -2.097788      0.005972
  O      -1.517767     -0.513464     -1.233015
  C      -2.549583      0.516779     -1.177159
  C      -3.599406      0.222205     -0.085357
  C      -2.878778      0.145021      1.276129
  O      -1.823104     -0.868548      1.292136
  C      -4.333454     -1.101100     -0.384694
  C      -4.596848      1.396526     -0.039570
  C       1.597539      2.353102     -0.490952
  H       5.426023      0.703290      0.850822
  H       6.636096     -0.470623      0.288226
  H       5.917306      0.675495     -0.865953
  H       4.369510     -1.563350      0.600099
  H       4.883837     -1.621251     -1.113242
  H       1.137151      0.434062     -1.388147
  H       0.377166      0.657899      1.438204
  H      -2.069415      1.489749     -0.998730
  H      -3.009935      0.520429     -2.171637
  H      -2.436494      1.117761      1.533866
  H      -3.572493     -0.152261      2.070444
  H      -3.640758     -1.947906     -0.415778
  H      -4.846258     -1.044685     -1.353869
  H      -5.087564     -1.304446      0.386939
  H      -4.091991      2.349293      0.170035
  H      -5.354023      1.235000      0.738912
  H      -5.123206      1.494653     -0.998036
  H       2.480229      2.542784     -1.114209
  H       1.776756      2.775980      0.505729
  H       0.733906      2.859910     -0.936194
>
37
-1165.33673030; 31P isotropic shielding: 273.985196 ppm
  C       2.999396     -2.171029      1.808592
  C       3.698173     -0.828136      1.635559
  O       3.218200     -0.145654      0.424152
  C       2.090057      0.592687      0.547676
  O       1.474378      0.754569      1.589184
  C       1.703379      1.244534     -0.788609
  N       0.245421      1.398282     -0.895484
  P      -0.652511      0.086250     -1.442804
  O      -0.193086     -0.426077     -2.744402
  O      -2.165255      0.641780     -1.405371
  C      -2.867841      0.778034     -0.133238
  C      -2.811106     -0.505039      0.717885
  C      -1.329757     -0.867461      0.944058
  O      -0.627481     -1.086003     -0.315827
  C      -3.550180     -1.655834      0.004186
  C      -3.459350     -0.209217      2.084591
  C       2.405854      2.609246     -0.917046
  H       1.926906     -2.033537      1.983986
  H       3.134134     -2.797839      0.918912
  H       3.426389     -2.699122      2.672052
  H       4.772396     -0.947138      1.461246
  H       3.533046     -0.170036      2.495385
  H       2.027140      0.589946     -1.604860
  H      -0.145768      1.905916     -0.102039
  H      -2.442273      1.629222      0.422266
  H      -3.900169      1.028294     -0.402090
  H      -0.809738     -0.083568      1.512736
  H      -1.239694     -1.811915      1.492664
  H      -4.605468     -1.396731     -0.153363
  H      -3.511924     -2.569624      0.611394
  H      -3.103672     -1.877043     -0.970299
  H      -3.436322     -1.100740      2.724676
  H      -4.510553      0.083231      1.961679
  H      -2.939785      0.601017      2.613954
  H       3.494720      2.491753     -0.861096
  H       2.086643      3.283405     -0.111161
  H       2.143399      3.062176     -1.879142
>
37
-1165.33690745; 31P isotropic shielding: 276.230148 ppm
  C       2.968792     -2.177164      1.800556
  C       3.677910     -0.838659      1.635412
  O       3.205566     -0.146845      0.426286
  C       2.082019      0.598183      0.550836
  O       1.465711      0.760203      1.591974
  C       1.700804      1.257270     -0.783585
  N       0.242825      1.405959     -0.898206
  P      -0.648344      0.090127     -1.447731
  O      -0.182535     -0.421816     -2.747165
  O      -2.163147      0.640290     -1.416062
  C      -2.870794      0.774849     -0.146560
  C      -2.812523     -0.507447      0.705616
  C      -1.330699     -0.864311      0.937493
  O      -0.622868     -1.080989     -0.319577
  C      -3.544881     -1.661433     -0.009868
  C      -3.466777     -0.213014      2.069777
  C       2.398144      2.625660     -0.897998
  H       3.390937     -2.712853      2.661713
  H       1.897172     -2.032588      1.975369
  H       3.099899     -2.800206      0.907714
  H       4.751553     -0.964909      1.462676
  H       3.515973     -0.183475      2.498071
  H       2.031919      0.609583     -1.602339
  H      -0.154232      1.914607     -0.108368
  H      -2.450169      1.627824      0.409968
  H      -3.903032      1.021315     -0.419204
  H      -0.815732     -0.078204      1.507653
  H      -1.239329     -1.808107      1.487014
  H      -4.600527     -1.406267     -0.171376
  H      -3.505488     -2.574588      0.598224
  H      -3.094175     -1.881914     -0.982599
  H      -2.951836      0.599257      2.600518
  H      -3.443063     -1.104095      2.710446
  H      -4.518495      0.075818      1.942835
  H       2.071640      3.292497     -0.088950
  H       2.139828      3.084789     -1.858301
  H       3.487153      2.512152     -0.836364
>
37
-1165.33690123; 31P isotropic shielding: 276.315172 ppm
  C       3.021104     -2.166622      1.815583
  C       3.713020     -0.821043      1.636039
  O       3.227671     -0.145821      0.422740
  C       2.096541      0.588154      0.545279
  O       1.481650      0.750960      1.587107
  C       1.705675      1.233722     -0.792762
  N       0.247795      1.391613     -0.893558
  P      -0.655635      0.082586     -1.438685
  O      -0.201669     -0.430372     -2.741962
  O      -2.166670      0.642430     -1.396347
  C      -2.865054      0.780037     -0.122052
  C      -2.809270     -0.503563      0.728371
  C      -1.328242     -0.870203      0.949794
  O      -0.630614     -1.090368     -0.312414
  C      -3.553684     -1.651970      0.016378
  C      -3.452516     -0.206543      2.097167
  C       2.412336      2.595241     -0.933076
  H       3.451400     -2.689031      2.680852
  H       1.948118     -2.033540      1.991488
  H       3.157979     -2.796601      0.928454
  H       4.787549     -0.935385      1.460486
  H       3.545980     -0.160347      2.493499
  H       2.023485      0.573189     -1.606602
  H      -0.138752      1.899184     -0.097798
  H      -2.435560      1.629853      0.432526
  H      -3.897509      1.033175     -0.387717
  H      -0.804242     -0.087892      1.517032
  H      -1.239025     -1.815046      1.497865
  H      -3.110709     -1.873802     -0.959566
  H      -4.608731     -1.389876     -0.137810
  H      -3.516077     -2.566191      0.622976
  H      -4.503286      0.088837      1.977584
  H      -2.929140      0.602057      2.625284
  H      -3.429975     -1.098394      2.736815
  H       3.501025      2.474495     -0.881172
  H       2.098703      3.275764     -0.130358
  H       2.146932      3.042613     -1.896943
>
37
-1165.33690888; 31P isotropic shielding: 276.180513 ppm
  C       2.948208     -2.184844      1.796008
  C       3.652622     -0.841323      1.654045
  O       3.189614     -0.137437      0.448306
  C       2.062028      0.602356      0.570221
  O       1.434466      0.749483      1.606707
  C       1.692487      1.275820     -0.760306
  N       0.235246      1.418465     -0.889886
  P      -0.644620      0.105133     -1.461993
  O      -0.161864     -0.393200     -2.760626
  O      -2.161850      0.649589     -1.443224
  C      -2.883104      0.772318     -0.180292
  C      -2.830191     -0.516191      0.662863
  C      -1.349875     -0.871318      0.906797
  O      -0.628873     -1.076439     -0.344637
  C      -3.552940     -1.666493     -0.067929
  C      -3.498418     -0.233125      2.022664
  C       2.383968      2.648948     -0.849811
  H       1.873824     -2.047180      1.959291
  H       3.093058     -2.797567      0.898149
  H       3.362213     -2.727943      2.656490
  H       4.728623     -0.960458      1.490994
  H       3.478766     -0.197098      2.522637
  H       2.036549      0.639883     -1.582928
  H      -0.172661      1.920556     -0.101398
  H      -2.470816      1.622314      0.386989
  H      -3.913153      1.017958     -0.461971
  H      -0.842659     -0.088324      1.488080
  H      -1.261529     -1.819155      1.449852
  H      -3.517998     -2.583760      0.534252
  H      -3.092284     -1.879700     -1.037681
  H      -4.607459     -1.412309     -0.238266
  H      -2.989760      0.575650      2.564676
  H      -3.480059     -1.129006      2.656813
  H      -4.549234      0.055408      1.887615
  H       3.472922      2.539727     -0.779995
  H       2.047318      3.303251     -0.034647
  H       2.132031      3.120008     -1.806061
>
37
-1165.33688933; 31P isotropic shielding: 276.333745 ppm
  C       3.058771     -2.184293      1.813515
  C       3.746578     -0.837480      1.627179
  O       3.251825     -0.165160      0.416224
  C       2.119850      0.566634      0.545239
  O       1.511291      0.728956      1.590804
  C       1.719427      1.209992     -0.790930
  N       0.261423      1.372557     -0.878915
  P      -0.651127      0.068752     -1.420266
  O      -0.208284     -0.443482     -2.727766
  O      -2.159498      0.634730     -1.365904
  C      -2.848601      0.772676     -0.086851
  C      -2.791570     -0.512512      0.761235
  C      -1.310365     -0.885245      0.971217
  O      -0.623162     -1.106398     -0.296318
  C      -3.545527     -1.656841      0.052868
  C      -3.423646     -0.215043      2.135092
  C       2.429756      2.568577     -0.941779
  H       3.192035     -2.815879      0.926982
  H       3.495092     -2.703820      2.677481
  H       1.986508     -2.053078      1.995185
  H       4.820174     -0.949887      1.444690
  H       3.583996     -0.176006      2.484889
  H       2.027770      0.546067     -1.605668
  H      -0.116951      1.880816     -0.079760
  H      -2.412498      1.620036      0.466357
  H      -3.881991      1.029856     -0.344936
  H      -0.779264     -0.105716      1.535766
  H      -1.220870     -1.831109      1.517484
  H      -3.506089     -2.572506      0.657166
  H      -3.111136     -1.877973     -0.927063
  H      -4.600898     -1.390873     -0.092194
  H      -4.473842      0.085533      2.023617
  H      -2.892772      0.590114      2.660978
  H      -3.400821     -1.108124      2.773016
  H       3.518432      2.444117     -0.899685
  H       2.125913      3.252551     -0.138235
  H       2.156871      3.014060     -1.904412
>
37
-1165.33690797; 31P isotropic shielding: 276.196296 ppm
  C       5.713883      0.076346      0.012239
  C       4.613977     -0.935868     -0.282259
  O       3.385988     -0.266487     -0.739133
  C       2.546824      0.174057      0.226620
  O       2.738313      0.074162      1.425457
  C       1.322180      0.881213     -0.373633
  N       0.130536      0.618859      0.461786
  P      -0.691947     -0.825582      0.143488
  O       0.092528     -2.068803      0.031632
  O      -1.497828     -0.500390     -1.220734
  C      -2.537881      0.522695     -1.173031
  C      -3.588951      0.225934     -0.083210
  C      -2.872573      0.159775      1.280923
  O      -1.810378     -0.847365      1.305090
  C      -4.313060     -1.103870     -0.378803
  C      -4.594606      1.393710     -0.046221
  C       1.599098      2.392565     -0.466609
  H       5.434369      0.723900      0.850879
  H       6.638683     -0.452204      0.280860
  H       5.919142      0.698738     -0.867918
  H       4.368147     -1.537696      0.598681
  H       4.876442     -1.593908     -1.116677
  H       1.140422      0.478731     -1.376114
  H       0.380474      0.692889      1.451907
  H      -2.064898      1.499741     -0.998096
  H      -2.995007      0.517653     -2.168966
  H      -2.436534      1.135995      1.535878
  H      -3.567055     -0.138743      2.074091
  H      -4.822715     -1.055925     -1.350097
  H      -5.068416     -1.308773      0.391192
  H      -3.614244     -1.945878     -0.403240
  H      -4.096732      2.350591      0.161402
  H      -5.353631      1.230234      0.730038
  H      -5.117759      1.484228     -1.007179
  H       1.778664      2.808820      0.532806
  H       0.734364      2.901033     -0.907868
  H       2.481080      2.587825     -1.089185
>
37
-1165.33670787; 31P isotropic shielding: 274.063944 ppm
  C       3.407808     -1.996100     -1.212165
  C       2.829078     -0.687992     -1.723311
  O       2.613075      0.168621     -0.553707
  C       1.822116      1.248970     -0.726234
  O       1.396336      1.639285     -1.797853
  C       1.479477      1.910578      0.624301
  N       0.136961      1.413515      1.039941
  P      -0.221247     -0.235089      1.156939
  O       0.648989     -1.112814      1.960908
  O      -0.307578     -0.720104     -0.381455
  C      -1.356985     -0.147438     -1.226586
  C      -2.755531     -0.344467     -0.608461
  C      -2.781735      0.337544      0.773836
  O      -1.749957     -0.182484      1.674413
  C      -3.084619     -1.845816     -0.476241
  C      -3.788538      0.357513     -1.512734
  C       2.555203      1.744075      1.707204
  H       3.572615     -2.680196     -2.055227
  H       4.368084     -1.833655     -0.707402
  H       2.717277     -2.469233     -0.504453
  H       1.863894     -0.826834     -2.222339
  H       3.504313     -0.164899     -2.412860
  H       1.344438      2.973930      0.386831
  H      -0.218214      1.933716      1.841321
  H      -1.135994      0.915206     -1.387377
  H      -1.273557     -0.675471     -2.182613
  H      -2.642266      1.422805      0.669579
  H      -3.730235      0.147220      1.288622
  H      -2.371415     -2.359151      0.176507
  H      -3.055769     -2.331814     -1.460345
  H      -4.090726     -1.985125     -0.059073
  H      -3.565036      1.426527     -1.628060
  H      -4.799389      0.262524     -1.094862
  H      -3.798147     -0.096369     -2.512181
  H       3.520437      2.133547      1.358149
  H       2.672029      0.692166      1.981885
  H       2.263910      2.309710      2.602602
>
37
-1165.33348226; 31P isotropic shielding: 277.677595 ppm
  C       3.628787     -2.134758     -0.672868
  C       3.979944     -0.736851     -1.165564
  O       2.832369      0.169319     -1.014705
  C       2.680802      0.755929      0.204234
  O       3.484885      0.688557      1.111296
  C       1.374581      1.583668      0.245386
  N       0.256553      0.934134     -0.488353
  P      -0.381424     -0.511323      0.122536
  O       0.560269     -1.485552      0.705453
  O      -1.216216     -1.060662     -1.146478
  C      -2.425802     -0.350716     -1.567566
  C      -3.406129     -0.108621     -0.402459
  C      -2.664241      0.673957      0.700974
  O      -1.502803     -0.057813      1.192088
  C      -3.933777     -1.449526      0.148167
  C      -4.569317      0.759425     -0.921446
  C       0.995752      1.944344      1.684311
  H       3.386530     -2.123567      0.394263
  H       2.763651     -2.535946     -1.212540
  H       4.486784     -2.802169     -0.834821
  H       4.188563     -0.719178     -2.240784
  H       4.829244     -0.313132     -0.618574
  H       1.593744      2.512302     -0.304793
  H       0.509291      0.805493     -1.468282
  H      -2.130646      0.604265     -2.025622
  H      -2.877786     -0.988098     -2.335695
  H      -2.334008      1.654098      0.327489
  H      -3.306506      0.820907      1.576424
  H      -4.623778     -1.275866      0.984193
  H      -3.118852     -2.085171      0.508536
  H      -4.476764     -1.998565     -0.632277
  H      -5.288638      0.963146     -0.117544
  H      -5.109744      0.245500     -1.727204
  H      -4.213435      1.722790     -1.311004
  H       1.815491      2.497696      2.151948
  H       0.813732      1.046585      2.284201
  H       0.092793      2.564803      1.688677
>
37
-1165.33483497; 31P isotropic shielding: 273.228806 ppm
  C       3.869426     -2.014469      0.356346
  C       4.128501     -0.600829      0.860547
  O       2.903528      0.209943      0.788082
  C       2.618493      0.771098     -0.415224
  O       3.351623      0.763132     -1.384448
  C       1.259069      1.493831     -0.380297
  N       0.239752      0.823802      0.456041
  P      -0.390822     -0.638973     -0.115107
  O       0.545488     -1.716445     -0.484698
  O      -1.311264     -0.182603     -1.361589
  C      -2.480538      0.646924     -1.082778
  C      -3.411184     -0.001709     -0.037040
  C      -2.611587     -0.215856      1.264136
  O      -1.421522     -1.043816      1.058213
  C      -3.960964     -1.343685     -0.562402
  C      -4.565537      0.976514      0.259855
  C       1.458791      2.947076      0.084621
  H       3.043940     -2.481543      0.904443
  H       3.609180     -2.008414     -0.706769
  H       4.776452     -2.619598      0.493486
  H       4.910443     -0.096971      0.281632
  H       4.388598     -0.584308      1.924348
  H       0.896436      1.491344     -1.414599
  H       0.560774      0.732116      1.421200
  H      -2.140633      1.634139     -0.738579
  H      -2.991174      0.758612     -2.045741
  H      -2.298608      0.748745      1.688015
  H      -3.209712     -0.755458      2.006791
  H      -3.155386     -2.049069     -0.789390
  H      -4.543396     -1.185497     -1.479497
  H      -4.620943     -1.806781      0.182847
  H      -5.153202      1.166670     -0.647607
  H      -4.194062      1.940352      0.633335
  H      -5.245503      0.558594      1.013640
  H       1.808522      2.974647      1.124957
  H       0.510068      3.492470      0.020694
  H       2.202454      3.450417     -0.544165
>
37
-1165.33635419; 31P isotropic shielding: 274.932704 ppm
  C       3.714403     -2.087641      0.827824
  C       4.145556     -0.627172      0.816960
  O       2.959809      0.240542      0.775449
  C       2.586018      0.721042     -0.441393
  O       3.220813      0.608531     -1.470324
  C       1.259561      1.496414     -0.330225
  N       0.242606      0.815015      0.501222
  P      -0.391915     -0.643203     -0.075512
  O       0.543474     -1.711910     -0.471550
  O      -1.334987     -0.178790     -1.301512
  C      -2.504104      0.640085     -0.994871
  C      -3.415019     -0.028959      0.055484
  C      -2.594391     -0.249273      1.342628
  O      -1.400703     -1.064471      1.111305
  C      -3.958460     -1.370561     -0.477109
  C      -4.574901      0.933676      0.379473
  C       1.522184      2.910772      0.212651
  H       4.602639     -2.730078      0.904978
  H       3.058999     -2.296448      1.681923
  H       3.166269     -2.339655     -0.085812
  H       4.773577     -0.391809     -0.048181
  H       4.664575     -0.340977      1.738860
  H       0.867193      1.562342     -1.351210
  H       0.558566      0.725642      1.468102
  H      -2.165180      1.624427     -0.641205
  H      -3.029496      0.763361     -1.948419
  H      -2.283942      0.714537      1.770474
  H      -3.177035     -0.799696      2.089650
  H      -4.611151     -1.843519      0.268361
  H      -3.149772     -2.068917     -0.714228
  H      -4.547102     -1.209331     -1.389690
  H      -5.175026      1.130991     -0.518248
  H      -4.208699      1.895854      0.762377
  H      -5.241630      0.498180      1.135032
  H       0.593953      3.493974      0.202170
  H       2.270169      3.424238     -0.403247
  H       1.897351      2.863789      1.243013
>
37
-1165.33664243; 31P isotropic shielding: 275.953182 ppm
  C       3.700651     -2.058332     -0.560845
  C       4.018181     -0.663690     -1.084738
  O       2.860021      0.228261     -0.930255
  C       2.707789      0.815939      0.288108
  O       3.517031      0.758545      1.191429
  C       1.394558      1.631602      0.334287
  N       0.280340      0.976636     -0.400478
  P      -0.345381     -0.476714      0.204675
  O       0.605241     -1.447132      0.779894
  O      -1.179627     -1.025334     -1.065342
  C      -2.394533     -0.321236     -1.479638
  C      -3.374101     -0.091943     -0.311399
  C      -2.635282      0.689620      0.794614
  O      -1.467583     -0.036001      1.279225
  C      -3.892209     -1.438884      0.232813
  C      -4.543787      0.771328     -0.823743
  C       1.014824      1.984854      1.774572
  H       3.495222     -2.035432      0.513756
  H       2.822809     -2.477396     -1.065034
  H       4.561302     -2.717199     -0.742773
  H       4.206478     -0.663019     -2.163833
  H       4.871017     -0.216791     -0.562055
  H       1.606111      2.563583     -0.213480
  H       0.531811      0.854835     -1.381599
  H      -2.106788      0.638255     -1.933086
  H      -2.843750     -0.957449     -2.250443
  H      -2.313399      1.674402      0.425970
  H      -3.276422      0.826732      1.672569
  H      -3.073027     -2.071960      0.588050
  H      -4.433730     -1.986695     -0.549548
  H      -4.581638     -1.274042      1.071125
  H      -5.081616      0.259102     -1.632355
  H      -4.195302      1.739749     -1.207447
  H      -5.264085      0.965100     -0.018209
  H       0.106464      2.597418      1.781370
  H       1.830104      2.543627      2.243448
  H       0.840505      1.083960      2.372095
