37
-1968.75819968; 31P isotropic shielding: 249.134233 ppm
  C      -3.471558      3.578143     -0.881657
  C      -2.300590      3.158498     -0.004990
  O      -1.570863      2.040570     -0.625406
  P      -1.769346      0.549068     -0.058566
  O      -1.462048      0.330296      1.381675
  C      -0.660362     -0.327605     -1.220079
  S      -0.394935     -2.139705     -0.896194
  O      -1.738423     -2.762199     -0.608488
  C       0.511267     -2.016857      0.756470
  C       1.779106     -1.231576      0.637011
  C       1.855036      0.081594      1.134365
  C       3.018755      0.838145      0.983551
  C       4.116450      0.280225      0.322765
  C       4.068000     -1.021250     -0.182653
  C       2.899137     -1.768226     -0.021470
  Cl      5.586602      1.229808      0.127972
  O      -3.280704      0.217466     -0.491657
  C      -4.084006     -0.796192      0.225708
  C      -4.759412     -0.188536      1.445565
  H      -3.124338      3.856062     -1.884349
  H      -3.973226      4.448588     -0.436446
  H      -4.198669      2.764505     -0.975747
  H      -2.624421      2.863201      1.001133
  H      -1.560331      3.960461      0.095002
  H      -1.079133     -0.281969     -2.231623
  H       0.323244      0.155343     -1.220050
  H      -0.205268     -1.583151      1.458124
  H       0.683362     -3.074793      0.987117
  H       0.988706      0.508982      1.635240
  H       3.076911      1.850108      1.376141
  H       4.932566     -1.441354     -0.689947
  H       2.861171     -2.784942     -0.410926
  H      -3.437957     -1.642655      0.477003
  H      -4.812479     -1.127604     -0.522024
  H      -5.378649      0.674012      1.166581
  H      -5.411767     -0.940231      1.911879
  H      -4.013626      0.127869      2.182872
>
37
-1968.75944966; 31P isotropic shielding: 244.424257 ppm
  C      -3.479198      3.574495     -0.879706
  C      -2.307975      3.155644     -0.002985
  O      -1.576891      2.038794     -0.623800
  P      -1.774067      0.546737     -0.057899
  O      -1.466558      0.327294      1.382180
  C      -0.664422     -0.328230     -1.220103
  S      -0.396125     -2.139996     -0.896582
  O      -1.738497     -2.764629     -0.608501
  C       0.510445     -2.015811      0.755800
  C       1.776622     -1.227867      0.636264
  C       1.849925      0.085310      1.134005
  C       3.012004      0.844353      0.983112
  C       4.110705      0.288960      0.321847
  C       4.064839     -1.012463     -0.183956
  C       2.897591     -1.761948     -0.022706
  Cl      5.578779      1.241706      0.126899
  O      -3.285219      0.214199     -0.491004
  C      -4.087268     -0.801120      0.225400
  C      -4.763141     -0.195514      1.446032
  H      -3.981834      4.444220     -0.434186
  H      -4.205427      2.760136     -0.974338
  H      -3.132030      3.853222     -1.882194
  H      -2.631718      2.859468      1.002906
  H      -1.568596      3.958348      0.097545
  H      -1.083770     -0.283078     -2.231430
  H       0.318529      0.156051     -1.220511
  H      -0.206759     -1.583837      1.457843
  H       0.684800     -3.073476      0.986021
  H       0.982818      0.510721      1.635223
  H       3.068118      1.856329      1.375972
  H       4.930154     -1.430601     -0.691605
  H       2.861646     -2.778619     -0.412473
  H      -3.440220     -1.647123      0.475724
  H      -4.815487     -1.132612     -0.522552
  H      -5.414852     -0.948275      1.911522
  H      -4.017534      0.120640      2.183623
  H      -5.383087      0.666872      1.168112
>
37
-1968.75944523; 31P isotropic shielding: 244.421082 ppm
  C      -3.497711      3.671522     -0.620959
  C      -2.258976      3.284202      0.173571
  O      -1.582205      2.141958     -0.462747
  P      -1.720147      0.675407      0.182637
  O      -1.268030      0.513567      1.591502
  C      -0.739844     -0.245505     -1.058021
  S      -0.490360     -2.062611     -0.752837
  O      -1.823110     -2.662451     -0.379592
  C       0.529014     -1.955780      0.833023
  C       1.818248     -1.229689      0.606655
  C       2.859863     -1.825391     -0.125808
  C       4.045976     -1.135650     -0.385619
  C       4.191332      0.168009      0.094880
  C       3.173042      0.783858      0.827451
  C       1.990638      0.084257      1.076717
  Cl      5.683517      1.046730     -0.224853
  O      -3.268031      0.328092     -0.071935
  C      -3.978091     -0.640542      0.791730
  C      -5.393945     -0.764237      0.258500
  H      -4.226911      2.854196     -0.627051
  H      -3.232761      3.912869     -1.657709
  H      -3.965596      4.557280     -0.169180
  H      -2.499572      3.027449      1.213101
  H      -1.514002      4.087980      0.182936
  H      -1.241761     -0.192274     -2.030699
  H       0.253018      0.210166     -1.145160
  H      -0.113270     -1.479494      1.577819
  H       0.671495     -3.016679      1.070315
  H       2.746169     -2.843764     -0.495720
  H       4.849651     -1.601444     -0.949955
  H       3.306551      1.796899      1.198372
  H       1.185197      0.558042      1.634246
  H      -3.952579     -0.255099      1.817512
  H      -3.441586     -1.593673      0.744226
  H      -5.914570      0.201730      0.277785
  H      -5.389277     -1.141342     -0.771292
  H      -5.956979     -1.472487      0.881158
>
37
-1968.75988292; 31P isotropic shielding: 246.927188 ppm
  C      -3.477280      3.683235     -0.606418
  C      -2.237660      3.285268      0.181680
  O      -1.571740      2.139194     -0.458827
  P      -1.716511      0.672146      0.184120
  O      -1.266720      0.506027      1.593130
  C      -0.736404     -0.249175     -1.056414
  S      -0.487831     -2.066025     -0.751114
  O      -1.820705     -2.664849     -0.376468
  C       0.533120     -1.959876      0.833476
  C       1.821598     -1.232546      0.606280
  C       1.993549      0.080994      1.077486
  C       3.174866      0.781978      0.826935
  C       4.192454      0.167838      0.091997
  C       4.047574     -1.135477     -0.389543
  C       2.862540     -1.826587     -0.128423
  Cl      5.683205      1.048332     -0.229500
  O      -3.265205      0.330008     -0.073290
  C      -3.978015     -0.640722      0.785671
  C      -5.388107     -0.772957      0.239419
  H      -3.934829      4.573160     -0.152275
  H      -4.213674      2.872450     -0.609045
  H      -3.215656      3.922334     -1.644520
  H      -2.474328      3.029384      1.222345
  H      -1.486805      4.083625      0.188066
  H      -1.237591     -0.195615     -2.029444
  H       0.256537      0.206410     -1.142633
  H      -0.108705     -1.484534      1.579261
  H       0.676609     -3.020804      1.069951
  H       1.188649      0.553449      1.636886
  H       3.307983      1.794797      1.198567
  H       4.850701     -1.599903     -0.955756
  H       2.749114     -2.844613     -0.499321
  H      -3.964073     -0.253003      1.810809
  H      -3.436701     -1.591474      0.745019
  H      -5.913693      0.190431      0.250836
  H      -5.371708     -1.153244     -0.789050
  H      -5.953556     -1.482056      0.858907
>
37
-1968.75988308; 31P isotropic shielding: 246.906935 ppm
  C      -3.469919      3.714491     -0.609209
  C      -2.226141      3.318422      0.173145
  O      -1.570127      2.163355     -0.461156
  P      -1.725624      0.701720      0.191822
  O      -1.273051      0.540532      1.600377
  C      -0.759838     -0.238121     -1.046104
  S      -0.532903     -2.054245     -0.720812
  O      -1.870011     -2.627233     -0.320795
  C       0.507534     -1.943145      0.851072
  C       1.798718     -1.226819      0.606137
  C       2.829171     -1.833659     -0.132858
  C       4.016427     -1.152555     -0.409894
  C       4.174202      0.153552      0.059893
  C       3.167178      0.780369      0.798740
  C       1.983519      0.089301      1.065226
  Cl      5.667904      1.021397     -0.281559
  O      -3.277496      0.370324     -0.061559
  C      -4.000012     -0.580601      0.811711
  C      -5.337723     -0.866906      0.153795
  H      -3.918749      4.612172     -0.161654
  H      -4.211007      2.907984     -0.596456
  H      -3.215369      3.940202     -1.652089
  H      -2.456795      3.073232      1.217761
  H      -1.471758      4.113439      0.166827
  H      -1.265841     -0.188732     -2.016821
  H       0.237490      0.205695     -1.141937
  H      -0.123955     -1.457471      1.599094
  H       0.645779     -3.003189      1.094546
  H       2.705738     -2.853935     -0.494339
  H       4.811471     -1.626926     -0.979290
  H       3.310391      1.795193      1.161079
  H       1.186728      0.571663      1.627814
  H      -4.111973     -0.107938      1.794471
  H      -3.397846     -1.489574      0.904688
  H      -5.921792      0.052502      0.019703
  H      -5.192014     -1.340087     -0.824497
  H      -5.915508     -1.554507      0.786027
>
37
-1968.75868068; 31P isotropic shielding: 246.620534 ppm
  C      -3.523997      3.654554     -0.684372
  C      -2.297157      3.277945      0.133323
  O      -1.596216      2.145094     -0.493050
  P      -1.721250      0.677018      0.151110
  O      -1.268591      0.517510      1.560096
  C      -0.728591     -0.233068     -1.087423
  S      -0.469377     -2.051259     -0.795691
  O      -1.802378     -2.665801     -0.448310
  C       0.527468     -1.953257      0.804324
  C       1.820144     -1.226810      0.597987
  C       2.870592     -1.820630     -0.123284
  C       4.060855     -1.131290     -0.364542
  C       4.201213      0.170131      0.123432
  C       3.174164      0.784113      0.845138
  C       1.987734      0.084862      1.075911
  Cl      5.698605      1.048433     -0.172818
  O      -3.266742      0.319903     -0.102863
  C      -3.969095     -0.663153      0.750284
  C      -5.431554     -0.649318      0.343118
  H      -3.241612      3.900343     -1.715469
  H      -4.008953      4.534924     -0.240184
  H      -4.244938      2.830155     -0.705771
  H      -2.556343      3.015471      1.166934
  H      -1.561310      4.089733      0.160169
  H      -1.222656     -0.176066     -2.063917
  H       0.262656      0.228278     -1.163356
  H      -0.123715     -1.480730      1.543723
  H       0.666434     -3.015508      1.037583
  H       2.760700     -2.837279     -0.499042
  H       4.871377     -1.595630     -0.920195
  H       3.303888      1.795387      1.222156
  H       1.175673      0.557128      1.625021
  H      -3.827489     -0.363759      1.795120
  H      -3.503781     -1.640516      0.585617
  H      -5.545915     -0.927784     -0.711611
  H      -5.985838     -1.376323      0.951870
  H      -5.879707      0.340797      0.495983
>
37
-1968.75976980; 31P isotropic shielding: 247.426794 ppm
  C      -3.609180      3.507477     -0.861166
  C      -2.398224      3.154827     -0.009557
  O      -1.637403      2.058156     -0.630464
  P      -1.755034      0.570715     -0.031219
  O      -1.417192      0.396806      1.408338
  C      -0.633661     -0.280758     -1.195604
  S      -0.385911     -2.099772     -0.883390
  O      -1.734152     -2.704919     -0.586592
  C       0.533823     -1.987308      0.764224
  C       1.810746     -1.219102      0.634730
  C       1.906855      0.094018      1.128962
  C       3.078636      0.835790      0.967606
  C       4.164013      0.263184      0.298966
  C       4.095363     -1.038369     -0.203818
  C       2.918692     -1.770577     -0.031926
  Cl      5.644038      1.194409      0.090312
  O      -3.253079      0.151503     -0.427896
  C      -4.009482     -0.846613      0.351213
  C      -5.217582     -0.170848      0.979010
  H      -3.300844      3.780605     -1.877815
  H      -4.135570      4.364296     -0.418060
  H      -4.303095      2.662407     -0.921228
  H      -2.681504      2.863921      1.010030
  H      -1.691570      3.989919      0.056762
  H      -1.046916     -0.222687     -2.208763
  H       0.351337      0.198542     -1.182870
  H      -0.171289     -1.542550      1.470641
  H       0.692854     -3.047080      0.995741
  H       1.049649      0.533498      1.635319
  H       3.152389      1.847736      1.357664
  H       4.950485     -1.469849     -0.717576
  H       2.864927     -2.787319     -0.419463
  H      -3.350705     -1.286207      1.104799
  H      -4.287328     -1.627439     -0.362970
  H      -4.906327      0.592694      1.702747
  H      -5.848173      0.301647      0.215249
  H      -5.823283     -0.918852      1.509066
>
37
-1968.75842566; 31P isotropic shielding: 246.813212 ppm
  C      -3.406469      3.677770     -0.764719
  C      -2.173327      3.308481      0.047181
  O      -1.507578      2.133611     -0.538741
  P      -1.679511      0.693396      0.156036
  O      -1.265867      0.579858      1.581104
  C      -0.677100     -0.288109     -1.017299
  S      -0.480217     -2.088757     -0.598159
  O      -1.828172     -2.614324     -0.170586
  C       0.551664     -1.911188      0.974127
  C       1.842805     -1.200806      0.715330
  C       2.016435      0.134229      1.121320
  C       3.200284      0.819261      0.840751
  C       4.218949      0.166974      0.140862
  C       4.072433     -1.158285     -0.275960
  C       2.884821     -1.833034      0.014902
  Cl      5.713026      1.026881     -0.218354
  O      -3.219828      0.345972     -0.135802
  C      -3.988578     -0.564742      0.738199
  C      -4.942183     -1.359143     -0.134931
  H      -3.137696      3.870801     -1.810565
  H      -3.862070      4.588551     -0.351837
  H      -4.147312      2.871331     -0.737268
  H      -2.417800      3.097901      1.096205
  H      -1.419261      4.103484      0.024435
  H      -1.152841     -0.277166     -2.004278
  H       0.325430      0.145966     -1.099172
  H      -0.090223     -1.398344      1.694789
  H       0.690255     -2.960030      1.261859
  H       1.210506      0.635791      1.653355
  H       3.334760      1.848905      1.162270
  H       4.876422     -1.652109     -0.815455
  H       2.770281     -2.868120     -0.305002
  H      -4.516798      0.068506      1.461780
  H      -3.294808     -1.222121      1.268508
  H      -5.600078     -0.694893     -0.709742
  H      -4.380053     -1.999256     -0.823272
  H      -5.568802     -2.000643      0.499830
>
37
-1968.75978141; 31P isotropic shielding: 247.241493 ppm
  C      -3.406175      3.683580     -0.670756
  C      -2.079788      3.334013     -0.010314
  O      -1.498143      2.124223     -0.614861
  P      -1.678023      0.699229      0.109226
  O      -1.269995      0.614926      1.538195
  C      -0.671531     -0.308277     -1.039043
  S      -0.481315     -2.102956     -0.588231
  O      -1.832306     -2.621359     -0.162503
  C       0.537991     -1.900206      0.989244
  C       1.833392     -1.197824      0.730279
  C       2.881241     -1.846055      0.053700
  C       4.074019     -1.180245     -0.236419
  C       4.219936      0.152204      0.156784
  C       3.195336      0.820429      0.832541
  C       2.006370      0.144314      1.112620
  Cl      5.720474      1.000911     -0.201507
  O      -3.216578      0.345391     -0.181728
  C      -3.987044     -0.554781      0.701083
  C      -4.943415     -1.354658     -0.164300
  H      -4.145934      2.892738     -0.507335
  H      -3.276635      3.822291     -1.751128
  H      -3.792147      4.620707     -0.245988
  H      -2.183294      3.176840      1.071010
  H      -1.328913      4.115324     -0.173846
  H      -1.141470     -0.314162     -2.028962
  H       0.333362      0.119726     -1.123187
  H      -0.108132     -1.374624      1.696841
  H       0.671950     -2.944650      1.294959
  H       2.767060     -2.886719     -0.247820
  H       4.882618     -1.686515     -0.757280
  H       3.329406      1.855598      1.136212
  H       1.195967      0.657849      1.626181
  H      -4.512149      0.086778      1.419587
  H      -3.295250     -1.210627      1.235949
  H      -5.572630     -1.987947      0.476093
  H      -5.598107     -0.694237     -0.747021
  H      -4.382148     -2.004028     -0.844779
>
37
-1968.75979661; 31P isotropic shielding: 247.052079 ppm
  C      -3.456822      3.654500     -0.764147
  C      -2.224300      3.292200      0.051799
  O      -1.546813      2.124842     -0.535766
  P      -1.706317      0.681783      0.156023
  O      -1.292399      0.569050      1.581080
  C      -0.694525     -0.288429     -1.018782
  S      -0.480810     -2.087840     -0.602431
  O      -1.823849     -2.626539     -0.175747
  C       0.549417     -1.902700      0.970183
  C       1.833579     -1.179456      0.712385
  C       1.994140      0.156675      1.120274
  C       3.171306      0.853587      0.841000
  C       4.196424      0.212216      0.140459
  C       4.062881     -1.113786     -0.278315
  C       2.881832     -1.800490      0.011278
  Cl      5.682186      1.087086     -0.217060
  O      -3.243417      0.321632     -0.137239
  C      -4.004160     -0.598544      0.733871
  C      -4.949626     -1.399923     -0.141754
  H      -3.185008      3.853172     -1.808151
  H      -3.921325      4.560287     -0.350186
  H      -4.191418      2.842179     -0.742663
  H      -2.471649      3.075660      1.098927
  H      -1.476594      4.093352      0.035365
  H      -1.170132     -0.280327     -2.005857
  H       0.303941      0.155069     -1.099688
  H      -0.097371     -1.396969      1.691465
  H       0.698247     -2.950544      1.256418
  H       1.183160      0.649556      1.652761
  H       3.295665      1.884034      1.164039
  H       4.871810     -1.598969     -0.818282
  H       2.777540     -2.836212     -0.310085
  H      -4.538894      0.028035      1.458479
  H      -3.304648     -1.250628      1.263191
  H      -4.381074     -2.033496     -0.830894
  H      -5.570765     -2.048597      0.491114
  H      -5.613211     -0.740666     -0.715765
>
37
-1968.75978876; 31P isotropic shielding: 247.243871 ppm
  C      -1.802953      3.753646      0.532137
  C      -2.481643      2.997822     -0.602497
  O      -1.674044      1.844816     -1.028820
  P      -1.851895      0.423218     -0.297720
  O      -1.607519      0.380263      1.170681
  C      -0.667259     -0.542729     -1.301134
  S      -0.383775     -2.297503     -0.752242
  O      -1.725877     -2.906256     -0.432740
  C       0.464759     -1.956903      0.902105
  C       1.705900     -1.138912      0.733535
  C       1.716740      0.222427      1.085860
  C       2.854424      1.005756      0.882889
  C       3.992203      0.425548      0.315529
  C       4.008915     -0.924063     -0.044797
  C       2.865245     -1.697012      0.167300
  Cl      5.429427      1.408878      0.054465
  O      -3.326257     -0.012501     -0.759179
  C      -4.152846     -0.917424      0.066783
  C      -4.944409     -0.129892      1.099230
  H      -0.800140      4.082156      0.232399
  H      -1.716121      3.121759      1.422682
  H      -2.395125      4.643553      0.787262
  H      -2.576252      3.614467     -1.503130
  H      -3.482061      2.647010     -0.318377
  H      -1.039291     -0.625310     -2.328386
  H       0.304595     -0.037244     -1.312905
  H      -0.291265     -1.479012      1.529878
  H       0.668199     -2.975058      1.254314
  H       0.819751      0.665701      1.513270
  H       2.861770      2.056041      1.162938
  H       4.903761     -1.360695     -0.480615
  H       2.877809     -2.750598     -0.109459
  H      -3.503748     -1.673119      0.518673
  H      -4.805906     -1.412664     -0.659566
  H      -4.271557      0.348369      1.819788
  H      -5.563608      0.638844      0.618716
  H      -5.610347     -0.811778      1.646431
>
37
-1968.75965822; 31P isotropic shielding: 245.413400 ppm
  C      -3.266256      3.740057     -0.322965
  C      -1.830999      3.369786      0.027248
  O      -1.410477      2.138459     -0.659529
  P      -1.618732      0.707727      0.045905
  O      -1.231527      0.613876      1.480478
  C      -0.611911     -0.304035     -1.098035
  S      -0.459023     -2.106560     -0.666625
  O      -1.825206     -2.609765     -0.272104
  C       0.534597     -1.939062      0.931190
  C       1.846325     -1.256599      0.702244
  C       2.891082     -1.912366      0.028066
  C       4.099063     -1.263305     -0.236148
  C       4.263448      0.059694      0.181136
  C       3.242529      0.734817      0.855638
  C       2.038285      0.075411      1.109451
  Cl      5.783025      0.887528     -0.145021
  O      -3.153172      0.365991     -0.274792
  C      -3.950212     -0.520006      0.599494
  C      -4.922185     -1.287628     -0.277070
  H      -3.390804      3.826725     -1.409133
  H      -3.514803      4.708431      0.133076
  H      -3.972959      2.989765      0.047619
  H      -1.692893      3.232797      1.107136
  H      -1.124722      4.130937     -0.322285
  H      -1.066146     -0.289428     -2.095155
  H       0.401693      0.106497     -1.161738
  H      -0.114624     -1.409686      1.633112
  H       0.644328     -2.988808      1.228058
  H       2.762419     -2.945604     -0.292311
  H       4.904949     -1.775233     -0.755504
  H       3.391109      1.762163      1.178253
  H       1.230434      0.594786      1.620953
  H      -4.462895      0.128453      1.320862
  H      -3.277421     -1.196660      1.132426
  H      -4.375014     -1.944172     -0.961980
  H      -5.570172     -1.909945      0.355340
  H      -5.557231     -0.605235     -0.856090
>
37
-1968.76001023; 31P isotropic shielding: 247.085525 ppm
  C      -1.894584      3.819656      0.513960
  C      -2.589637      3.013423     -0.575266
  O      -1.756822      1.882828     -1.012915
  P      -1.832209      0.476494     -0.236559
  O      -1.512726      0.483611      1.218183
  C      -0.660990     -0.466849     -1.273243
  S      -0.377992     -2.235452     -0.761292
  O      -1.718414     -2.844991     -0.440379
  C       0.488115     -1.926623      0.890473
  C       1.748905     -1.139993      0.717735
  C       1.796819      0.219821      1.073130
  C       2.954698      0.972758      0.869115
  C       4.075060      0.363696      0.297449
  C       4.054633     -0.984807     -0.066710
  C       2.891136     -1.727245      0.146289
  Cl      5.537755      1.308676      0.035668
  O      -3.307266     -0.034976     -0.602830
  C      -4.058772     -0.946368      0.279459
  C      -5.404520     -0.314343      0.594039
  H      -2.510829      4.690940      0.776321
  H      -0.919237      4.180700      0.164953
  H      -1.744675      3.210794      1.412087
  H      -2.745708      3.605794     -1.483591
  H      -3.562849      2.630198     -0.242380
  H      -1.045837     -0.528840     -2.297254
  H       0.312467      0.035500     -1.286413
  H      -0.248877     -1.433805      1.529275
  H       0.668047     -2.952106      1.234113
  H       0.913145      0.685806      1.504413
  H       2.990983      2.021754      1.151861
  H       4.936354     -1.444105     -0.505990
  H       2.874840     -2.780147     -0.132965
  H      -3.471901     -1.125557      1.185480
  H      -4.150769     -1.888685     -0.268091
  H      -6.006603     -1.010922      1.193541
  H      -5.278949      0.611793      1.169219
  H      -5.957593     -0.085829     -0.325685
>
37
-1968.75847587; 31P isotropic shielding: 248.429563 ppm
  C      -1.929873      3.813511      0.450140
  C      -2.614407      2.990186     -0.632850
  O      -1.773126      1.857783     -1.049928
  P      -1.854280      0.459333     -0.260181
  O      -1.557193      0.482791      1.198972
  C      -0.664979     -0.490682     -1.269919
  S      -0.378633     -2.248735     -0.725868
  O      -1.718856     -2.857231     -0.402574
  C       0.475646     -1.906967      0.926140
  C       1.729444     -1.110581      0.748284
  C       2.880089     -1.694466      0.190292
  C       4.036897     -0.943316     -0.028803
  C       4.042140      0.410544      0.315664
  C       2.913153      1.016430      0.873791
  C       1.762082      0.254699      1.084042
  Cl      5.496228      1.366490      0.045903
  O      -3.320578     -0.064041     -0.644706
  C      -4.082483     -0.964904      0.239810
  C      -5.386049     -0.284676      0.624301
  H      -2.550663      4.686407      0.695865
  H      -0.953185      4.172871      0.103091
  H      -1.784610      3.217491      1.357635
  H      -2.767428      3.569993     -1.549759
  H      -3.587881      2.606719     -0.301100
  H      -1.040392     -0.571468     -2.296189
  H       0.305536      0.017113     -1.282576
  H      -0.270452     -1.411683      1.552385
  H       0.663305     -2.925306      1.286419
  H       2.875556     -2.751400     -0.073764
  H       4.925028     -1.399966     -0.457827
  H       2.937548      2.069759      1.141264
  H       0.871667      0.717974      1.504297
  H      -3.472907     -1.203386      1.116109
  H      -4.238568     -1.882789     -0.334339
  H      -5.197824      0.614217      1.225066
  H      -5.959826     -0.000218     -0.266737
  H      -5.998425     -0.973696      1.222249
>
37
-1968.75846274; 31P isotropic shielding: 248.140679 ppm
  C      -1.964744      3.792228      0.512341
  C      -2.645478      2.985779     -0.585685
  O      -1.799203      1.864716     -1.022759
  P      -1.876115      0.451613     -0.259392
  O      -1.584493      0.449375      1.201013
  C      -0.678147     -0.473860     -1.281407
  S      -0.380939     -2.238015     -0.762976
  O      -1.717025     -2.860015     -0.449311
  C       0.470819     -1.914886      0.894236
  C       1.717148     -1.104158      0.729191
  C       1.736780      0.256103      1.085689
  C       2.880109      1.032183      0.886259
  C       4.014573      0.446045      0.318142
  C       4.022287     -0.902508     -0.046565
  C       2.873109     -1.668254      0.161901
  Cl      5.458768      1.420296      0.061573
  O      -3.338668     -0.071222     -0.658935
  C      -4.097486     -0.993928      0.205185
  C      -5.370721     -0.302556      0.664767
  H      -2.589903      4.657089      0.774805
  H      -0.990066      4.163005      0.171718
  H      -1.816115      3.179887      1.408338
  H      -2.800580      3.581449     -1.491997
  H      -3.617428      2.592333     -0.261178
  H      -1.048948     -0.540903     -2.310283
  H       0.288930      0.040579     -1.282202
  H      -0.279586     -1.436971      1.528775
  H       0.668340     -2.937164      1.237770
  H       0.842221      0.704047      1.513712
  H       2.894333      2.081543      1.169634
  H       4.914518     -1.343914     -0.482992
  H       2.878627     -2.721039     -0.118177
  H      -3.468808     -1.292831      1.048544
  H      -4.295477     -1.877327     -0.408912
  H      -5.139754      0.558791      1.304249
  H      -5.963837      0.041925     -0.191830
  H      -5.982542     -1.006036      1.246258
>
37
-1968.75845881; 31P isotropic shielding: 247.938690 ppm
  C      -1.607655      3.765446      0.490222
  C      -2.349475      3.007420     -0.602776
  O      -1.586609      1.828521     -1.040646
  P      -1.772426      0.422981     -0.280828
  O      -1.482954      0.399004      1.179739
  C      -0.642271     -0.585674     -1.305291
  S      -0.370619     -2.333477     -0.728606
  O      -1.711029     -2.909284     -0.346941
  C       0.543292     -1.973130      0.886327
  C       1.790030     -1.178990      0.656676
  C       2.919850     -1.766906      0.061695
  C       4.067384     -1.017072     -0.205410
  C       4.084582      0.339363      0.128280
  C       2.976621      0.949116      0.722944
  C       1.834621      0.188656      0.980887
  Cl      5.527141      1.293628     -0.201746
  O      -3.269954      0.013057     -0.688677
  C      -4.087803     -0.863074      0.176055
  C      -4.832797     -0.044136      1.218728
  H      -2.164057      4.677312      0.748180
  H      -0.607814      4.057846      0.146439
  H      -1.505409      3.149097      1.389970
  H      -2.466107      3.611045     -1.509621
  H      -3.345451      2.685650     -0.272422
  H      -1.053376     -0.682962     -2.316235
  H       0.337213     -0.098537     -1.363496
  H      -0.182234     -1.470064      1.530208
  H       0.743380     -2.986960      1.252656
  H       2.906300     -2.825815     -0.193939
  H       4.939492     -1.476706     -0.663128
  H       3.010302      2.004384      0.981524
  H       0.960266      0.654711      1.430341
  H      -3.439435     -1.623608      0.620888
  H      -4.771721     -1.357136     -0.522175
  H      -5.453132      0.727457      0.744325
  H      -5.492817     -0.704557      1.798406
  H      -4.129027      0.434094      1.909146
>
37
-1968.75964127; 31P isotropic shielding: 245.352344 ppm
  C      -0.079900      3.356089     -0.690652
  C      -1.423270      3.169999      0.003330
  O      -2.156378      2.027434     -0.552220
  P      -2.038259      0.564795      0.116931
  O      -1.557410      0.529897      1.525575
  C      -0.945713     -0.324404     -1.054127
  S      -0.599658     -2.115449     -0.674067
  O      -1.895040     -2.772564     -0.270418
  C       0.397135     -1.878387      0.912212
  C       1.624925     -1.054196      0.682278
  C       2.698842     -1.554411     -0.074824
  C       3.825109     -0.770762     -0.335105
  C       3.879832      0.529615      0.172761
  C       2.829516      1.049919      0.933565
  C       1.705670      0.258429      1.179445
  Cl      5.295840      1.525851     -0.146553
  O      -3.500316      0.003928     -0.183589
  C      -4.182771     -0.924170      0.741349
  C      -5.134399     -1.774141     -0.079230
  H      -0.210080      3.443546     -1.776368
  H       0.599344      2.520732     -0.483590
  H       0.398497      4.275737     -0.326402
  H      -2.081826      4.028920     -0.167694
  H      -1.306178      3.021332      1.083221
  H      -1.408838     -0.330086     -2.047658
  H       0.024359      0.180714     -1.118373
  H      -0.290079     -1.434536      1.636853
  H       0.623018     -2.916200      1.184705
  H       2.658275     -2.570811     -0.464621
  H       4.653277     -1.162473     -0.919983
  H       2.894042      2.060232      1.329484
  H       0.872628      0.656965      1.754521
  H      -4.706548     -0.307064      1.481590
  H      -3.433175     -1.542501      1.242464
  H      -5.851384     -1.148761     -0.625940
  H      -4.572885     -2.389485     -0.790457
  H      -5.695803     -2.440635      0.589784
>
37
-1968.75818512; 31P isotropic shielding: 249.131346 ppm
  C      -5.150337      1.836916     -0.940052
  C      -4.078410      1.348353     -1.904891
  O      -3.251377      0.291125     -1.303745
  P      -1.965212      0.665004     -0.422680
  O      -1.161885      1.833812     -0.877358
  C      -1.098200     -0.929759     -0.428642
  S      -0.372902     -1.429280     -2.075864
  O       0.238235     -2.785530     -1.836655
  C       1.054090     -0.175945     -2.124153
  C       1.903096     -0.200699     -0.897477
  C       1.832653      0.845095      0.040060
  C       2.581111      0.803537      1.218245
  C       3.398469     -0.301617      1.467619
  C       3.484015     -1.355749      0.555221
  C       2.739746     -1.298537     -0.625076
  Cl      4.338334     -0.363466      2.957156
  O      -2.573997      0.817237      1.066387
  C      -1.886928      1.625761      2.083842
  C      -0.958165      0.770332      2.935308
  H      -4.707311      2.337214     -0.071562
  H      -5.764503      1.000992     -0.584161
  H      -5.804301      2.554115     -1.455009
  H      -3.418481      2.161999     -2.230137
  H      -4.518521      0.874068     -2.788540
  H      -0.290736     -0.930876      0.310452
  H      -1.805016     -1.734122     -0.196491
  H       1.589456     -0.502703     -3.023451
  H       0.579006      0.794343     -2.298649
  H       1.176018      1.690005     -0.155392
  H       2.535154      1.618843      1.935789
  H       4.125877     -2.207312      0.765463
  H       2.793188     -2.122189     -1.332297
  H      -2.696096      2.054598      2.685681
  H      -1.350171      2.438105      1.579782
  H      -0.548258      1.377242      3.754330
  H      -1.500721     -0.076099      3.373782
  H      -0.113817      0.385284      2.351863
>
37
-1968.75965663; 31P isotropic shielding: 251.045887 ppm
  C      -5.113676      1.929473     -0.876849
  C      -4.066348      1.461123     -1.878210
  O      -3.251322      0.362167     -1.338629
  P      -1.969933      0.672670     -0.426019
  O      -1.172420      1.877788     -0.786365
  C      -1.090967     -0.910568     -0.552553
  S      -0.315054     -1.258069     -2.216989
  O       0.301142     -2.625885     -2.076014
  C       1.099792      0.003800     -2.116190
  C       1.906396     -0.106635     -0.865423
  C       2.731124     -1.223748     -0.638044
  C       3.433098     -1.362349      0.561276
  C       3.317989     -0.370586      1.538159
  C       2.513030      0.752759      1.334038
  C       1.806698      0.875816      0.135762
  Cl      4.203163     -0.536499      3.052979
  O      -2.586348      0.703859      1.066823
  C      -1.904098      1.422204      2.152836
  C      -1.000499      0.490694      2.949725
  H      -5.738926      1.091606     -0.545740
  H      -5.760517      2.680164     -1.351425
  H      -4.647458      2.384778      0.004128
  H      -3.394733      2.275153     -2.177319
  H      -4.529271      1.034577     -2.774386
  H      -0.300515     -0.973017      0.202134
  H      -1.795051     -1.737828     -0.410534
  H       1.669702     -0.249153     -3.018183
  H       0.621945      0.981305     -2.232974
  H       2.806339     -1.999067     -1.396005
  H       4.065127     -2.228971      0.736985
  H       2.442631      1.518301      2.102553
  H       1.158208      1.733952     -0.026000
  H      -2.716485      1.815243      2.774505
  H      -1.349764      2.263659      1.720540
  H      -1.559940     -0.382826      3.306114
  H      -0.146783      0.146012      2.354982
  H      -0.603575      1.024695      3.824018
>
37
-1968.75969429; 31P isotropic shielding: 251.327973 ppm
  C      -0.091654      3.362206     -0.704723
  C      -1.433495      3.170486     -0.009449
  O      -2.162229      2.025647     -0.565678
  P      -2.047324      0.565561      0.109384
  O      -1.573153      0.536015      1.520423
  C      -0.947422     -0.327041     -1.052436
  S      -0.598598     -2.115118     -0.660951
  O      -1.894736     -2.772331     -0.258997
  C       0.390964     -1.868339      0.928691
  C       1.616318     -1.039924      0.701399
  C       2.696971     -1.539649     -0.046258
  C       3.821146     -0.752381     -0.304748
  C       3.866806      0.551255      0.195451
  C       2.809739      1.071233      0.947100
  C       1.688247      0.275979      1.191344
  Cl      5.279879      1.552220     -0.121929
  O      -3.508241      0.004608     -0.196807
  C      -4.193684     -0.926134      0.723061
  C      -5.135634     -1.780709     -0.103908
  H      -0.223345      3.451730     -1.790062
  H       0.590145      2.528302     -0.500176
  H       0.384719      4.282290     -0.338925
  H      -2.095414      4.027291     -0.178346
  H      -1.314687      3.021290      1.070189
  H      -1.405523     -0.339444     -2.048199
  H       0.021544      0.180450     -1.114788
  H      -0.301864     -1.424902      1.648203
  H       0.619840     -2.904262      1.205677
  H       2.663349     -2.558539     -0.430190
  H       4.654450     -1.143698     -0.882533
  H       2.867521      2.084096      1.337469
  H       0.850231      0.673946      1.759508
  H      -4.726227     -0.310773      1.458540
  H      -3.445579     -1.540747      1.230905
  H      -4.566602     -2.396171     -0.809000
  H      -5.700780     -2.447396      0.561778
  H      -5.849877     -1.158547     -0.657820
