26
-1067.21304145; 31P isotropic shielding: 258.454535 ppm
  C       3.310031     -2.138722     -0.006635
  C       2.269213     -1.045739     -0.013793
  C       0.906927     -1.376286     -0.009790
  C      -0.106405     -0.411144     -0.027896
  C       0.274715      0.952818     -0.048501
  C       1.639006      1.285738     -0.028463
  C       2.644235      0.315468     -0.017467
  C       4.098167      0.724968     -0.011045
  C      -0.721788      2.051032     -0.147556
  O      -1.839461      1.977443     -0.653241
  O      -0.268989      3.233603      0.359704
  P      -1.842622     -0.950334      0.152568
  O      -2.444004     -0.503995      1.434383
  O      -2.580741     -0.556291     -1.215760
  O      -1.770178     -2.563563     -0.022664
  H       3.959320     -2.067961      0.877983
  H       3.968333     -2.070816     -0.884729
  H       2.843067     -3.129184     -0.007739
  H       0.623579     -2.425351      0.012223
  H       1.918839      2.336047     -0.037580
  H       4.620688      0.333748      0.873504
  H       4.200846      1.815354     -0.010645
  H       4.629462      0.333037     -0.890133
  H      -0.985529      3.886298      0.209776
  H      -2.532723      0.432566     -1.284528
  H      -2.186486     -2.982431      0.753225
>
26
-1067.21777249; 31P isotropic shielding: 253.700814 ppm
  C       3.340294     -2.095876      0.421330
  C       2.297104     -1.022366      0.230949
  C       0.936467     -1.357556      0.238139
  C      -0.077543     -0.406341      0.081638
  C       0.293899      0.947750     -0.101919
  C       1.659672      1.280561     -0.133956
  C       2.666397      0.327108      0.037787
  C       4.118224      0.742727      0.015345
  C      -0.698862      2.047054     -0.215742
  O      -1.845558      2.054615      0.229283
  O      -0.210854      3.144179     -0.864980
  P      -1.766768     -1.101545      0.071377
  O      -1.806536     -2.573537      0.233332
  O      -2.603954     -0.319789      1.188477
  O      -2.309761     -0.563905     -1.372223
  H       4.035820     -2.133875     -0.429177
  H       2.876531     -3.081645      0.529290
  H       3.949533     -1.905153      1.316873
  H       0.640305     -2.397264      0.362495
  H       1.939021      2.320499     -0.280620
  H       4.668994      0.232603     -0.787895
  H       4.623749      0.483998      0.956583
  H       4.218440      1.822497     -0.138373
  H      -0.926908      3.813890     -0.841524
  H      -2.508392      0.658394      1.021104
  H      -2.956315     -1.193023     -1.743893
>
26
-1067.21968358; 31P isotropic shielding: 255.512644 ppm
  C       3.317202     -2.089947      0.445231
  C       2.283139     -1.012162      0.236438
  C       0.920204     -1.339260      0.243943
  C      -0.090029     -0.389558      0.058041
  C       0.296142      0.960810     -0.147833
  C       1.666236      1.289084     -0.156708
  C       2.664856      0.333526      0.031352
  C       4.119758      0.738095      0.014267
  C      -0.695000      2.035863     -0.352138
  O      -1.926290      1.906053     -0.355268
  O      -0.149274      3.268750     -0.551917
  P      -1.790726     -1.084551      0.115775
  O      -1.773599     -2.542701      0.342706
  O      -2.564191     -0.277948      1.284671
  O      -2.491428     -0.675968     -1.283031
  H       4.002839     -2.155657     -0.411845
  H       2.845645     -3.068043      0.583030
  H       3.938460     -1.880630      1.328115
  H       0.616898     -2.372196      0.400006
  H       1.953332      2.324743     -0.315242
  H       4.673084      0.212189     -0.776817
  H       4.615800      0.489826      0.963278
  H       4.228823      1.814773     -0.154294
  H      -0.903787      3.883207     -0.671575
  H      -2.636916      0.672447      1.050211
  H      -2.575177      0.299855     -1.347695
>
26
-1067.21762368; 31P isotropic shielding: 263.805775 ppm
  C       3.357284     -2.111669      0.057692
  C       2.303338     -1.032127      0.018635
  C       0.945133     -1.378593      0.023614
  C      -0.080570     -0.426693     -0.012892
  C       0.283907      0.941963     -0.049466
  C       1.644907      1.290813     -0.038853
  C       2.661760      0.333407     -0.011431
  C       4.110701      0.760466     -0.010760
  C      -0.725181      2.028234     -0.145703
  O      -1.858427      1.937574     -0.615270
  O      -0.270391      3.225399      0.323300
  P      -1.803742     -1.000438      0.192686
  O      -2.341163     -0.589455      1.507029
  O      -2.601579     -0.577040     -1.143945
  O      -1.743196     -2.607751     -0.024683
  H       4.023887     -2.054078     -0.814890
  H       2.902636     -3.107691      0.074585
  H       3.996151     -2.013639      0.947220
  H       0.675023     -2.430624      0.072942
  H       1.912792      2.343854     -0.065772
  H       4.200540      1.851790     -0.032420
  H       4.648905      0.357041     -0.880405
  H       4.635546      0.393699      0.882809
  H      -0.998741      3.867083      0.183431
  H      -2.561206      0.414755     -1.196081
  H      -2.029812     -2.859881     -0.921572
>
26
-1067.21619170; 31P isotropic shielding: 263.037767 ppm
  C       3.299144     -2.130649     -0.424299
  C       2.270042     -1.039289     -0.252276
  C       0.909124     -1.364195     -0.181350
  C      -0.090531     -0.396593     -0.009326
  C       0.304302      0.957299      0.092163
  C       1.663496      1.286460     -0.010962
  C       2.656327      0.317237     -0.172304
  C       4.108602      0.722118     -0.261848
  C      -0.623674      2.109035      0.282063
  O      -0.462180      3.223161     -0.171847
  O      -1.701059      1.819009      1.105728
  P      -1.838176     -0.908296     -0.072747
  O      -2.640256     -0.169174     -1.078764
  O      -1.776317     -2.512146     -0.307663
  O      -2.357057     -0.903334      1.457535
  H       4.021630     -2.132533      0.404433
  H       3.880292     -1.991407     -1.347227
  H       2.826075     -3.117425     -0.465451
  H       0.614850     -2.406304     -0.274267
  H       1.939392      2.337673      0.043748
  H       4.219657      1.809263     -0.191835
  H       4.557937      0.393907     -1.209940
  H       4.702610      0.265794      0.543001
  H      -2.285174      2.605917      1.076125
  H      -2.284423     -2.734692     -1.109502
  H      -2.340434      0.021163      1.783113
>
26
-1067.21315321; 31P isotropic shielding: 252.219835 ppm
  C       3.356630     -2.062429      0.480726
  C       2.309665     -1.002467      0.238159
  C       0.950812     -1.340066      0.266273
  C      -0.066762     -0.404597      0.031888
  C       0.304017      0.934855     -0.229359
  C       1.664624      1.280991     -0.220035
  C       2.674882      0.340807     -0.004704
  C       4.124369      0.763755     -0.027192
  C      -0.631711      2.063668     -0.493576
  O      -0.446336      3.220681     -0.174701
  O      -1.758758      1.702275     -1.220937
  P      -1.755531     -1.066985      0.220010
  O      -1.790498     -2.429250      0.798563
  O      -2.518366      0.063776      1.119320
  O      -2.457975     -0.974476     -1.222228
  H       4.038985     -2.152652     -0.376735
  H       2.895244     -3.040104      0.653862
  H       3.979557     -1.818621      1.353419
  H       0.658653     -2.362495      0.496666
  H       1.926759      2.322346     -0.395450
  H       4.685856      0.229307     -0.806976
  H       4.621966      0.540451      0.927310
  H       4.219965      1.838229     -0.216331
  H      -2.314488      2.508016     -1.276653
  H      -2.845293     -0.342793      1.943340
  H      -2.401865     -0.054920     -1.565459
>
26
-1067.21412125; 31P isotropic shielding: 254.816268 ppm
  C       3.399152     -2.095462     -0.390797
  C       2.344934     -1.025376     -0.234255
  C       0.993657     -1.379963     -0.143173
  C      -0.024891     -0.429344      0.022131
  C       0.334237      0.934371      0.085410
  C       1.681748      1.292387     -0.046059
  C       2.696516      0.342217     -0.192717
  C       4.137097      0.779910     -0.310341
  C      -0.631906      2.064170      0.262762
  O      -0.540006      3.140463     -0.298457
  O      -1.607041      1.784263      1.179070
  P      -1.751052     -0.987476     -0.005065
  O      -2.715048     -0.158722     -0.771966
  O      -1.665565     -2.521564     -0.563240
  O      -2.058399     -1.233066      1.562786
  H       2.948572     -3.093493     -0.410755
  H       4.124831     -2.066207      0.434743
  H       3.973287     -1.961334     -1.318836
  H       0.721922     -2.429873     -0.215740
  H       1.932635      2.351169     -0.026061
  H       4.223372      1.870575     -0.264012
  H       4.581755      0.442720     -1.257645
  H       4.752097      0.353819      0.495276
  H      -2.232825      2.538775      1.154181
  H      -2.032876     -2.551903     -1.466261
  H      -3.015302     -1.187957      1.748721
>
26
-1067.21044519; 31P isotropic shielding: 248.719946 ppm
  C       3.392610     -2.107607     -0.060333
  C       2.338552     -1.027148     -0.038811
  C       0.981310     -1.373931     -0.038035
  C      -0.041016     -0.415451     -0.025997
  C       0.323300      0.950406     -0.007727
  C       1.681296      1.297311      0.016065
  C       2.697423      0.338677     -0.007264
  C       4.146051      0.764818      0.007107
  C      -0.633441      2.096194      0.011662
  O      -0.450772      3.143420      0.598657
  O      -1.755010      1.900406     -0.775165
  P      -1.772382     -0.940091      0.116871
  O      -2.506780     -0.274281      1.216203
  O      -2.442885     -0.813493     -1.362172
  O      -1.634246     -2.552771      0.195794
  H       2.937126     -3.103232     -0.080749
  H       4.045681     -2.049780      0.822247
  H       4.045096     -2.013011     -0.940285
  H       0.711811     -2.426319     -0.033126
  H       1.937435      2.354230      0.051196
  H       4.236142      1.855700      0.037674
  H       4.679761      0.402664     -0.883177
  H       4.674537      0.355009      0.879614
  H      -2.333259      2.674517     -0.607098
  H      -2.606710      0.131303     -1.555802
  H      -2.391828     -3.007639     -0.214549
>
26
-1067.21143485; 31P isotropic shielding: 259.186092 ppm
  C       3.379700     -2.062059      0.412075
  C       2.322671     -1.004092      0.202665
  C       0.967235     -1.350350      0.238390
  C      -0.056075     -0.411979      0.031938
  C       0.301943      0.933218     -0.199445
  C       1.657754      1.287296     -0.194314
  C       2.675865      0.347228     -0.011940
  C       4.122443      0.779564     -0.036969
  C      -0.665577      2.048916     -0.435609
  O      -0.523217      3.185376     -0.019478
  O      -1.714680      1.671405     -1.222741
  P      -1.728005     -1.072722      0.270154
  O      -1.761891     -2.357054      1.020208
  O      -2.581883      0.109448      0.998504
  O      -2.352477     -1.146824     -1.220047
  H       4.010059     -1.833581      1.283483
  H       4.053466     -2.130771     -0.454121
  H       2.926223     -3.046243      0.569604
  H       0.686254     -2.377932      0.459500
  H       1.911127      2.334864     -0.344923
  H       4.209474      1.859640     -0.195621
  H       4.678851      0.271520     -0.837859
  H       4.631390      0.531239      0.905311
  H      -2.322472      2.439370     -1.267175
  H      -2.771453     -0.162356      1.916309
  H      -2.990525     -1.884320     -1.272399
>
26
-1067.20985075; 31P isotropic shielding: 244.379311 ppm
  C       3.382399     -2.074971      0.341488
  C       2.324002     -1.014697      0.149847
  C       0.969929     -1.343045      0.284504
  C      -0.054202     -0.395081      0.135376
  C       0.307294      0.935915     -0.167278
  C       1.658974      1.256664     -0.344283
  C       2.676948      0.312918     -0.181615
  C       4.121921      0.713525     -0.360196
  C      -0.666890      2.061294     -0.327820
  O      -0.578021      2.937077     -1.170385
  O      -1.648741      2.024204      0.617014
  P      -1.777018     -0.955482      0.295797
  O      -2.453624     -0.795152      1.599415
  O      -2.583571     -0.249376     -0.928419
  O      -1.640724     -2.512834     -0.195286
  H       4.081783     -1.800487      1.144060
  H       3.985156     -2.210429     -0.568126
  H       2.932997     -3.040190      0.597964
  H       0.702543     -2.374967      0.496564
  H       1.909868      2.282388     -0.607781
  H       4.698073      0.556073      0.563057
  H       4.207902      1.769520     -0.637217
  H       4.610506      0.114419     -1.141761
  H      -2.283288      2.740900      0.404525
  H      -2.347507     -0.627770     -1.795810
  H      -2.262809     -3.063115      0.317668
>
26
-1067.20667601; 31P isotropic shielding: 255.110196 ppm
  C       3.418749     -2.106913      0.078636
  C       2.339506     -1.053173      0.024401
  C       0.989996     -1.432390      0.027477
  C      -0.056969     -0.505422     -0.029428
  C       0.275473      0.870128     -0.089672
  C       1.626734      1.252553     -0.070281
  C       2.665799      0.319855     -0.020735
  C       4.104231      0.780896     -0.016536
  C      -0.758599      1.928591     -0.228286
  O      -1.868616      1.801107     -0.740362
  O      -0.352593      3.140423      0.248436
  P      -1.774330     -1.101843      0.152285
  O      -2.402740     -0.642659      1.416339
  O      -2.512666     -0.772176     -1.232750
  O      -1.643060     -2.715877      0.022651
  H       2.987638     -3.113181      0.103833
  H       4.052625     -1.984396      0.968738
  H       4.086027     -2.043154     -0.792960
  H       0.744487     -2.489823      0.080637
  H       1.868848      2.311429     -0.110615
  H       4.169254      1.873724     -0.049708
  H       4.656331      0.380668     -0.878915
  H       4.632614      0.435906      0.883614
  H      -1.090465      3.762693      0.074460
  H      -2.497641      0.215837     -1.328399
  H      -2.046533     -3.127301      0.809239
>
26
-1067.21770295; 31P isotropic shielding: 253.695614 ppm
  C       3.353882     -2.117574      0.369568
  C       2.306781     -1.043584      0.201631
  C       0.947537     -1.383430      0.188214
  C      -0.066562     -0.429106      0.053625
  C       0.297065      0.926791     -0.100840
  C       1.660479      1.267919     -0.099231
  C       2.671417      0.313696      0.061234
  C       4.120309      0.738164      0.090789
  C      -0.714183      2.027763     -0.204104
  O      -1.747247      2.104794      0.443756
  O      -0.416319      3.043674     -1.066311
  P      -1.768045     -1.083772      0.064079
  O      -1.847413     -2.558319      0.166749
  O      -2.547476     -0.330764      1.243609
  O      -2.311105     -0.443662     -1.335663
  H       4.058881     -2.126451     -0.473832
  H       2.893187     -3.108031      0.440723
  H       3.951401     -1.953296      1.277977
  H       0.651416     -2.426544      0.283230
  H       1.949870      2.316526     -0.173339
  H       4.694417      0.259280     -0.715110
  H       4.601610      0.447567      1.035160
  H       4.219483      1.823390     -0.020316
  H       0.371291      2.804764     -1.593491
  H      -2.402033      0.652419      1.157879
  H      -3.168443     -0.829814     -1.596686
