30
-2002.75522367; 31P isotropic shielding: 331.962845 ppm
  Cl  1.85276952743363     -3.25433996735586     -0.33706864199320
  P   0.39509783326474     -1.53232434644272     -0.40349142818183
  O   -0.58790242823738     -2.15836537756678     -1.32551595233160
  N   1.73118468299517     -0.54015471530173     -0.85637327325773
  C   2.11761783320183      0.72986051376135     -0.44255588799051
  C   3.48940955429331      1.05989008436778     -0.46403387228218
  C   3.92482470964464      2.32470275820703     -0.08964369173982
  C   3.00742783797867      3.30251420261860      0.33308789607016
  C   1.65480064001068      2.99375803630765      0.35905178064660
  C   1.19026837620158      1.72102646393995     -0.03315524713924
  C   -0.20397343431976      1.38615276130637     -0.06569922517574
  N   -0.66532880587266      0.14987073521519     -0.29633719433854
  C   -2.06338772534025      0.19628160372669     -0.25323797820428
  C   -2.44070413108147      1.53555498236303      0.00683889234135
  N   -1.25090748282400      2.24925282359898      0.12106816292905
  C   -3.77372666916111      1.93414086499426      0.11134081345370
  C   -4.73711750267239      0.93655420088581     -0.04349324612023
  C   -4.37129692961765     -0.40262661253720     -0.29418448922856
  C   -3.03838145935774     -0.79754279169772     -0.40516783318289
  Cl  0.15696835953184     -1.62129531475648      1.69899287479799
  H   2.52119656108438     -1.15179448678659     -1.05975754799942
  H   4.20696300221443      0.30164764557910     -0.77356426009083
  H   4.98908095792852      2.55111167634337     -0.11220442391362
  H   3.35266688107954      4.28605145377880      0.64185385764836
  H   0.94444817113410      3.74337101811231      0.70444380637215
  H   -1.16478669484286      3.25186790183224      0.22585694669298
  H   -4.04876642300782      2.96843444365804      0.30692923010207
  H   -5.79068613275241      1.19793817322337      0.03054678710605
  H   -5.15343071628388     -1.15011413334455     -0.40939939926340
  H   -2.74942839262568     -1.82012459803028     -0.61762745572685
