39
-61.51462697; 31P isotropic shielding: 257.482609 ppm
O         -0.91960       -2.50760       -0.47010
C         -0.46310       -1.50540        0.39490
P         -1.38430        0.03830       -0.08250
O         -1.42210        0.19290       -1.54540
O         -2.83800       -0.01720        0.58550
C         -3.95880       -0.50010       -0.16080
C         -5.15420        0.37470        0.19210
C         -4.20100       -1.96430        0.17850
O         -0.64960        1.13710        0.79810
C         -0.51030        2.50730        0.40450
C         -1.85030        3.10410        0.00440
C          0.52270        2.62750       -0.70710
C          0.99000       -1.15880        0.27730
C          1.72300       -0.83940        1.41400
C          3.03700       -0.42240        1.31480
C          3.62520       -0.32470        0.06350
C          2.91200       -0.64090       -1.08070
C          1.59600       -1.05260       -0.96850
Cl         5.26640        0.20310       -0.06990
H         -0.91590       -2.14210       -1.36650
H         -0.71340       -1.81900        1.40970
H         -3.72500       -0.39930       -1.22850
H         -5.34800        0.31900        1.26040
H         -4.95400        1.40950       -0.07280
H         -6.03290        0.03430       -0.34840
H         -5.03500       -2.34770       -0.40300
H         -4.42840       -2.06570        1.23710
H         -3.31240       -2.55030       -0.04610
H         -0.13800        2.99770        1.31410
H         -1.74150        4.16660       -0.19820
H         -2.57260        2.96420        0.80550
H         -2.21260        2.60320       -0.89020
H          0.69780        3.67400       -0.94200
H          0.16140        2.11380       -1.59310
H          1.45840        2.16880       -0.39550
H          1.25720       -0.90990        2.38520
H          3.60290       -0.17330        2.19870
H          3.37880       -0.55760       -2.04950
H          1.04220       -1.28530       -1.86510
>
39
-61.51461778; 31P isotropic shielding: 255.052633 ppm
O         -0.91280       -2.49380       -0.49800
C         -0.46030       -1.49600        0.37530
P         -1.38660        0.04760       -0.09040
O         -1.43360        0.21380       -1.55170
O         -2.83640       -0.01690        0.58530
C         -3.95960       -0.49890       -0.15800
C         -5.15550        0.37110        0.20460
C         -4.19620       -1.96540        0.17560
O         -0.64800        1.14110        0.79380
C         -0.53170        2.51830        0.41710
C         -1.88410        3.10310        0.04140
C          0.48580        2.66690       -0.70520
C          0.99420       -1.15190        0.26490
C          1.58720       -0.98070       -0.98010
C          2.90740       -0.58090       -1.08440
C          3.63860       -0.34330        0.06770
C          3.06330       -0.50540        1.31810
C          1.74440       -0.90930        1.40890
Cl         5.28620        0.16640       -0.05500
H         -0.90090       -2.12550       -1.39310
H         -0.71290       -1.81850        1.38670
H         -3.73100       -0.39270       -1.22630
H         -6.03690        0.02800       -0.32960
H         -5.34100        0.31370        1.27420
H         -4.96120        1.40700       -0.06080
H         -3.30640       -2.54730       -0.05470
H         -5.03070       -2.34890       -0.40510
H         -4.41990       -2.07230        1.23440
H         -0.15460        3.00160        1.32860
H         -2.25030        2.61000       -0.85610
H         -1.79130        4.16970       -0.14770
H         -2.59500        2.94260        0.84860
H          0.11770        2.16550       -1.59540
H          1.42930        2.21120       -0.41330
H          0.64890        3.71880       -0.92390
H          1.01850       -1.15020       -1.88160
H          3.36410       -0.44670       -2.05230
H          3.64300       -0.31690        2.20800
H          1.28950       -1.03070        2.38030
>
39
-61.51374687; 31P isotropic shielding: 254.719750 ppm
O         -0.90440       -2.60680       -0.36390
C         -0.49080       -1.52140        0.41780
P         -1.42430       -0.03810       -0.20840
O         -1.47960       -0.01380       -1.67730
O         -2.86520       -0.00840        0.48960
C         -3.99470       -0.58820       -0.17120
C         -5.20340        0.27950        0.15140
C         -4.17930       -2.02410        0.29940
O         -0.67260        1.17320        0.49010
C         -0.50510        2.40530       -0.22370
C          0.86370        2.95610        0.14750
C         -1.63550        3.35720        0.13750
C          0.95920       -1.15720        0.30680
C          1.67520       -0.78690        1.43830
C          2.98440       -0.35470        1.33750
C          3.58420       -0.29310        0.08950
C          2.88740       -0.66030       -1.05010
C          1.57640       -1.08680       -0.93640
Cl         5.21820        0.25520       -0.04670
H         -0.88580       -2.32590       -1.28990
H         -0.76000       -1.75070        1.45040
H         -3.80010       -0.57310       -1.25130
H         -5.35810        0.30970        1.22690
H         -5.04490        1.29360       -0.20610
H         -6.08930       -0.12910       -0.32640
H         -4.36190       -2.04130        1.37140
H         -3.28380       -2.60420        0.08710
H         -5.02390       -2.47710       -0.21260
H         -0.54280        2.18150       -1.29750
H          1.63660        2.23640       -0.11030
H          0.90740        3.14320        1.21730
H          1.04730        3.88410       -0.38650
H         -1.51730        4.29750       -0.39420
H         -1.63270        3.54600        1.20820
H         -2.58850        2.91000       -0.13510
H          1.20070       -0.82890        2.40700
H          3.53730       -0.06510        2.21720
H          3.36320       -0.60460       -2.01650
H          1.03350       -1.35680       -1.82940
>
39
-61.51344352; 31P isotropic shielding: 252.260115 ppm
O         -0.83750       -2.43420        0.06550
C         -0.45440       -1.15100        0.48760
P         -1.38130        0.03870       -0.62230
O         -1.53710       -0.54390       -1.95670
O         -2.77450        0.37660        0.10840
C         -3.93830       -0.38150       -0.23930
C         -5.13300        0.55720       -0.14340
C         -4.06840       -1.57710        0.69340
O         -0.60260        1.41870       -0.68570
C         -0.59520        2.49530        0.25010
C         -0.51820        2.00550        1.68700
C         -1.80990        3.38790        0.02720
C          1.02360       -0.90840        0.37120
C          1.59960       -0.75790       -0.88470
C          2.95780       -0.53370       -1.01390
C          3.74630       -0.46190        0.12390
C          3.19080       -0.61610        1.38370
C          1.83070       -0.84100        1.50010
Cl         5.44370       -0.17640       -0.02880
H         -0.80810       -2.44440       -0.90260
H         -0.77840       -1.06530        1.52830
H         -3.81720       -0.73000       -1.27220
H         -6.04060        0.02630       -0.41540
H         -5.23150        0.93180        0.87300
H         -5.00140        1.40000       -0.81710
H         -3.18840       -2.21120        0.60980
H         -4.94710       -2.15870        0.42890
H         -4.16410       -1.23890        1.72320
H          0.31950        3.04790       -0.00360
H          0.37080        1.39590        1.83000
H         -1.40350        1.41690        1.91460
H         -0.47440        2.85630        2.36240
H         -2.71400        2.85570        0.30850
H         -1.87710        3.66230       -1.02230
H         -1.72210        4.29120        0.62530
H          0.97720       -0.80240       -1.76540
H          3.40270       -0.41210       -1.98870
H          3.81600       -0.56290        2.26120
H          1.39520       -0.97030        2.48060
>
39
-61.51336642; 31P isotropic shielding: 251.967125 ppm
O         -0.91460       -2.49040       -0.84270
C         -0.55870       -1.49060        0.06870
P         -1.40140        0.05560       -0.53580
O         -1.02550        0.38050       -1.91040
O         -2.97260       -0.18570       -0.45050
C         -3.63490       -0.52770        0.77130
C         -4.11060       -1.97180        0.67790
C         -4.79330        0.44240        0.96300
O         -1.05460        1.10780        0.63040
C         -0.67840        2.46720        0.38250
C         -1.75080        3.19000       -0.41880
C          0.68030        2.53650       -0.29870
C          0.89880       -1.14970        0.13860
C          1.68730       -1.13670       -1.00490
C          3.00930       -0.73420       -0.94460
C          3.54520       -0.33470        0.26850
C          2.77350       -0.34050        1.42000
C          1.45450       -0.74820        1.34770
Cl         5.19350        0.17960        0.34940
H         -0.84620       -2.11680       -1.73230
H         -0.92410       -1.80400        1.04940
H         -2.92520       -0.41660        1.60140
H         -4.56520       -2.27820        1.61630
H         -4.84250       -2.06420       -0.12030
H         -3.27520       -2.62990        0.45170
H         -4.41920        1.45900        1.05360
H         -5.34810        0.18750        1.86180
H         -5.45790        0.39250        0.10450
H         -0.60950        2.89710        1.39190
H         -1.47470        4.23210       -0.55630
H         -2.70630        3.14270        0.09900
H         -1.85440        2.71220       -1.38940
H          0.61290        2.09280       -1.28730
H          1.41920        1.98800        0.28060
H          0.99560        3.57250       -0.38910
H          1.27290       -1.44080       -1.95340
H          3.61880       -0.72390       -1.83420
H          3.20200       -0.02890        2.35970
H          0.84770       -0.74870        2.24110
>
39
-61.51317332; 31P isotropic shielding: 260.564181 ppm
O         -0.91710       -2.59030       -0.25420
C         -0.46260       -1.53440        0.54290
P         -1.44840       -0.02450        0.07480
O         -1.56400        0.11640       -1.38540
O         -2.82840       -0.09660        0.88490
C         -4.09600       -0.49490        0.35650
C         -4.01160       -1.81390       -0.39600
C         -4.68110        0.60460       -0.52000
O         -0.67460        1.10160        0.88950
C         -0.48130        2.44670        0.44040
C         -1.80230        3.09720        0.06090
C          0.51930        2.48260       -0.70630
C          0.97410       -1.15490        0.34200
C          1.75290       -0.77190        1.42740
C          3.05200       -0.33530        1.24790
C          3.57930       -0.28300       -0.03300
C          2.82010       -0.66300       -1.12710
C          1.51930       -1.09310       -0.93450
Cl         5.20170        0.26810       -0.26700
H         -0.97880       -2.26490       -1.16280
H         -0.65170       -1.81170        1.58160
H         -4.71340       -0.62060        1.25670
H         -3.48360       -2.55630        0.19760
H         -5.01190       -2.17900       -0.61480
H         -3.47660       -1.66570       -1.33010
H         -5.67920        0.32440       -0.84630
H         -4.04730        0.74720       -1.39080
H         -4.73830        1.53860        0.03340
H         -0.05640        2.94940        1.32000
H         -2.21030        2.59670       -0.81310
H         -1.64960        4.14920       -0.16630
H         -2.50840        3.00820        0.88310
H          0.72310        3.51170       -0.98950
H          0.11120        1.94770       -1.55890
H          1.44820        2.00360       -0.40580
H          1.33460       -0.80830        2.42180
H          3.65340       -0.03680        2.09220
H          3.23970       -0.61470       -2.11960
H          0.92950       -1.37640       -1.79280
>
39
-61.51314077; 31P isotropic shielding: 256.793272 ppm
O         -0.84080       -2.54060        0.02490
C         -0.50760       -1.25400        0.47460
P         -1.48490       -0.06580       -0.59370
O         -1.66210       -0.59480       -1.94600
O         -2.85770        0.23010        0.18990
C         -4.02100       -0.54430       -0.12300
C         -5.22830        0.36310        0.06740
C         -4.07750       -1.77380        0.77240
O         -0.74460        1.33450       -0.58800
C         -0.51650        2.10930        0.59540
C         -1.63480        3.13030        0.75440
C          0.84480        2.77450        0.43970
C          0.95250       -0.92850        0.34670
C          1.74130       -0.70170        1.46710
C          3.08050       -0.38040        1.33430
C          3.63310       -0.28820        0.06670
C          2.86130       -0.51440       -1.06270
C          1.52400       -0.83320       -0.91730
Cl         5.30340        0.12020       -0.10650
H         -0.83990       -2.52450       -0.94330
H         -0.82520       -1.20470        1.52030
H         -3.94620       -0.85430       -1.17260
H         -5.28440        0.69460        1.10160
H         -5.14440        1.23500       -0.57600
H         -6.13740       -0.17570       -0.18340
H         -4.12200       -1.47230        1.81690
H         -3.19270       -2.38790        0.61920
H         -4.95910       -2.36300        0.53600
H         -0.50590        1.43850        1.46330
H         -1.46270        3.73580        1.64030
H         -2.58880        2.61950        0.84800
H         -1.66780        3.77550       -0.11960
H          1.06380        3.38180        1.31350
H          0.84110        3.40660       -0.44390
H          1.62110        2.02270        0.32470
H          1.30820       -0.77630        2.45400
H          3.69210       -0.20350        2.20500
H          3.30240       -0.43560       -2.04360
H          0.91320       -0.99290       -1.79300
>
39
-61.51309615; 31P isotropic shielding: 252.637957 ppm
O          0.14600        0.63050        2.63080
C          0.46620        0.92390        1.30410
P         -1.08060        0.93790        0.26360
O         -0.97160        1.52860       -1.07630
O         -1.41680       -0.62000        0.37740
C         -2.06980       -1.36890       -0.65300
C         -1.12880       -1.57830       -1.83090
C         -3.37130       -0.70520       -1.07450
O         -2.24800        1.51760        1.19940
C         -2.62910        2.89220        1.23930
C         -3.42650        3.26270       -0.00420
C         -1.41710        3.79380        1.41670
C          1.37700       -0.06040        0.62400
C          1.90400        0.25860       -0.62260
C          2.67440       -0.65560       -1.31550
C          2.92440       -1.89830       -0.75360
C          2.41850       -2.22740        0.49240
C          1.64250       -1.30640        1.17410
Cl         3.88100       -3.05050       -1.61900
H         -0.49750       -0.08870        2.62520
H          0.92050        1.91940        1.29430
H         -2.28180       -2.33370       -0.17090
H         -0.20350       -2.03950       -1.49290
H         -1.59830       -2.22020       -2.57130
H         -0.89390       -0.61820       -2.28060
H         -3.99830       -0.52970       -0.20320
H         -3.90450       -1.34130       -1.77630
H         -3.14990        0.24750       -1.54840
H         -3.27280        2.95580        2.12760
H         -3.77930        4.28760        0.07300
H         -4.28210        2.60030       -0.11060
H         -2.79440        3.16380       -0.88180
H         -0.78580        3.72030        0.53330
H         -0.84960        3.48820        2.29310
H         -1.73450        4.82580        1.54270
H          1.69690        1.22450       -1.05580
H          3.07740       -0.41040       -2.28540
H          2.62550       -3.19470        0.92270
H          1.25350       -1.55780        2.14910
>
39
-61.51302014; 31P isotropic shielding: 257.215116 ppm
O         -0.94580       -2.56880       -0.38930
C         -0.50380       -1.51130        0.41340
P         -1.46340       -0.01750       -0.14310
O         -1.53020        0.06240       -1.60950
O         -2.90140       -0.05720        0.55970
C         -4.02800       -0.61400       -0.12570
C         -5.23690        0.24660        0.21430
C         -4.21820       -2.06280        0.30110
O         -0.75900        1.18960        0.61110
C         -0.61140        2.45190       -0.05930
C          0.77700        2.51820       -0.67850
C         -0.84130        3.54500        0.97270
C          0.94120       -1.14300        0.26970
C          1.62660       -0.61670        1.35860
C          2.93070       -0.17910        1.22880
C          3.55750       -0.26940       -0.00450
C          2.89210       -0.79370       -1.09960
C          1.58440       -1.22390       -0.95850
Cl         5.18660        0.28240       -0.17640
H         -0.97420       -2.24880       -1.30260
H         -0.74360       -1.76870        1.44670
H         -3.82670       -0.56630       -1.20360
H         -5.40840        0.23330        1.28770
H         -5.06510        1.27320       -0.09840
H         -6.11760       -0.13630       -0.29340
H         -4.41300       -2.11090        1.37000
H         -3.32050       -2.63730        0.08300
H         -5.05710       -2.50000       -0.23340
H         -1.36380        2.51520       -0.85420
H          0.92040        3.47590       -1.17100
H          0.88670        1.72100       -1.40930
H          1.53450        2.39020        0.09090
H         -1.82840        3.43900        1.41470
H         -0.76350        4.52160        0.50310
H         -0.09670        3.46590        1.76050
H          1.12940       -0.54170        2.31380
H          3.46050        0.22980        2.07500
H          3.38920       -0.85830       -2.05470
H          1.06930       -1.62640       -1.81740
>
39
-61.51289577; 31P isotropic shielding: 253.907582 ppm
O         -0.90130       -2.67530       -0.05270
C         -0.47440       -1.52910        0.62750
P         -1.48760       -0.10250       -0.00650
O         -1.60840       -0.10590       -1.47200
O         -2.85500       -0.12100        0.82630
C         -4.12910       -0.53030        0.32100
C         -4.05660       -1.88350       -0.36990
C         -4.70120        0.53770       -0.60180
O         -0.73610        1.15690        0.61100
C         -0.53910        2.33410       -0.18100
C          0.87230        2.83540        0.08870
C         -1.59860        3.36570        0.17860
C          0.95700       -1.14340        0.40110
C          1.74760       -0.72480        1.46420
C          3.04210       -0.28700        1.25460
C          3.55160       -0.26830       -0.03420
C          2.77920       -0.68210       -1.10720
C          1.48400       -1.11420       -0.88460
Cl         5.16700        0.28520       -0.30630
H         -0.94870       -2.45950       -0.99410
H         -0.66990       -1.69750        1.68810
H         -4.74490       -0.60880        1.22750
H         -5.05990       -2.25310       -0.56600
H         -3.52480       -1.78280       -1.31190
H         -3.52950       -2.59870        0.25740
H         -4.77320        1.48790       -0.07760
H         -5.69180        0.24480       -0.93930
H         -4.04860        0.65610       -1.46280
H         -0.64260        2.05350       -1.23680
H          1.06700        3.72770       -0.49930
H          1.59710        2.06930       -0.17440
H          0.98390        3.07040        1.14400
H         -1.45380        4.26960       -0.40680
H         -1.53400        3.60830        1.23650
H         -2.58680        2.96230       -0.02770
H          1.34350       -0.73470        2.46510
H          3.65300        0.03930        2.08150
H          3.18480       -0.65890       -2.10640
H          0.88170       -1.42140       -1.72610
>
39
-61.51285882; 31P isotropic shielding: 254.064532 ppm
O         -0.88310       -2.67030       -0.49350
C         -0.55670       -1.52040        0.23150
P         -1.36800       -0.10650       -0.66820
O         -0.93500       -0.01040       -2.05960
O         -2.94470       -0.31520       -0.58790
C         -3.63840       -0.40250        0.66160
C         -4.14020       -1.82950        0.83970
C         -4.77940        0.60580        0.63330
O         -1.03020        1.16290        0.25750
C         -0.59000        2.37590       -0.36660
C          0.47110        2.99520        0.53010
C         -1.78680        3.29240       -0.57680
C          0.89740       -1.16110        0.28750
C          1.73170       -1.36970       -0.80320
C          3.04920       -0.94940       -0.77260
C          3.53380       -0.30770        0.35510
C          2.71560       -0.08970        1.45250
C          1.40180       -0.51810        1.41180
Cl         5.17620        0.22970        0.39650
H         -0.77650       -2.46860       -1.43330
H         -0.95580       -1.65220        1.23990
H         -2.94280       -0.14280        1.47030
H         -4.62140       -1.93960        1.80790
H         -4.85590       -2.06530        0.05640
H         -3.31320       -2.53190        0.76790
H         -4.38520        1.61260        0.52240
H         -5.35160        0.54690        1.55510
H         -5.43340        0.39430       -0.20860
H         -0.15820        2.11600       -1.34040
H          1.30060        2.30400        0.65590
H          0.04790        3.21670        1.50690
H          0.83900        3.91460        0.08420
H         -1.46990        4.21600       -1.05330
H         -2.25180        3.52560        0.37890
H         -2.51390        2.79520       -1.21540
H          1.35740       -1.86320       -1.68660
H          3.69450       -1.11220       -1.62130
H          3.10440        0.40950        2.32630
H          0.75890       -0.34510        2.26200
>
39
-61.51284854; 31P isotropic shielding: 257.575314 ppm
O         -0.24700       -1.11870       -2.54660
C         -0.32270       -1.29220       -1.15910
P         -1.64950       -0.14630       -0.53630
O         -2.62580        0.15760       -1.59590
O         -2.16130       -0.94090        0.74570
C         -3.45650       -0.73850        1.32880
C         -4.52480       -1.40800        0.47540
C         -3.74920        0.73790        1.54120
O         -0.97490        1.15890        0.09810
C         -0.83720        2.33540       -0.70340
C          0.40720        2.22980       -1.57210
C         -0.77250        3.51840        0.25160
C          0.99070       -1.02680       -0.48670
C          2.13780       -0.77560       -1.22510
C          3.33710       -0.50630       -0.58880
C          3.38170       -0.48920        0.79460
C          2.24430       -0.74390        1.54630
C          1.05290       -1.01340        0.90110
Cl         4.87490       -0.14460        1.59820
H         -1.13600       -0.89160       -2.85830
H         -0.65660       -2.31640       -0.91670
H         -3.38180       -1.24730        2.29980
H         -5.49350       -1.32670        0.96110
H         -4.56650       -0.92580       -0.49690
H         -4.28550       -2.45920        0.33460
H         -4.68710        0.85720        2.07790
H         -3.82410        1.23230        0.57510
H         -2.94740        1.19900        2.11320
H         -1.72400        2.41310       -1.34600
H          1.28860        2.10520       -0.94680
H          0.51750        3.12760       -2.17440
H          0.32450        1.36910       -2.23250
H         -1.67230        3.56210        0.85940
H         -0.68000        4.44290       -0.31100
H          0.08750        3.41090        0.90770
H          2.08440       -0.79100       -2.30200
H          4.22910       -0.30960       -1.16250
H          2.29490       -0.72680        2.62370
H          0.15760       -1.20560        1.47170
>
39
-61.51274949; 31P isotropic shielding: 250.610398 ppm
O         -0.81720       -2.50990       -0.06240
C         -0.50820       -1.23440        0.43270
P         -1.53870       -0.03630       -0.57470
O         -1.72390       -0.56020       -1.92920
O         -2.91480        0.21380        0.22110
C         -4.06140       -0.57480       -0.11710
C         -5.28880        0.29200        0.12410
C         -4.07710       -1.84400        0.72280
O         -0.83910        1.38220       -0.61150
C         -0.66340        2.37610        0.40090
C          0.70060        3.01190        0.15590
C         -0.77640        1.82190        1.81120
C          0.94390       -0.87620        0.28930
C          1.46660       -0.62100       -0.97330
C          2.79420       -0.26690       -1.12740
C          3.60650       -0.16920       -0.00810
C          3.10610       -0.43200        1.25700
C          1.77630       -0.78750        1.39820
Cl         5.26360        0.28740       -0.19080
H         -0.84160       -2.45130       -1.02910
H         -0.80470       -1.23590        1.48520
H         -3.98830       -0.83680       -1.17960
H         -5.23070        1.19560       -0.47680
H         -6.18620       -0.25680       -0.14670
H         -5.34520        0.57290        1.17310
H         -4.12320       -1.59160        1.78030
H         -3.17580       -2.42410        0.53700
H         -4.94290       -2.44760        0.46500
H         -1.45260        3.12250        0.24130
H          1.48690        2.27860        0.32000
H          0.84630        3.85140        0.82980
H          0.76540        3.36330       -0.86990
H          0.04790        1.14210        2.01220
H         -1.72050        1.29750        1.92790
H         -0.73770        2.64120        2.52520
H          0.82450       -0.68310       -1.83860
H          3.19640       -0.06170       -2.10670
H          3.75000       -0.35980        2.11940
H          1.38590       -1.00230        2.38280
>
39
-61.51272393; 31P isotropic shielding: 253.556921 ppm
O         -0.80970       -2.52130       -0.09140
C         -0.50190       -1.25040        0.41660
P         -1.53210       -0.04200       -0.57860
O         -1.72390       -0.55640       -1.93600
O         -2.90250        0.21520        0.22430
C         -4.05450       -0.56780       -0.10830
C         -5.27650        0.30080        0.15280
C         -4.06520       -1.84350        0.72170
O         -0.82150        1.37230       -0.60070
C         -0.72060        2.37470        0.41340
C          0.56480        3.14240        0.12730
C         -0.72710        1.79850        1.81950
C          0.95040       -0.89010        0.27900
C          1.47350       -0.61020       -0.97790
C          2.80130       -0.25350       -1.12440
C          3.61330       -0.17910       -0.00320
C          3.11260       -0.46720        1.25620
C          1.78240       -0.82390        1.38980
Cl         5.27080        0.28000       -0.17620
H         -0.83100       -2.45330       -1.05760
H         -0.79810       -1.26300        1.46900
H         -3.99290       -0.82190       -1.17350
H         -5.22320        1.20790       -0.44330
H         -6.17880       -0.24370       -0.11020
H         -5.31910        0.57570        1.20410
H         -4.93700       -2.44120        0.47050
H         -4.09630       -1.59930        1.78160
H         -3.16890       -2.42620        0.51930
H         -1.58560        3.03940        0.29120
H          0.55590        3.51010       -0.89470
H          1.42220        2.48460        0.25050
H          0.65630        3.98390        0.80820
H         -1.62380        1.20400        1.97060
H         -0.71700        2.61010        2.54310
H          0.15310        1.17880        1.97270
H          0.83170       -0.65520       -1.84460
H          3.20400       -0.02900       -2.09930
H          3.75640       -0.41300        2.12000
H          1.39070       -1.05710        2.36960
>
39
-61.51268731; 31P isotropic shielding: 253.425972 ppm
O         -0.80030       -2.52660        0.01930
C         -0.49600       -1.23380        0.47150
P         -1.52110       -0.07170       -0.58150
O         -1.70420       -0.64600       -1.91620
O         -2.89480        0.22410        0.20130
C         -4.04680       -0.56980       -0.10530
C         -5.26870        0.30930        0.11850
C         -4.06190       -1.81350        0.77170
O         -0.80860        1.34110       -0.65560
C         -0.78370        2.39480        0.31000
C          0.41520        3.26480       -0.04760
C         -0.69700        1.87910        1.73710
C          0.95720       -0.88030        0.32540
C          1.78490       -0.77070        1.43600
C          3.11730       -0.42610        1.29300
C          3.62430       -0.19380        0.02470
C          2.81620       -0.30990       -1.09560
C          1.48620       -0.65430       -0.93980
Cl         5.28550        0.24710       -0.16080
H         -0.81680       -2.50180       -0.94910
H         -0.79680       -1.19960        1.52210
H         -3.98170       -0.86390       -1.16000
H         -5.21140        1.19450       -0.50930
H         -6.17030       -0.24320       -0.12930
H         -5.31600        0.62150        1.15920
H         -3.16380       -2.40230        0.59710
H         -4.93140       -2.42120        0.53710
H         -4.10030       -1.53010        1.82160
H         -1.71140        2.96890        0.18960
H          1.33280        2.69410        0.07530
H          0.44680        4.14000        0.59510
H          0.34360        3.58490       -1.08310
H         -1.54230        1.22910        1.94560
H         -0.72010        2.71840        2.42800
H          0.23050        1.32940        1.87930
H          1.38760       -0.95950        2.42300
H          3.75810       -0.33890        2.15640
H          3.22360       -0.12760       -2.07740
H          0.84740       -0.73200       -1.80650
>
39
-61.51268207; 31P isotropic shielding: 253.194804 ppm
O          0.31790        1.10810        2.42160
C          0.60270        1.15620        1.05570
P         -0.98260        1.15040        0.06840
O         -0.92010        1.64050       -1.31370
O         -1.37930       -0.38690        0.22920
C         -1.95390       -1.08270       -0.88280
C         -3.47070       -1.05170       -0.76700
C         -1.39560       -2.49810       -0.87120
O         -2.09550        1.81020        1.01660
C         -2.41360        3.20210        1.01280
C         -3.25130        3.55080       -0.21020
C         -1.15570        4.05310        1.09240
C          1.40320       -0.00090        0.52410
C          1.81550        0.02080       -0.80390
C          2.48170       -1.05960       -1.35020
C          2.74210       -2.16900       -0.55940
C          2.35020       -2.20080        0.76790
C          1.67770       -1.11580        1.30270
Cl         3.56600       -3.52890       -1.24050
H         -0.36480        0.43920        2.55700
H          1.13670        2.09380        0.87250
H         -1.64740       -0.56340       -1.79930
H         -3.81190       -0.01910       -0.76490
H         -3.92030       -1.57410       -1.60700
H         -3.78370       -1.52580        0.16030
H         -0.31070       -2.47150       -0.93670
H         -1.78940       -3.05720       -1.71500
H         -1.67660       -2.99960        0.05160
H         -3.01090        3.33360        1.92550
H         -4.14940        2.93830       -0.23540
H         -2.67280        3.36130       -1.10980
H         -3.53840        4.59830       -0.17800
H         -0.57700        3.92010        0.18030
H         -0.55540        3.75210        1.94850
H         -1.42020        5.10220        1.19640
H          1.60030        0.88490       -1.41280
H          2.79570       -1.04600       -2.38200
H          2.56390       -3.06640        1.37500
H          1.37720       -1.13420        2.33930
>
39
-61.51263777; 31P isotropic shielding: 255.620628 ppm
O          0.40220        1.46030        2.20970
C          0.64110        1.30110        0.84370
P         -0.97790        1.14740       -0.07160
O         -0.96490        1.36570       -1.52280
O         -1.38410       -0.32430        0.39290
C         -2.04760       -1.19670       -0.52870
C         -3.53590       -1.21850       -0.21220
C         -1.40590       -2.57120       -0.40450
O         -2.04710        1.99670        0.77110
C         -2.35270        3.36660        0.50910
C         -3.23270        3.48630       -0.72780
C         -1.08510        4.19660        0.37820
C          1.42170        0.07330        0.46350
C          1.68470       -0.93520        1.37920
C          2.33690       -2.09110        0.98690
C          2.72040       -2.23820       -0.33520
C          2.47110       -1.23730       -1.26230
C          1.82440       -0.08480       -0.85810
Cl         3.52010       -3.68750       -0.83710
H         -0.28150        0.82840        2.46490
H          1.16750        2.19780        0.50270
H         -1.89120       -0.80030       -1.53970
H         -4.05650       -1.86780       -0.91060
H         -3.69550       -1.58040        0.80080
H         -3.94020       -0.21220       -0.29120
H         -0.34410       -2.50820       -0.62980
H         -1.87630       -3.26210       -1.09800
H         -1.52480       -2.94610        0.60900
H         -2.91380        3.68140        1.39980
H         -2.68950        3.11990       -1.59420
H         -3.51120        4.52450       -0.88720
H         -4.13520        2.89260       -0.60380
H         -1.33650        5.24980        0.28160
H         -0.54020        3.87750       -0.50820
H         -0.45800        4.06100        1.25680
H          1.39130       -0.81440        2.41090
H          2.54130       -2.87400        1.70020
H          2.77840       -1.36270       -2.28850
H          1.61730        0.69530       -1.57380
>
39
-61.51265927; 31P isotropic shielding: 255.934506 ppm
O         -0.79660       -2.53130        0.00910
C         -0.49030       -1.24050        0.46570
P         -1.51380       -0.07310       -0.58240
O         -1.69910       -0.64320       -1.91880
O         -2.88490        0.22590        0.20320
C         -4.03760       -0.56930       -0.09770
C         -5.25890        0.31310        0.11670
C         -4.05480       -1.80520        0.79050
O         -0.79840        1.33950       -0.64610
C         -0.82950        2.39470        0.31770
C          0.28830        3.35250       -0.07460
C         -0.66000        1.88370        1.73930
C          0.96350       -0.88840        0.32180
C          1.79060       -0.78610        1.43330
C          3.12400       -0.44450        1.29270
C          3.63230       -0.20720        0.02580
C          2.82420       -0.31470       -1.09540
C          1.49340       -0.65670       -0.94200
Cl         5.29470        0.22990       -0.15670
H         -0.81350       -2.50290       -0.95920
H         -0.79070       -1.20970        1.51660
H         -3.97190       -0.87300       -1.14980
H         -5.30580        0.63690        1.15380
H         -5.20120        1.19120       -0.52100
H         -6.16100       -0.24150       -0.12480
H         -4.92670       -2.41230        0.56300
H         -4.09050       -1.51220        1.83770
H         -3.15900       -2.39830        0.61930
H         -1.80150        2.89590        0.22800
H          1.24950        2.85300        0.02050
H          0.27270        4.22850        0.56750
H          0.16210        3.66470       -1.10730
H          0.29920        1.38160        1.84300
H         -1.46160        1.19020        1.97860
H         -0.69960        2.71970        2.43340
H          1.39190       -0.97780        2.41920
H          3.76460       -0.36350        2.15680
H          3.23250       -0.12790       -2.07600
H          0.85450       -0.72800       -1.80920
>
39
-61.51258041; 31P isotropic shielding: 253.148474 ppm
O         -0.98780       -2.45010       -0.48350
C         -0.55150       -1.45750        0.40250
P         -1.45500        0.10250       -0.07780
O         -1.57150        0.17790       -1.54300
O         -2.82380        0.22630        0.74780
C         -4.06540       -0.42690        0.48500
C         -3.96220       -1.91990        0.76370
C         -4.57030       -0.14940       -0.92360
O         -0.59770        1.21040        0.66880
C         -0.43900        2.55150        0.19150
C         -1.78050        3.18070       -0.14860
C          0.51640        2.57550       -0.99350
C          0.90840       -1.12760        0.31090
C          1.64040       -0.86300        1.46170
C          2.96610       -0.47930        1.38450
C          3.56680       -0.36070        0.14110
C          2.85410       -0.62160       -1.01740
C          1.52660       -1.00010       -0.92680
Cl         5.22360        0.12300        0.03530
H         -1.00740       -2.05650       -1.36850
H         -0.81530       -1.78410        1.40990
H         -4.74650        0.03510        1.21380
H         -3.25030       -2.37970        0.08140
H         -3.62690       -2.08860        1.78450
H         -4.93400       -2.38840        0.63240
H         -5.57160       -0.55580       -1.04030
H         -3.90960       -0.60520       -1.65450
H         -4.59850        0.92210       -1.10550
H          0.01440        3.07370        1.04500
H         -1.64710        4.22700       -0.41170
H         -2.45200        3.10770        0.70360
H         -2.22020        2.65120       -0.99020
H          0.71010        3.60150       -1.29460
H          0.07480        2.03260       -1.82420
H          1.45550        2.09830       -0.72300
H          1.16600       -0.95040        2.42740
H          3.53180       -0.27300        2.27940
H          3.33070       -0.52210       -1.98000
H          0.97290       -1.19060       -1.83340
>
39
-61.51254230; 31P isotropic shielding: 255.220599 ppm
O         -1.03910       -2.42950       -0.43860
C         -0.57650       -1.43070        0.42730
P         -1.45420        0.13500       -0.07980
O         -1.51090        0.21850       -1.54750
O         -2.85530        0.25660        0.68860
C         -4.06960       -0.44710        0.43010
C         -3.97590       -1.88260        0.93090
C         -4.47120       -0.38980       -1.03590
O         -0.63330        1.24240        0.70690
C         -0.42110        2.57240        0.21940
C         -1.72970        3.22050       -0.20360
C          0.59980        2.56120       -0.90980
C          0.88610       -1.12100        0.32090
C          1.61090       -0.78830        1.45890
C          2.93760       -0.41190        1.36810
C          3.54700       -0.36900        0.12380
C          2.84210       -0.69950       -1.02150
C          1.51310       -1.07000       -0.91770
Cl         5.20480        0.10720        0.00050
H         -1.04320       -2.05410       -1.33150
H         -0.83930       -1.73380        1.44220
H         -4.80650        0.10280        1.03240
H         -4.93920       -2.37390        0.82240
H         -3.23160       -2.43130        0.35770
H         -3.69210       -1.89500        1.98070
H         -4.45940        0.63880       -1.38700
H         -5.47190       -0.79660       -1.15730
H         -3.77470       -0.96550       -1.63830
H         -0.00650        3.09910        1.08980
H         -2.13080        2.68860       -1.06260
H         -1.56320        4.26120       -0.47010
H         -2.44930        3.16900        0.60990
H          0.19700        2.01140       -1.75530
H          1.51440        2.07420       -0.57950
H          0.82700        3.57890       -1.21570
H          1.12920       -0.81620        2.42450
H          3.49730       -0.15230        2.25290
H          3.32550       -0.65930       -1.98480
H          0.96680       -1.31600       -1.81530
