36
-2903.97729472; 31P isotropic shielding: 175.790656 ppm
  C      -0.054422      3.075270      2.045401
  O       0.514161      1.779191      1.705034
  P       1.001934      1.443865      0.207443
  S      -0.098095      2.084248     -1.259782
  C       1.001546     -0.448301      0.460874
  C       2.195948     -1.230337     -0.129619
  Cl      3.711286     -0.817544      0.763289
  Cl      1.895494     -3.013274      0.080186
  Cl      2.396087     -0.880704     -1.886215
  O      -0.198585     -0.933833     -0.120904
  C      -1.176535     -1.452000      0.788651
  O      -1.764812     -0.444974      1.599056
  N      -2.531404      0.519705      0.810889
  C      -3.705531     -0.016232      0.231250
  C      -4.521022     -0.922212      0.931687
  C      -5.722784     -1.353490      0.366439
  C      -6.136158     -0.881640     -0.885476
  C      -5.322802      0.022215     -1.579205
  C      -4.107390      0.443476     -1.036503
  O       2.521338      1.983100      0.237114
  C       3.259257      2.440473     -0.930763
  H       0.730080      3.841277      2.040233
  H      -0.847259      3.336492      1.336821
  H      -0.467684      2.958728      3.049857
  H       1.020134     -0.595473      1.548334
  H      -1.912375     -1.943198      0.140982
  H      -0.727586     -2.154244      1.503708
  H      -1.892275      0.909494      0.105342
  H      -4.207145     -1.275921      1.910397
  H      -6.346470     -2.058325      0.914475
  H      -7.076996     -1.217383     -1.316842
  H      -5.624919      0.387841     -2.559465
  H      -3.463852      1.128182     -1.587149
  H       3.827556      3.318872     -0.611003
  H       3.937389      1.644351     -1.252674
  H       2.568890      2.705205     -1.738563
>
36
-2903.98599385; 31P isotropic shielding: 163.080217 ppm
  C      -1.666388      2.289721      1.055404
  O      -0.685762      1.209465      1.089787
  P       0.396357      1.034444     -0.088388
  S      -0.247223      1.086470     -1.921548
  C       1.019072     -0.675637      0.499138
  C       2.548581     -0.887281      0.508365
  Cl      3.317637      0.165841      1.758616
  Cl      2.899807     -2.618371      0.949798
  Cl      3.260352     -0.547904     -1.112425
  O       0.427252     -1.651110     -0.345056
  C      -0.582548     -2.471320      0.278301
  O      -1.699447     -1.728486      0.679984
  N      -2.429649     -1.275883     -0.521827
  C      -3.513491     -0.454861     -0.134245
  C      -4.145412     -0.574165      1.113911
  C      -5.244212      0.237359      1.413426
  C      -5.728800      1.163721      0.484386
  C      -5.099197      1.272216     -0.762864
  C      -3.996735      0.477082     -1.073144
  O       1.482099      2.162197      0.301572
  C       2.345945      2.846001     -0.648165
  H      -2.441458      2.009364      1.771521
  H      -1.183986      3.228429      1.351324
  H      -2.101349      2.376635      0.055121
  H       0.670866     -0.765803      1.536232
  H      -0.831821     -3.214882     -0.488250
  H      -0.198776     -2.928831      1.199756
  H      -1.750999     -0.721126     -1.068417
  H      -3.769007     -1.286526      1.840948
  H      -5.724426      0.141034      2.386302
  H      -6.585797      1.789739      0.724492
  H      -5.462361      1.989178     -1.497723
  H      -3.499752      0.575357     -2.036273
  H       2.355372      3.900103     -0.354902
  H       3.351742      2.421352     -0.575194
  H       1.957016      2.737176     -1.666062
>
36
-2903.98820039; 31P isotropic shielding: 161.648402 ppm
  C      -1.720767      2.381197      0.686696
  O      -0.716971      1.339878      0.882125
  P       0.369982      1.012022     -0.258475
  S      -0.275650      0.773445     -2.076127
  C       1.027166     -0.576845      0.578320
  C       2.560449     -0.757767      0.607801
  Cl      2.946840     -2.395690      1.302436
  Cl      3.257440     -0.654911     -1.051625
  Cl      3.316267      0.485487      1.678360
  O       0.449201     -1.679995     -0.102465
  C      -0.538968     -2.415329      0.648444
  O      -1.666122     -1.640477      0.946408
  N      -2.417149     -1.388461     -0.300040
  C      -3.508553     -0.531645     -0.027465
  C      -4.119547     -0.462228      1.234822
  C      -5.227113      0.370564      1.422656
  C      -5.740975      1.132616      0.368514
  C      -5.132247      1.052419     -0.891235
  C      -4.021639      0.233868     -1.092235
  O       1.432042      2.207104     -0.045160
  C       2.285018      2.754634     -1.088616
  H      -1.266650      3.361338      0.872215
  H      -2.128815      2.329477     -0.327396
  H      -2.509335      2.173661      1.412747
  H       0.685567     -0.513451      1.619595
  H      -0.779781     -3.270166      0.004925
  H      -0.138385     -2.722773      1.623388
  H      -1.753523     -0.917884     -0.936497
  H      -3.720775     -1.046823      2.057597
  H      -5.691054      0.420980      2.406819
  H      -6.604605      1.776315      0.522757
  H      -5.518187      1.640086     -1.722871
  H      -3.540882      0.187436     -2.067521
  H       2.286144      3.839803     -0.948893
  H       3.295219      2.353313     -0.963082
  H       1.891161      2.497902     -2.077720
>
36
-2903.98805952; 31P isotropic shielding: 161.595349 ppm
  C      -1.674089      2.158431      1.290471
  O      -0.700224      1.073815      1.209387
  P       0.400438      1.035914      0.036156
  S      -0.215988      1.299181     -1.788344
  C       1.015169     -0.732042      0.430074
  C       2.544715     -0.945788      0.440747
  Cl      3.283139     -0.425337     -1.119037
  Cl      3.292116     -0.044036      1.815846
  Cl      2.889075     -2.716779      0.686661
  O       0.438670     -1.601565     -0.532133
  C      -0.574346     -2.494237     -0.023245
  O      -1.695026     -1.808049      0.458790
  N      -2.418287     -1.210512     -0.682417
  C      -3.489463     -0.422955     -0.201338
  C      -4.118126     -0.671300      1.029246
  C      -5.204721      0.116436      1.422710
  C      -5.679866      1.146286      0.604541
  C      -5.053824      1.383499     -0.626661
  C      -3.963937      0.612828     -1.029110
  O       1.476647      2.111521      0.572046
  C       2.361898      2.892902     -0.277733
  H      -1.203124      3.032303      1.754893
  H      -2.050624      2.405950      0.293294
  H      -2.489845      1.779726      1.909309
  H       0.648766     -0.942010      1.443173
  H      -0.815906     -3.136744     -0.878696
  H      -0.196233     -3.063308      0.836132
  H      -1.731508     -0.608756     -1.165582
  H      -3.747547     -1.463731      1.671444
  H      -5.682053     -0.080678      2.381686
  H      -6.527099      1.753152      0.917460
  H      -5.409955      2.182255     -1.275592
  H      -3.469873      0.811654     -1.978115
  H       2.385577      3.901050      0.146651
  H       3.359945      2.445104     -0.251959
  H       1.980709      2.919320     -1.304056
>
36
-2903.98796809; 31P isotropic shielding: 161.577602 ppm
  C      -1.678421      2.346054      0.883864
  O      -0.695190      1.272349      0.985798
  P       0.385283      1.023498     -0.180466
  S      -0.263014      0.955526     -2.011558
  C       1.010914     -0.644940      0.514153
  C       2.540391     -0.856924      0.527669
  Cl      3.317972      0.275378      1.701177
  Cl      2.893887     -2.555487      1.079021
  Cl      3.241836     -0.624986     -1.116561
  O       0.413459     -1.672893     -0.260889
  C      -0.593770     -2.449246      0.420015
  O      -1.706019     -1.679943      0.781806
  N      -2.446952     -1.305302     -0.440057
  C      -3.530867     -0.465626     -0.094650
  C      -4.022529      0.409589     -1.082368
  C      -5.125803      1.218015     -0.811603
  C      -5.748121      1.179098      0.443352
  C      -5.255296      0.308706      1.420996
  C      -4.155568     -0.515245      1.161928
  O       1.469579      2.175920      0.133555
  C       2.332875      2.795775     -0.859651
  H      -1.204884      3.297565      1.151724
  H      -2.089593      2.390238     -0.129266
  H      -2.469619      2.092646      1.592391
  H       0.668984     -0.666660      1.557016
  H      -0.849956     -3.238847     -0.296651
  H      -0.204599     -2.849578      1.365581
  H      -1.774476     -0.784211     -1.025871
  H      -3.530849      0.454963     -2.052222
  H      -5.495211      1.890895     -1.584073
  H      -6.605776      1.815268      0.652425
  H      -5.729887      0.266476      2.400453
  H      -3.773152     -1.184291      1.926069
  H       3.336017      2.368243     -0.768876
  H       1.935989      2.630980     -1.866910
  H       2.352166      3.864900     -0.627822
>
36
-2903.98817975; 31P isotropic shielding: 161.511315 ppm
  C      -1.674403      2.284955      1.043872
  O      -0.696972      1.201571      1.071756
  P       0.380933      1.027248     -0.110182
  S      -0.267921      1.085934     -1.941232
  C       1.001695     -0.686188      0.469976
  C       2.530919     -0.901211      0.473609
  Cl      3.306329      0.146452      1.724481
  Cl      2.879586     -2.634335      0.908773
  Cl      3.238034     -0.558722     -1.148614
  O       0.405381     -1.657902     -0.375262
  C      -0.605484     -2.476742      0.248383
  O      -1.718759     -1.731683      0.655574
  N      -2.452076     -1.274445     -0.542898
  C      -3.532737     -0.451933     -0.149115
  C      -4.161957     -0.575079      1.099973
  C      -5.257951      0.237899      1.405727
  C      -5.742469      1.169415      0.481813
  C      -5.115641      1.281808     -0.766466
  C      -4.015819      0.485348     -1.082795
  O       1.470059      2.151896      0.279716
  C       2.333751      2.835610     -0.670171
  H      -2.112354      2.375952      0.045254
  H      -2.447743      2.004603      1.761847
  H      -1.188211      3.221346      1.340909
  H       0.656748     -0.779279      1.507905
  H      -0.859485     -3.216899     -0.519904
  H      -0.220351     -2.938482      1.167169
  H      -1.773943     -0.719273     -1.089815
  H      -3.785511     -1.291567      1.822951
  H      -5.736119      0.138618      2.379308
  H      -6.597351      1.796452      0.726784
  H      -5.478720      2.002764     -1.497446
  H      -3.521030      0.586667     -2.046740
  H       1.941779      2.731160     -1.687370
  H       2.347421      3.888684     -0.373432
  H       3.338373      2.407460     -0.601339
>
36
-2903.98819817; 31P isotropic shielding: 161.670973 ppm
  C       2.552473      3.411204      0.943648
  O       2.285555      1.982169      0.861518
  P       0.988700      1.430868      0.100502
  S      -0.722873      2.223997      0.592632
  C       1.055163     -0.430635      0.435765
  C       2.441279     -1.073518      0.714784
  Cl      2.257706     -2.893512      0.761438
  Cl      3.646465     -0.671152     -0.554031
  Cl      3.033786     -0.554148      2.340952
  O       0.459918     -0.980712     -0.736800
  C      -0.659006     -1.878632     -0.525219
  O      -1.752696     -1.271769      0.105976
  N      -2.398182     -0.333054     -0.828345
  C      -3.807112     -0.388604     -0.696082
  C      -4.489237     -1.599661     -0.495542
  C      -5.885611     -1.613365     -0.474936
  C      -6.617628     -0.435259     -0.664110
  C      -5.934254      0.770382     -0.861530
  C      -4.538724      0.801044     -0.865017
  O       1.427472      1.600192     -1.440993
  C       0.477401      1.617447     -2.544252
  H       2.792531      3.803209     -0.051269
  H       1.683856      3.933419      1.360270
  H       3.414239      3.510953      1.607971
  H       0.432507     -0.597502      1.323874
  H      -0.904690     -2.220795     -1.535939
  H      -0.368634     -2.698905      0.140668
  H      -2.034606      0.587174     -0.539662
  H      -3.924190     -2.514741     -0.342739
  H      -6.405924     -2.555974     -0.311203
  H      -7.705447     -0.454764     -0.649903
  H      -6.489193      1.697749     -0.994910
  H      -4.009362      1.743673     -0.999560
  H       1.011987      2.065013     -3.386650
  H       0.170690      0.594503     -2.778820
  H      -0.395162      2.225407     -2.280788
>
36
-2903.98896917; 31P isotropic shielding: 175.995977 ppm
  C       2.499909      3.029304      1.907177
  O       2.262600      1.682520      1.407665
  P       0.982524      1.353269      0.503607
  S      -0.745399      1.954355      1.176199
  C       1.074525     -0.525997      0.299607
  C       2.468954     -1.204425      0.392640
  Cl      3.672244     -0.443976     -0.701516
  Cl      3.050802     -1.161206      2.102823
  Cl      2.308989     -2.964849     -0.080676
  O       0.488646     -0.729219     -0.983871
  C      -0.620406     -1.661734     -1.040820
  O      -1.725392     -1.266612     -0.275423
  N      -2.378647     -0.113545     -0.918586
  C      -3.787379     -0.217374     -0.815437
  C      -4.456872     -1.444448     -0.949325
  C      -5.853209     -1.476290     -0.942740
  C      -6.597356     -0.297516     -0.816029
  C      -5.926474      0.923564     -0.680055
  C      -4.531398      0.967303     -0.665990
  O       1.434355      1.956296     -0.921103
  C       0.493924      2.270936     -1.987694
  H       3.357095      2.945708      2.579628
  H       2.735423      3.700558      1.073412
  H       1.619269      3.390296      2.450201
  H       0.453551     -0.946718      1.100742
  H      -0.856472     -1.711501     -2.108836
  H      -0.323832     -2.632008     -0.626873
  H      -2.026773      0.695004     -0.384873
  H      -3.882522     -2.361795     -1.041644
  H      -6.363676     -2.433392     -1.039768
  H      -7.684950     -0.330449     -0.815167
  H      -6.490784      1.847748     -0.565193
  H      -4.012141      1.916811     -0.540752
  H      -0.385061      2.779227     -1.576106
  H       1.032879      2.934758     -2.669208
  H       0.196551      1.350198     -2.496917
>
36
-2903.98898131; 31P isotropic shielding: 176.089721 ppm
  C       2.507784      3.077427      1.795194
  O       2.258851      1.715408      1.344677
  P       0.964717      1.362513      0.470071
  S      -0.753137      1.980056      1.153668
  C       1.053516     -0.521764      0.313256
  C       2.448439     -1.198633      0.409352
  Cl      3.639683     -0.468468     -0.718192
  Cl      3.048702     -1.109871      2.111273
  Cl      2.281867     -2.970831     -0.014954
  O       0.454884     -0.758203     -0.958430
  C      -0.656916     -1.688295     -0.979713
  O      -1.754754     -1.267809     -0.217365
  N      -2.406570     -0.128377     -0.885731
  C      -3.815319     -0.224153     -0.774533
  C      -4.490092     -1.451211     -0.878312
  C      -5.886525     -1.477263     -0.865790
  C      -6.625443     -0.292890     -0.762869
  C      -5.949285      0.928253     -0.656760
  C      -4.554010      0.966619     -0.648829
  O       1.393896      1.928692     -0.976841
  C       0.436525      2.215517     -2.036157
  H       3.372074      3.013031      2.460601
  H       2.736408      3.718170      0.935968
  H       1.634928      3.461163      2.335244
  H       0.440621     -0.920776      1.131515
  H      -0.901219     -1.768798     -2.044053
  H      -0.360612     -2.647444     -0.540190
  H      -2.049398      0.691526     -0.373304
  H      -3.919676     -2.372692     -0.952143
  H      -6.401282     -2.434151     -0.939371
  H      -7.713151     -0.321418     -0.757288
  H      -6.509604      1.856978     -0.560506
  H      -4.030298      1.916443     -0.546630
  H       0.965573      2.858553     -2.744832
  H       0.128598      1.281737     -2.514392
  H      -0.434276      2.737659     -1.624536
>
36
-2903.98894741; 31P isotropic shielding: 176.039586 ppm
  C      -0.294908      2.774820      2.080923
  O       0.860394      1.996976      1.647797
  P       1.103596      1.448846      0.145433
  S      -0.076105      2.146648     -1.231260
  C       1.017056     -0.431631      0.440454
  C       2.129328     -1.314841     -0.182287
  Cl      3.696521     -1.039529      0.670882
  Cl      1.678590     -3.067289      0.068613
  Cl      2.302240     -1.012438     -1.943752
  O      -0.239482     -0.859689     -0.064560
  C      -1.203196     -1.261835      0.906688
  O      -1.775017     -0.158150      1.603663
  N      -2.582626      0.693938      0.724227
  C      -3.737020      0.060183      0.209254
  C      -4.543107     -0.759003      1.019637
  C      -5.728402     -1.289211      0.507526
  C      -6.136306     -0.999224     -0.800610
  C      -5.333410     -0.181166     -1.603632
  C      -4.131562      0.333589     -1.112810
  O       2.677757      1.681472     -0.062008
  C       3.197488      2.968143     -0.497585
  H      -0.994043      2.106902      2.590696
  H       0.088558      3.538758      2.763989
  H      -0.783674      3.240893      1.219620
  H       1.081393     -0.559171      1.529356
  H      -1.959476     -1.814615      0.338220
  H      -0.750367     -1.880082      1.693235
  H      -1.951931      1.033586     -0.015126
  H      -4.233026     -0.969093      2.040231
  H      -6.344560     -1.926457      1.140184
  H      -7.065264     -1.410323     -1.190402
  H      -5.631646      0.041484     -2.626960
  H      -3.494423      0.948793     -1.746738
  H       2.710294      3.274184     -1.429797
  H       3.035789      3.723895      0.280431
  H       4.267746      2.813938     -0.655931
>
36
-2903.98493525; 31P isotropic shielding: 163.908834 ppm
  C       2.854078      3.150931      1.135957
  O       2.453274      1.771492      0.895870
  P       0.942419      1.413578      0.506546
  S      -0.460178      2.130566      1.652269
  C       0.945973     -0.479229      0.456764
  C       2.283979     -1.188269      0.104429
  Cl      3.020862     -0.549157     -1.403251
  Cl      3.431016     -1.021714      1.491939
  Cl      1.989915     -2.978368     -0.132843
  O      -0.073123     -0.730278     -0.510229
  C      -1.064519     -1.739693     -0.201668
  O      -1.776848     -1.521136      0.999921
  N      -2.651147     -0.347308      0.975658
  C      -3.596501     -0.314397     -0.065160
  C      -4.290222     -1.470548     -0.469898
  C      -5.287599     -1.378566     -1.442055
  C      -5.624976     -0.143684     -2.010047
  C      -4.941565      1.006851     -1.599095
  C      -3.922857      0.925729     -0.648047
  O       0.893699      1.879022     -1.036319
  C      -0.345530      2.134637     -1.754984
  H       3.883419      3.098559      1.498596
  H       2.808871      3.719448      0.200158
  H       2.203351      3.606150      1.891010
  H       0.647199     -0.820685      1.456050
  H      -1.714375     -1.723703     -1.083288
  H      -0.597376     -2.717746     -0.056507
  H      -2.040507      0.478331      1.018064
  H      -4.047474     -2.426295     -0.011733
  H      -5.815385     -2.280167     -1.749603
  H      -6.409656     -0.079261     -2.760921
  H      -5.191056      1.974079     -2.033115
  H      -3.385699      1.820286     -0.336774
  H      -0.072066      2.767606     -2.603747
  H      -0.770455      1.188060     -2.099896
  H      -1.056742      2.655579     -1.104949
>
36
-2903.98430947; 31P isotropic shielding: 176.153557 ppm
  C       2.851896      3.147133      1.152174
  O       2.452662      1.768882      0.902750
  P       0.942527      1.412142      0.510125
  S      -0.461592      2.122117      1.658332
  C       0.947003     -0.480585      0.450778
  C       2.286160     -1.187084      0.096968
  Cl      3.024689     -0.539779     -1.406341
  Cl      3.430889     -1.026494      1.486928
  Cl      1.993612     -2.976328     -0.149591
  O      -0.070357     -0.727199     -0.519218
  C      -1.061212     -1.738885     -0.217675
  O      -1.776186     -1.526407      0.983473
  N      -2.650412     -0.352902      0.963373
  C      -3.594728     -0.315217     -0.078098
  C      -4.285892     -1.469899     -0.491189
  C      -5.282507     -1.373396     -1.463846
  C      -5.621427     -0.135554     -2.024201
  C      -4.940530      1.013585     -1.605020
  C      -3.922875      0.928178     -0.653321
  O       0.895191      1.885983     -1.030337
  C      -0.344094      2.143430     -1.748508
  H       2.804517      3.722556      0.220720
  H       2.201623      3.595848      1.911484
  H       3.881863      3.093565      1.512851
  H       0.646813     -0.827063      1.447876
  H      -1.708964     -1.719815     -1.100780
  H      -0.593857     -2.717332     -0.075582
  H      -2.040227      0.472804      1.010838
  H      -4.042173     -2.428264     -0.039091
  H      -5.808272     -2.273980     -1.777732
  H      -6.405322     -0.067705     -2.775590
  H      -5.191252      1.983141     -2.033064
  H      -3.387902      1.821700     -0.335352
  H      -0.769227      1.197782     -2.095597
  H      -1.055133      2.662990     -1.097150
  H      -0.070306      2.778354     -2.595683
>
36
-2903.98431366; 31P isotropic shielding: 176.181055 ppm
  C      -1.460465      2.131565      1.173811
  O      -0.076879      1.676041      1.170365
  P       0.725403      1.123953     -0.121142
  S      -0.222377      1.184038     -1.818551
  C       1.227345     -0.603466      0.512175
  C       2.692538     -1.057784      0.287605
  Cl      3.811095     -0.109926      1.342325
  Cl      2.833045     -2.806856      0.789442
  Cl      3.170536     -0.909991     -1.437443
  O       0.367358     -1.543291     -0.111421
  C      -0.702484     -2.040308      0.701929
  O      -1.723051     -1.088550      0.891726
  N      -2.485402     -0.958930     -0.367859
  C      -3.724101     -0.328385     -0.115700
  C      -4.250922      0.528411     -1.100418
  C      -5.518048      1.088931     -0.933084
  C      -6.263743      0.829471      0.223267
  C      -5.727972     -0.007848      1.208711
  C      -4.469802     -0.592279      1.045785
  O       2.118303      1.920900     -0.057462
  C       2.251241      3.256601     -0.616065
  H      -2.063659      1.388803      1.701415
  H      -1.475962      3.090823      1.700752
  H      -1.827420      2.254185      0.150053
  H       1.069256     -0.569170      1.599189
  H      -1.075186     -2.919503      0.165919
  H      -0.342536     -2.279651      1.712378
  H      -1.890863     -0.376860     -0.978823
  H      -3.664609      0.747304     -1.991594
  H      -5.916871      1.745799     -1.704612
  H      -7.247046      1.276209      0.355290
  H      -6.296808     -0.214393      2.114188
  H      -4.056768     -1.243726      1.810454
  H       1.932314      3.259753     -1.664098
  H       1.653145      3.969897     -0.035956
  H       3.312699      3.504232     -0.536552
>
36
-2903.98736296; 31P isotropic shielding: 161.772819 ppm
  C      -1.473704      1.873918      1.517972
  O      -0.075576      1.467511      1.453625
  P       0.738128      1.129841      0.096657
  S      -0.184710      1.498593     -1.575358
  C       1.211282     -0.690107      0.420265
  C       2.682752     -1.112367      0.173401
  Cl      3.224912     -0.673072     -1.480790
  Cl      3.763748     -0.374077      1.417817
  Cl      2.796374     -2.924143      0.368367
  O       0.372949     -1.491860     -0.395800
  C      -0.709703     -2.143229      0.281133
  O      -1.734219     -1.247728      0.643873
  N      -2.471344     -0.860071     -0.577060
  C      -3.709699     -0.277768     -0.226447
  C      -4.472812     -0.744309      0.857212
  C      -5.727857     -0.185854      1.111788
  C      -6.242868      0.826175      0.293586
  C      -5.479954      1.286851     -0.786518
  C      -4.216385      0.752289     -1.041498
  O       2.137825      1.884397      0.318346
  C       2.273594      3.306982      0.048628
  H      -1.521068      2.731620      2.196127
  H      -1.837720      2.153957      0.524561
  H      -2.057485      1.036928      1.908705
  H       1.010869     -0.851574      1.488621
  H      -1.071281     -2.894258     -0.429100
  H      -0.365914     -2.584341      1.227099
  H      -1.859599     -0.174958     -1.048744
  H      -4.075792     -1.531044      1.491981
  H      -6.310056     -0.550722      1.956796
  H      -7.223296      1.252387      0.496147
  H      -5.862762      2.080123     -1.426801
  H      -3.617257      1.125815     -1.870552
  H       1.653587      3.884618      0.744891
  H       3.330225      3.536641      0.207077
  H       1.983517      3.523434     -0.985404
>
36
-2903.98718753; 31P isotropic shielding: 161.901605 ppm
  C      -0.925129      2.123606     -1.605659
  O      -0.332741      1.909143     -0.288652
  P       1.218718      1.412619     -0.131903
  S       2.430763      2.135143     -1.449052
  C       0.998596     -0.468861      0.102159
  C       2.208302     -1.335218     -0.313522
  Cl      3.693233     -0.720156      0.510478
  Cl      1.927309     -3.053717      0.260858
  Cl      2.437719     -1.374704     -2.088853
  O      -0.177888     -0.846713     -0.601402
  C      -1.138116     -1.631143      0.138075
  O      -1.485525     -1.073423      1.396654
  N      -2.261198      0.154687      1.300363
  C      -3.556438     -0.004633      0.766391
  C      -4.301552     -1.181020      0.964481
  C      -5.614847     -1.259159      0.495539
  C      -6.211217     -0.174718     -0.157817
  C      -5.471586      0.999412     -0.343752
  C      -4.152068      1.084896      0.101959
  O       1.470231      1.757237      1.424777
  C       1.868228      3.099836      1.826718
  H      -0.184766      2.567585     -2.278690
  H      -1.280766      1.168469     -2.004776
  H      -1.760930      2.811393     -1.452716
  H       0.871597     -0.585260      1.186061
  H      -1.997260     -1.703136     -0.537991
  H      -0.728816     -2.615284      0.389704
  H      -1.687971      0.846068      0.806739
  H      -3.849302     -2.018683      1.488407
  H      -6.179845     -2.177037      0.651215
  H      -7.236172     -0.242376     -0.516021
  H      -5.919569      1.852658     -0.850897
  H      -3.582651      2.001177     -0.045090
  H       2.108900      3.029053      2.890273
  H       2.744870      3.420144      1.253132
  H       1.038888      3.799712      1.671609
>
36
-2903.98287099; 31P isotropic shielding: 166.464007 ppm
  C      -0.926415      2.373831     -1.195164
  O      -0.325553      1.926453      0.057532
  P       1.227792      1.414243      0.113848
  S       2.433689      2.379716     -1.043388
  C       1.014939     -0.479559     -0.011738
  C       2.214153     -1.244507     -0.613628
  Cl      3.714952     -0.800928      0.287501
  Cl      1.939954     -3.043000     -0.384400
  Cl      2.408981     -0.932596     -2.366186
  O      -0.177579     -0.723381     -0.746577
  C      -1.123342     -1.631569     -0.142097
  O      -1.447288     -1.309309      1.201905
  N      -2.224908     -0.086087      1.340029
  C      -3.529057     -0.151576      0.808119
  C      -4.132725      1.035802      0.350958
  C      -5.460484      1.027844     -0.078203
  C      -6.200371     -0.160764     -0.082645
  C      -5.595516     -1.341559      0.363003
  C      -4.273709     -1.344788      0.813996
  O       1.480816      1.457348      1.707255
  C       1.844681      2.706880      2.361761
  H      -1.296616      1.506466     -1.750882
  H      -1.752302      3.033757     -0.916620
  H      -0.186554      2.920835     -1.788291
  H       0.914684     -0.801638      1.032518
  H      -1.994505     -1.584615     -0.804866
  H      -0.708240     -2.643066     -0.078546
  H      -1.660654      0.683549      0.966741
  H      -3.562912      1.963652      0.351638
  H      -5.914979      1.955283     -0.423465
  H      -7.232041     -0.165850     -0.427714
  H      -6.160190     -2.272698      0.368909
  H      -3.813729     -2.259838      1.177127
  H       2.108057      2.436192      3.387163
  H       2.699936      3.164787      1.852649
  H       0.990533      3.393993      2.358756
>
36
-2903.98286859; 31P isotropic shielding: 166.197231 ppm
  C      -0.931674      1.619722     -2.104721
  O      -0.373343      1.754743     -0.762458
  P       1.185236      1.358758     -0.457776
  S       2.418627      1.817425     -1.869781
  C       1.010937     -0.432003      0.186932
  C       2.236135     -1.343074     -0.042635
  Cl      1.985754     -2.906904      0.881069
  Cl      2.466906     -1.750372     -1.770902
  Cl      3.706849     -0.539418      0.629952
  O      -0.161301     -0.982670     -0.399686
  C      -1.109600     -1.580349      0.510956
  O      -1.450767     -0.749325      1.609935
  N      -2.239223      0.417010      1.240914
  C      -3.541320      0.129399      0.782617
  C      -4.271343     -0.973555      1.260279
  C      -5.591969     -1.164333      0.847017
  C      -6.209282     -0.262820     -0.027352
  C      -5.483746      0.840315     -0.493525
  C      -4.157819      1.033207     -0.104459
  O       1.371569      2.047243      0.990264
  C       1.697933      3.463234      1.095393
  H      -1.828140      2.244851     -2.121917
  H      -0.206064      1.971212     -2.845108
  H      -1.190124      0.572232     -2.289170
  H       0.895725     -0.309724      1.271259
  H      -1.973494     -1.811548     -0.122076
  H      -0.690652     -2.478164      0.978180
  H      -1.682693      0.974504      0.585333
  H      -3.801894     -1.665158      1.954501
  H      -6.145536     -2.024290      1.221121
  H      -7.239735     -0.416212     -0.340519
  H      -5.948591      1.550817     -1.175431
  H      -3.598813      1.893638     -0.469125
  H       0.850147      4.070665      0.757909
  H       1.892071      3.641783      2.155809
  H       2.587032      3.690459      0.497006
>
36
-2903.98295435; 31P isotropic shielding: 166.881291 ppm
  C       1.365901      3.133536      2.097838
  O       1.280245      1.759982      1.621845
  P       1.071277      1.463557      0.049097
  S      -0.428841      2.321542     -0.841933
  C       0.927924     -0.436747      0.232206
  C       2.189244     -1.242210     -0.155941
  Cl      3.595279     -0.718646      0.844015
  Cl      1.896378     -3.011893      0.180779
  Cl      2.560021     -1.070383     -1.913730
  O      -0.183931     -0.869636     -0.527411
  C      -1.192313     -1.593962      0.206350
  O      -1.761388     -0.849122      1.269749
  N      -2.613224      0.250110      0.811620
  C      -3.770239     -0.167962      0.118834
  C      -4.505132     -1.294929      0.530192
  C      -5.697580     -1.621170     -0.118209
  C      -6.184306     -0.829351     -1.165691
  C      -5.452997      0.293375     -1.570783
  C      -4.246139      0.617252     -0.948065
  O       2.520548      1.850822     -0.551027
  C       2.738973      2.439566     -1.862806
  H       1.409282      3.067042      3.187595
  H       2.275335      3.608259      1.711050
  H       0.479310      3.696620      1.784603
  H       0.767839     -0.578770      1.308493
  H      -1.931400     -1.864460     -0.555569
  H      -0.763880     -2.477865      0.693148
  H      -2.017525      0.881217      0.258917
  H      -4.136668     -1.899392      1.355117
  H      -6.256793     -2.497803      0.205820
  H      -7.118090     -1.086431     -1.661576
  H      -5.812800      0.911743     -2.391848
  H      -3.668342      1.478090     -1.280718
  H       3.598513      3.107284     -1.754065
  H       2.965148      1.643004     -2.578304
  H       1.854273      2.998830     -2.183694
>
36
-2903.98415899; 31P isotropic shielding: 158.824781 ppm
  C       1.078879      3.205524      2.448071
  O       0.637147      2.064257      1.660690
  P       1.600162      1.455410      0.507100
  S       2.349092      2.701604     -0.773045
  C       0.273953      0.251322     -0.157679
  C       0.796181     -1.132318     -0.604280
  Cl      1.298546     -2.075835      0.858985
  Cl     -0.511694     -2.056109     -1.428836
  Cl      2.200343     -0.973242     -1.737074
  O      -0.407984      0.818205     -1.269558
  C      -1.167907      2.005629     -1.044572
  O      -2.232495      1.894205     -0.108265
  N      -3.334174      1.062822     -0.575100
  C      -3.279981     -0.278569     -0.131085
  C      -2.784731     -0.602317      1.142987
  C      -2.817247     -1.927890      1.582675
  C      -3.368133     -2.935043      0.784144
  C      -3.887790     -2.602704     -0.472541
  C      -3.837123     -1.287473     -0.935564
  O       2.656688      0.630431      1.408215
  C       4.025901      0.344708      1.007188
  H       1.392396      4.022698      1.788014
  H       0.214592      3.506732      3.045182
  H       1.907383      2.911069      3.103137
  H      -0.415412      0.074685      0.677598
  H      -0.550504      2.816867     -0.642689
  H      -1.542681      2.261724     -2.045894
  H      -3.378630      1.139422     -1.595068
  H      -2.386340      0.184653      1.777487
  H      -2.413854     -2.171619      2.564143
  H      -3.391415     -3.964800      1.133962
  H      -4.316307     -3.375779     -1.108460
  H      -4.218916     -1.041240     -1.926358
  H       4.641353      0.469076      1.903231
  H       4.078488     -0.687527      0.648281
  H       4.346715      1.039623      0.223879
>
36
-2903.97870933; 31P isotropic shielding: 164.591896 ppm
  C      -1.161712      1.840333     -2.258938
  O      -0.934555      1.658515     -0.839934
  P       0.527439      1.364814     -0.217436
  S       2.013431      2.183918     -1.142982
  C       0.502858     -0.517474     -0.007318
  C       1.865733     -1.183127      0.339484
  Cl      2.741586     -0.236009      1.599590
  Cl      1.552303     -2.845780      1.062778
  Cl      2.896905     -1.379487     -1.113369
  O      -0.067510     -0.972106     -1.232313
  C      -0.604729     -2.298224     -1.318730
  O      -1.619016     -2.621488     -0.380918
  N      -2.893873     -1.965953     -0.645590
  C      -3.072583     -0.728220      0.016904
  C      -2.620616     -0.541761      1.333343
  C      -2.878169      0.662656      1.989364
  C      -3.616789      1.674037      1.366571
  C      -4.099621      1.468522      0.069609
  C      -3.822471      0.281556     -0.608955
  O       0.258672      1.743345      1.327269
  C       0.185716      3.138876      1.725823
  H      -2.100831      2.393672     -2.344578
  H      -0.337942      2.407631     -2.706510
  H      -1.250049      0.862482     -2.744004
  H      -0.168119     -0.702176      0.840269
  H      -0.984480     -2.346997     -2.349786
  H       0.162403     -3.059773     -1.148689
  H      -3.001100     -1.889882     -1.660885
  H      -2.077794     -1.341112      1.830603
  H      -2.503848      0.805791      3.001386
  H      -3.821514      2.607019      1.887562
  H      -4.678798      2.245266     -0.427462
  H      -4.180142      0.137405     -1.628661
  H      -0.746683      3.580936      1.355509
  H       0.194914      3.138675      2.818891
  H       1.049785      3.691422      1.338605
