30
-1451.01469252; 31P isotropic shielding: 243.247576 ppm
  O      -1.678558     -0.804081     -2.310431
  C      -0.820842     -0.487858     -1.481571
  N       0.328267     -1.272500     -1.329349
  C       1.465014     -1.111106     -0.509190
  C       2.077866     -2.259057      0.027209
  C       3.224788     -2.141541      0.810966
  C       3.777637     -0.888183      1.095351
  C       3.164166      0.240856      0.550429
  C       2.029959      0.152253     -0.257416
  Cl      3.851805      1.831621      0.863193
  N      -0.915315      0.627125     -0.671211
  C      -2.172719      1.368708     -0.623218
  P      -3.185677      0.785040      0.819388
  O      -2.345246      0.703471      2.061180
  C      -3.916312     -0.804828      0.295820
  C      -4.581607      1.963367      0.911270
  H       0.240708     -2.153298     -1.825993
  H       1.642354     -3.238086     -0.165879
  H       3.688304     -3.036292      1.222257
  H       4.660967     -0.787918      1.719077
  H       1.615565      1.047382     -0.708452
  H      -0.384113      0.626547      0.197575
  H      -1.964859      2.438253     -0.482571
  H      -2.696729      1.226684     -1.573539
  H      -3.114118     -1.525576      0.107502
  H      -4.551685     -1.183392      1.105570
  H      -4.507301     -0.692183     -0.620447
  H      -5.276500      1.635644      1.693645
  H      -4.197048      2.953794      1.181490
  H      -5.118773      2.028153     -0.043658
>
30
-1451.01468451; 31P isotropic shielding: 243.100884 ppm
  O      -1.106062     -1.187097     -1.161712
  C      -0.853904     -0.008928     -0.909294
  N       0.396136      0.463981     -0.517665
  C       1.580057     -0.265406     -0.291844
  C       1.677231     -1.662263     -0.431637
  C       2.898920     -2.288997     -0.175264
  C       4.032452     -1.569721      0.214855
  C       3.914815     -0.184667      0.345788
  C       2.713124      0.473633      0.101313
  Cl      5.317601      0.764512      0.834416
  N      -1.799041      1.012443     -1.023716
  C      -3.206741      0.651351     -1.182811
  P      -4.022375      0.703127      0.484706
  O      -3.570167      1.921592      1.240769
  C      -3.600823     -0.880366      1.290202
  C      -5.816678      0.627740      0.145491
  H       0.489759      1.469777     -0.421095
  H       0.809542     -2.231037     -0.740206
  H       2.968761     -3.369927     -0.285141
  H       4.979572     -2.063668      0.411145
  H       2.656249      1.554307      0.217511
  H      -1.664987      1.834129     -0.434724
  H      -3.705954      1.376632     -1.839690
  H      -3.261984     -0.342067     -1.639130
  H      -4.034961     -0.888849      2.297183
  H      -3.979243     -1.734656      0.716338
  H      -2.512394     -0.967754      1.371115
  H      -6.069454     -0.237413     -0.480832
  H      -6.361221      0.556556      1.094566
  H      -6.123429      1.548935     -0.363438
>
30
-1451.01580268; 31P isotropic shielding: 241.938450 ppm
  O      -1.888708     -1.428339     -2.017070
  C      -1.017465     -0.696433     -1.540258
  N       0.251194     -1.213276     -1.252438
  C       1.411716     -0.593243     -0.741132
  C       1.809654      0.702220     -1.119823
  C       2.981615      1.249462     -0.592546
  C       3.790632      0.526258      0.287845
  C       3.395523     -0.768280      0.634459
  C       2.219414     -1.330936      0.144003
  Cl      4.395071     -1.711727      1.734500
  N      -1.210384      0.644508     -1.268436
  C      -2.559439      1.199411     -1.340015
  P      -3.310582      1.229004      0.357397
  O      -2.351387      1.814517      1.353471
  C      -3.800641     -0.495197      0.706570
  C      -4.874919      2.155210      0.154128
  H       0.256190     -2.226687     -1.309124
  H       1.226055      1.261439     -1.844679
  H       3.281140      2.252711     -0.889915
  H       4.706802      0.948006      0.690583
  H       1.923205     -2.330831      0.452185
  H      -0.601197      1.078899     -0.577801
  H      -2.515522      2.233019     -1.710268
  H      -3.147958      0.594118     -2.036553
  H      -4.292162     -0.529592      1.686401
  H      -4.475374     -0.886049     -0.063679
  H      -2.904962     -1.123941      0.739428
  H      -5.417932      2.154842      1.106716
  H      -4.645641      3.192971     -0.114544
  H      -5.508738      1.707836     -0.622104
>
30
-1451.01453443; 31P isotropic shielding: 243.006637 ppm
  O      -1.032639     -1.409147     -1.052147
  C      -0.814734     -0.202407     -0.943040
  N       0.423191      0.350089     -0.623735
  C       1.634991     -0.311783     -0.343749
  C       1.786982     -1.710551     -0.370343
  C       3.033680     -2.265682     -0.072074
  C       4.138912     -1.472815      0.251021
  C       3.966831     -0.087342      0.270470
  C       2.738875      0.500778     -0.018687
  Cl      5.332014      0.952936      0.672848
  N      -1.792086      0.769527     -1.166077
  C      -3.190964      0.351159     -1.245414
  P      -3.970701      0.592579      0.423549
  O      -3.522093      1.901477      1.011865
  C      -3.501383     -0.874601      1.404359
  C      -5.770976      0.447234      0.142861
  H       0.481907      1.363111     -0.627548
  H       0.941299     -2.336442     -0.624510
  H       3.146407     -3.348320     -0.094955
  H       5.105714     -1.911410      0.480273
  H       2.638958      1.584197      0.010944
  H      -1.673763      1.662947     -0.688723
  H      -3.725628      0.973902     -1.975516
  H      -3.224694     -0.692701     -1.572623
  H      -2.409989     -0.924456      1.478608
  H      -3.922193     -0.776566      2.412279
  H      -3.864154     -1.799057      0.939612
  H      -6.021736     -0.495002     -0.361270
  H      -6.291561      0.488318      1.107036
  H      -6.107569      1.290530     -0.471314
>
30
-1451.01588888; 31P isotropic shielding: 242.019920 ppm
  O      -1.025998     -1.415151     -1.048553
  C      -0.811736     -0.207660     -0.940919
  N       0.423939      0.349003     -0.619947
  C       1.638009     -0.308675     -0.339926
  C       1.793753     -1.707087     -0.362423
  C       3.042256     -2.258153     -0.064230
  C       4.145834     -1.461418      0.255111
  C       3.970049     -0.076329      0.270663
  C       2.740222      0.507803     -0.018742
  Cl      5.333000      0.968678      0.668182
  N      -1.791627      0.761073     -1.166879
  C      -3.189286      0.338715     -1.246565
  P      -3.970417      0.579907      0.421480
  O      -3.526549      1.891250      1.007621
  C      -3.496393     -0.883658      1.405256
  C      -5.769905      0.427447      0.140515
  H       0.479805      1.362195     -0.625121
  H       0.949383     -2.335994     -0.613598
  H       3.157679     -3.340575     -0.084042
  H       5.114077     -1.896796      0.484449
  H       2.637598      1.591067      0.007617
  H      -1.676419      1.656039     -0.691668
  H      -3.725350      0.959569     -1.977265
  H      -3.219954     -0.705396     -1.573266
  H      -3.852574     -1.810355      0.939775
  H      -2.405007     -0.927649      1.483425
  H      -3.920985     -0.787493      2.411776
  H      -6.291533      0.469236      1.104093
  H      -6.109272      1.267741     -0.476293
  H      -6.016799     -0.517132     -0.361226
>
30
-1451.01589269; 31P isotropic shielding: 242.071435 ppm
  O      -0.899828      1.211614      1.346316
  C      -0.757778      0.993623      0.143116
  N       0.423369      0.546153     -0.443333
  C       1.646385      0.225850      0.178518
  C       1.870449      0.328810      1.563938
  C       3.121273     -0.019779      2.078781
  C       4.161225     -0.466727      1.258451
  C       3.918185     -0.560053     -0.113182
  C       2.683806     -0.224236     -0.661425
  Cl      5.199883     -1.118276     -1.187190
  N      -1.771159      1.208761     -0.792871
  C      -3.132731      1.437101     -0.312471
  P      -4.056114     -0.174093     -0.361302
  O      -3.743111     -0.908856     -1.635393
  C      -5.814544      0.272770     -0.138434
  C      -3.573712     -1.064555      1.158308
  H       0.428457      0.477096     -1.455670
  H       1.076336      0.679443      2.210359
  H       3.290053      0.062282      3.151217
  H       5.131893     -0.734066      1.665756
  H       2.527429     -0.313554     -1.734783
  H      -1.739053      0.652890     -1.647196
  H      -3.079982      1.849977      0.699823
  H      -3.644314      2.155385     -0.967502
  H      -6.155908      0.832200     -1.017131
  H      -6.412551     -0.642363     -0.053685
  H      -5.960260      0.882797      0.762293
  H      -4.075788     -2.039477      1.169308
  H      -2.490272     -1.223108      1.155788
  H      -3.843837     -0.498412      2.057496
>
30
-1451.01578611; 31P isotropic shielding: 241.957847 ppm
  O      -1.060186     -1.346350     -1.107454
  C      -0.828595     -0.147634     -0.949478
  N       0.414073      0.376528     -0.602241
  C       1.615474     -0.311211     -0.340152
  C       1.752322     -1.708945     -0.428847
  C       2.989720     -2.291140     -0.144050
  C       4.100298     -1.526478      0.225068
  C       3.943237     -0.141496      0.305580
  C       2.724829      0.473154      0.031931
  Cl      5.315735      0.863860      0.767500
  N      -1.793130      0.844036     -1.138653
  C      -3.196408      0.445664     -1.240975
  P      -3.983325      0.641513      0.430312
  O      -3.524255      1.925745      1.063804
  C      -3.534467     -0.861717      1.365095
  C      -5.783406      0.524763      0.135731
  H       0.484462      1.388057     -0.562903
  H       0.902201     -2.312812     -0.718894
  H       3.090839     -3.372841     -0.214985
  H       5.059875     -1.985983      0.443374
  H       2.636543      1.555158      0.109928
  H      -1.666866      1.716484     -0.625773
  H      -3.718884      1.097766     -1.954080
  H      -3.239656     -0.586775     -1.601548
  H      -3.957869     -0.790462      2.374176
  H      -3.906249     -1.766862      0.870460
  H      -2.444005     -0.926558      1.441613
  H      -6.308557      0.539335      1.098195
  H      -6.107812      1.391666     -0.451509
  H      -6.041336     -0.397365     -0.400824
>
30
-1451.01590281; 31P isotropic shielding: 241.963275 ppm
  O      -1.069169     -1.323715     -1.122378
  C      -0.832469     -0.128115     -0.949505
  N       0.412083      0.386242     -0.594610
  C       1.609726     -0.310074     -0.338044
  C       1.739663     -1.707490     -0.440446
  C       2.973729     -2.298701     -0.160005
  C       4.087701     -1.543423      0.217951
  C       3.937457     -0.158567      0.311963
  C       2.722564      0.464982      0.043043
  Cl      5.314460      0.835212      0.785278
  N      -1.792325      0.870208     -1.127789
  C      -3.197096      0.479356     -1.238017
  P      -3.987149      0.659697      0.433332
  O      -3.523979      1.934487      1.082885
  C      -3.547228     -0.856104      1.351935
  C      -5.787002      0.554642      0.133222
  H       0.487167      1.396937     -0.544065
  H       0.886863     -2.304098     -0.737570
  H       3.069468     -3.380153     -0.241523
  H       5.044667     -2.009921      0.432808
  H       2.639686      1.546590      0.131572
  H      -1.663318      1.734987     -0.602673
  H      -3.714993      1.141478     -1.945208
  H      -3.244070     -0.548979     -1.609721
  H      -2.457243     -0.927923      1.428773
  H      -3.971331     -0.793376      2.361280
  H      -3.923637     -1.753706      0.847134
  H      -6.314215      0.559048      1.094660
  H      -6.106189      1.430613     -0.443308
  H      -6.047821     -0.359234     -0.415876
>
30
-1451.01590436; 31P isotropic shielding: 241.936329 ppm
  O      -0.428775      1.302750      0.706852
  C      -0.613789      0.141055      1.069539
  N       0.375731     -0.838160      1.111195
  C       1.728604     -0.738320      0.732420
  C       2.526589     -1.890142      0.880763
  C       3.872177     -1.865205      0.520847
  C       4.455336     -0.703055      0.005320
  C       3.648513      0.427334     -0.134789
  C       2.298716      0.439782      0.217498
  Cl      4.357470      1.907006     -0.781207
  N      -1.848455     -0.326400      1.523028
  C      -3.033519      0.502988      1.312133
  P      -3.897575     -0.078724     -0.225395
  O      -3.934689     -1.581590     -0.255805
  C      -2.991674      0.679713     -1.617323
  C      -5.533666      0.735347     -0.192876
  H       0.111977     -1.733924      1.508154
  H       2.086068     -2.804843      1.277165
  H       4.476900     -2.762108      0.641135
  H       5.502994     -0.672886     -0.279030
  H       1.698633      1.332968      0.105019
  H      -2.035724     -1.322757      1.413658
  H      -3.721335      0.394409      2.161827
  H      -2.718575      1.548622      1.238362
  H      -3.009062      1.774384     -1.557014
  H      -1.949209      0.345356     -1.594654
  H      -3.450029      0.352592     -2.558285
  H      -5.435533      1.822798     -0.080756
  H      -6.066388      0.517024     -1.126067
  H      -6.116809      0.333387      0.643786
>
30
-1451.01606157; 31P isotropic shielding: 241.864624 ppm
  O      -0.440462      1.208711      0.874048
  C      -0.630910      0.009479      1.076047
  N       0.359504     -0.967389      1.010885
  C       1.720701     -0.819803      0.680697
  C       2.514577     -1.983952      0.681866
  C       3.868330     -1.912747      0.360826
  C       4.463813     -0.691162      0.029870
  C       3.660820      0.450570      0.033319
  C       2.303071      0.417518      0.352128
  Cl      4.385266      2.004753     -0.378485
  N      -1.874645     -0.513481      1.435538
  C      -3.056984      0.336315      1.303062
  P      -3.879802     -0.048354     -0.316769
  O      -3.898585     -1.535009     -0.542098
  C      -2.950901      0.891704     -1.576647
  C      -5.526135      0.739302     -0.220235
  H       0.087412     -1.908105      1.276537
  H       2.064431     -2.944227      0.933050
  H       4.469853     -2.819794      0.366273
  H       5.517921     -0.624674     -0.222676
  H       1.705993      1.319768      0.353798
  H      -2.056213     -1.485716      1.186598
  H      -3.763981      0.122028      2.116058
  H      -2.742674      1.382723      1.367599
  H      -1.904831      0.567976     -1.571183
  H      -3.382920      0.683395     -2.562816
  H      -2.984782      1.969372     -1.377336
  H      -5.444895      1.805190      0.028740
  H      -6.035564      0.633264     -1.185404
  H      -6.121909      0.229945      0.546109
>
30
-1451.01603838; 31P isotropic shielding: 241.828938 ppm
  O      -0.435703      0.763154     -1.143509
  C      -0.629220     -0.412720     -0.834890
  N       0.349997     -1.268151     -0.336104
  C       1.700249     -0.988673     -0.049564
  C       2.479008     -2.038291      0.477144
  C       3.821467     -1.831322      0.786947
  C       4.420273     -0.583392      0.585320
  C       3.632516      0.444149      0.063438
  C       2.286537      0.272315     -0.260894
  Cl      4.361295      2.027551     -0.202861
  N      -1.864941     -1.045656     -0.985866
  C      -3.045489     -0.223566     -1.248102
  P      -3.904540      0.104752      0.366195
  O      -3.924511     -1.146764      1.199258
  C      -5.550103      0.758332     -0.087719
  C      -3.008118      1.501358      1.127171
  H       0.075653     -2.233614     -0.186972
  H       2.026353     -3.015393      0.645084
  H       4.411295     -2.651061      1.192846
  H       5.465527     -0.411194      0.824536
  H       1.700862      1.084812     -0.670106
  H      -2.060685     -1.829098     -0.362895
  H      -2.725483      0.699631     -1.741202
  H      -3.735904     -0.763917     -1.909925
  H      -6.127783     -0.034292     -0.577349
  H      -6.081249      1.066800      0.820553
  H      -5.463833      1.618449     -0.764160
  H      -1.960836      1.219525      1.278510
  H      -3.042617      2.392982      0.489927
  H      -3.460819      1.724090      2.100889
>
30
-1451.01613630; 31P isotropic shielding: 241.792770 ppm
  O      -0.430129      0.760102     -1.145055
  C      -0.625863     -0.413864     -0.830690
  N       0.351247     -1.268043     -0.325682
  C       1.702283     -0.989884     -0.041560
  C       2.479974     -2.039233      0.487236
  C       3.823007     -1.833444      0.795267
  C       4.423522     -0.586998      0.589636
  C       3.636787      0.440254      0.065722
  C       2.290227      0.269667     -0.256761
  Cl      4.367715      2.021846     -0.205600
  N      -1.862284     -1.045723     -0.980346
  C      -3.041395     -0.223176     -1.247443
  P      -3.901954      0.112591      0.364517
  O      -3.923863     -1.135519      1.202708
  C      -5.546511      0.765611     -0.093707
  C      -3.004988      1.511532      1.120532
  H       0.075407     -2.232454     -0.172540
  H       2.026057     -3.015235      0.658124
  H       4.411982     -2.652978      1.202809
  H       5.469263     -0.415722      0.827345
  H       1.705412      1.081937     -0.667629
  H      -2.059804     -1.826149     -0.354141
  H      -2.719482      0.697724     -1.743591
  H      -3.731624     -0.765146     -1.908126
  H      -5.459016      1.622832     -0.773651
  H      -6.124380     -0.028603     -0.580517
  H      -6.078239      1.078307      0.812779
  H      -1.957981      1.229595      1.273548
  H      -3.038560      2.400637      0.479735
  H      -3.458108      1.738436      2.093081
>
30
-1451.01613749; 31P isotropic shielding: 241.781466 ppm
  O      -0.447113      0.751976     -1.169165
  C      -0.634773     -0.424339     -0.858590
  N       0.350466     -1.275907     -0.365313
  C       1.701150     -0.991051     -0.086061
  C       2.486114     -2.036947      0.438737
  C       3.829390     -1.824586      0.741200
  C       4.422764     -0.575066      0.534103
  C       3.628788      0.448603      0.014259
  C       2.281875      0.271453     -0.302904
  Cl      4.350616      2.034063     -0.258870
  N      -1.869105     -1.061515     -1.001834
  C      -3.053758     -0.243917     -1.258874
  P      -3.906781      0.082448      0.359269
  O      -3.919058     -1.168437      1.194003
  C      -5.556912      0.729474     -0.087965
  C      -3.011306      1.483060      1.114131
  H       0.080492     -2.242353     -0.214622
  H       2.037708     -3.015205      0.610988
  H       4.424217     -2.641383      1.145700
  H       5.468591     -0.398803      0.767683
  H       1.691365      1.081112     -0.710726
  H      -2.058346     -1.845141     -0.377099
  H      -2.739216      0.680729     -1.752779
  H      -3.744898     -0.786508     -1.918069
  H      -6.083778      1.038368      0.822664
  H      -5.477618      1.588153     -0.766980
  H      -6.134562     -0.066434     -0.572172
  H      -1.961339      1.206412      1.255852
  H      -3.056011      2.375449      0.478691
  H      -3.457263      1.701791      2.091841
>
30
-1451.01612539; 31P isotropic shielding: 241.704933 ppm
  O      -0.360704      1.420379     -0.050636
  C      -0.529878      0.584823      0.837514
  N       0.438287     -0.322897      1.258999
  C       1.746236     -0.505240      0.768987
  C       2.518277     -1.526664      1.357404
  C       3.819701     -1.764607      0.920844
  C       4.382435     -1.000551     -0.106677
  C       3.601789      0.006153     -0.677399
  C       2.296767      0.274643     -0.263788
  Cl      4.286837      0.986019     -1.973551
  N      -1.719087      0.474227      1.560661
  C      -2.905774      1.171723      1.067040
  P      -3.927037     -0.030930      0.086335
  O      -3.968074     -1.359333      0.790215
  C      -3.169773     -0.080805     -1.574370
  C      -5.551221      0.778730     -0.130264
  H       0.193767     -0.916236      2.044970
  H       2.091735     -2.133670      2.155718
  H       4.405323     -2.556493      1.384042
  H       5.395398     -1.178782     -0.455287
  H       1.715697      1.065526     -0.719076
  H      -1.935209     -0.439616      1.958729
  H      -3.505232      1.533801      1.913402
  H      -2.581747      2.027039      0.465902
  H      -3.196383      0.903714     -2.056310
  H      -2.125879     -0.399540     -1.486107
  H      -3.713359     -0.808426     -2.188953
  H      -6.042968      0.861023      0.845958
  H      -5.443082      1.778542     -0.570059
  H      -6.178342      0.163247     -0.786145
>
30
-1451.01600684; 31P isotropic shielding: 241.774831 ppm
  O      -0.460532      0.744130     -1.195279
  C      -0.640450     -0.434377     -0.888740
  N       0.352258     -1.283414     -0.406407
  C       1.702644     -0.992469     -0.132026
  C       2.494657     -2.035299      0.388149
  C       3.838182     -1.817067      0.685043
  C       4.424836     -0.564581      0.477017
  C       3.623870      0.455885     -0.038145
  C       2.276538      0.272905     -0.349916
  Cl      4.337077      2.045001     -0.312355
  N      -1.872644     -1.076845     -1.026608
  C      -3.062702     -0.264167     -1.273754
  P      -3.907993      0.051538      0.350329
  O      -3.910461     -1.202637      1.180343
  C      -5.563465      0.693194     -0.084628
  C      -3.013830      1.452744      1.105684
  H       0.087849     -2.251696     -0.257660
  H       2.051497     -3.015788      0.561225
  H       4.438541     -2.631560      1.086007
  H       5.470795     -0.383731      0.706411
  H       1.680558      1.080321     -0.754183
  H      -2.054226     -1.863774     -0.403737
  H      -2.755349      0.664434     -1.764811
  H      -3.754610     -0.807027     -1.931909
  H      -6.085803      0.996709      0.830409
  H      -5.492156      1.554464     -0.761196
  H      -6.140752     -0.103580     -0.567807
  H      -3.453884      1.664195      2.087656
  H      -1.961527      1.180662      1.238377
  H      -3.067716      2.348129      0.475211
>
30
-1451.01612561; 31P isotropic shielding: 241.681903 ppm
  O      -1.821874     -0.032011     -2.492769
  C      -1.013058      0.241949     -1.601709
  N       0.256746     -0.340261     -1.586515
  C       1.257979     -0.320927     -0.585477
  C       0.950610     -0.430929      0.784299
  C       1.986499     -0.422093      1.722087
  C       3.326171     -0.340422      1.330803
  C       3.612030     -0.260128     -0.034121
  C       2.601002     -0.236050     -0.993123
  Cl      5.289769     -0.164274     -0.563923
  N      -1.270999      1.162911     -0.603903
  C      -2.651092      1.487213     -0.261621
  P      -3.275549      0.259978      0.993449
  O      -2.211132     -0.044261      2.012490
  C      -3.833572     -1.192443      0.038109
  C      -4.795579      1.010633      1.679482
  H       0.487294     -0.777729     -2.472831
  H      -0.076070     -0.551902      1.126358
  H       1.740935     -0.504637      2.779145
  H       4.130710     -0.348953      2.060566
  H       2.849802     -0.141527     -2.047431
  H      -0.610456      1.217256      0.165235
  H      -2.690082      2.490496      0.181642
  H      -3.255422      1.480118     -1.174583
  H      -4.213900     -1.947420      0.736933
  H      -4.618896     -0.920393     -0.676935
  H      -2.987589     -1.610567     -0.516511
  H      -5.280198      0.294651      2.353841
  H      -4.526306      1.904381      2.254329
  H      -5.498572      1.287340      0.883287
>
30
-1451.01627377; 31P isotropic shielding: 238.902480 ppm
  O      -1.758906      1.937319     -1.605915
  C      -0.984281      1.048588     -1.240717
  N       0.312523      1.358317     -0.825312
  C       1.285810      0.549490     -0.190440
  C       0.949117     -0.382944      0.809304
  C       1.959596     -1.138915      1.409126
  C       3.303508     -0.968356      1.063956
  C       3.619503     -0.018810      0.089622
  C       2.633361      0.730422     -0.549296
  Cl      5.304011      0.228496     -0.364563
  N      -1.309932     -0.294610     -1.265741
  C      -2.711272     -0.697570     -1.253966
  P      -3.309130     -0.791253      0.508634
  O      -2.248254     -1.376936      1.401241
  C      -4.860411     -1.756870      0.436214
  C      -3.807105      0.906875      0.957516
  H       0.582954      2.301057     -1.086398
  H      -0.079540     -0.506402      1.144807
  H       1.691671     -1.859918      2.179217
  H       4.088796     -1.546768      1.542142
  H       2.903781      1.441548     -1.326165
  H      -0.670466     -0.939434     -0.811594
  H      -3.292992      0.022227     -1.839108
  H      -2.808472     -1.689294     -1.713876
  H      -5.332403     -1.757727      1.425873
  H      -5.560486     -1.333814     -0.295697
  H      -4.625543     -2.791411      0.160133
  H      -4.154302      0.906670      1.997915
  H      -2.945744      1.575817      0.864736
  H      -4.605691      1.274306      0.301951
>
30
-1451.01631281; 31P isotropic shielding: 238.698328 ppm
  O      -2.134996     -2.468889     -0.352920
  C      -1.133037     -1.864723      0.040977
  N       0.127838     -2.164218     -0.478400
  C       1.374371     -1.517284     -0.297751
  C       2.531004     -2.308230     -0.179896
  C       3.781328     -1.704800     -0.042907
  C       3.903349     -0.312765      0.003701
  C       2.745413      0.459187     -0.119142
  C       1.482996     -0.113235     -0.289294
  Cl      2.880735      2.213141     -0.094110
  N      -1.172354     -0.908082      1.038518
  C      -2.424978     -0.210462      1.309573
  P      -2.596300      1.220082      0.125890
  O      -1.259455      1.867419     -0.112275
  C      -3.851317      2.315830      0.880110
  C      -3.376967      0.542220     -1.378836
  H       0.129506     -3.042540     -0.987052
  H       2.440920     -3.393229     -0.186101
  H       4.671789     -2.324407      0.046475
  H       4.870866      0.165711      0.125513
  H       0.617920      0.531079     -0.442531
  H      -0.334107     -0.353569      1.183614
  H      -3.255277     -0.918007      1.215871
  H      -2.406683      0.181033      2.334509
  H      -4.088961      3.127847      0.182720
  H      -4.770916      1.765742      1.118156
  H      -3.439887      2.752710      1.797531
  H      -4.359770      0.109283     -1.156601
  H      -3.486170      1.350877     -2.111711
  H      -2.738060     -0.241923     -1.797131
>
30
-1451.01536264; 31P isotropic shielding: 239.352683 ppm
  O      -1.386807     -0.832534     -2.692887
  C      -0.692837     -0.965137     -1.680580
  N       0.700630     -0.937366     -1.765276
  C       1.683554     -0.917286     -0.746087
  C       2.859239     -1.665983     -0.931736
  C       3.867769     -1.636281      0.031642
  C       3.718627     -0.886246      1.202110
  C       2.546578     -0.144609      1.369875
  C       1.532152     -0.127763      0.410252
  Cl      2.351925      0.830474      2.821122
  N      -1.224586     -1.198530     -0.425915
  C      -2.600084     -0.799172     -0.147339
  P      -2.630241      1.005231      0.325213
  O      -1.423196      1.352809      1.153115
  C      -4.232974      1.249447      1.171805
  C      -2.752432      1.933367     -1.241889
  H       1.024758     -1.040716     -2.721518
  H       2.970397     -2.275842     -1.826729
  H       4.775289     -2.217748     -0.120515
  H       4.492179     -0.869278      1.964442
  H       0.664560      0.514636      0.557395
  H      -0.591906     -1.132055      0.365466
  H      -3.215629     -0.995902     -1.031040
  H      -2.985305     -1.390353      0.692923
  H      -5.068221      0.889680      0.557159
  H      -4.220050      0.706025      2.123769
  H      -4.374093      2.316617      1.380314
  H      -1.890614      1.692109     -1.872020
  H      -3.667122      1.674510     -1.788844
  H      -2.748558      3.006596     -1.015727
>
30
-1451.01537698; 31P isotropic shielding: 239.329523 ppm
  O      -1.767057     -1.295212     -2.074913
  C      -0.833834     -0.853433     -1.399451
  N       0.287304     -1.651271     -1.144116
  C       1.491588     -1.370604     -0.463699
  C       2.091633     -2.391735      0.296395
  C       3.302264     -2.162024      0.948895
  C       3.932887     -0.915262      0.878763
  C       3.329916      0.085939      0.115777
  C       2.131759     -0.122471     -0.567893
  Cl      4.112796      1.657897     -0.017562
  N      -0.812727      0.420391     -0.864657
  C      -2.021411      1.237335     -0.915025
  P      -2.973229      1.052784      0.670123
  O      -2.058947      1.152556      1.857082
  C      -3.858188     -0.538862      0.533326
  C      -4.265961      2.344076      0.578243
  H       0.122892     -2.616777     -1.410170
  H       1.597264     -3.358210      0.379442
  H       3.755700     -2.958401      1.536035
  H       4.867188     -0.724073      1.398315
  H       1.722384      0.662042     -1.195126
  H      -0.217883      0.580775     -0.054125
  H      -1.745170      2.295059     -1.024518
  H      -2.615429      0.931491     -1.781966
  H      -3.128686     -1.350657      0.449202
  H      -4.453580     -0.687571      1.442367
  H      -4.510824     -0.562298     -0.347063
  H      -4.850397      2.260998     -0.347035
  H      -4.938444      2.244171      1.438508
  H      -3.789908      3.330647      0.621546
