51
-1986.77291390; 31P isotropic shielding: 78.872203 ppm
  O      -3.265387     -1.883997      1.495499
  C      -2.343697     -1.112994      1.287084
  O      -2.373580     -0.166965      0.308111
  Si     -3.655451     -0.072799     -0.846197
  C      -3.071439      1.299679     -1.982489
  C      -5.243706      0.387299      0.038505
  C      -3.780072     -1.704319     -1.760103
  C      -1.028017     -1.114029      2.043861
  C       0.136799     -1.684765      1.201527
  P       0.627737     -0.664412     -0.299799
  O       2.072062     -1.403539     -0.588959
  Si      3.695952     -1.150929     -0.235788
  C       4.304159      0.324088     -1.232542
  C       3.944215     -0.848817      1.604486
  C       4.566762     -2.723347     -0.780843
  O       1.093920      0.688682      0.554952
  Si      0.836814      2.332297      0.299383
  C       2.309051      3.196710      1.085235
  C      -0.753226      2.834339      1.165646
  C       0.747164      2.686137     -1.544433
  H      -2.936614      2.245085     -1.441459
  H      -2.114633      1.032866     -2.448630
  H      -3.802114      1.473798     -2.784531
  H      -5.556095     -0.415409      0.716562
  H      -6.053256      0.565801     -0.683344
  H      -5.114863      1.304854      0.628599
  H      -4.087360     -2.511047     -1.084938
  H      -4.517570     -1.634266     -2.572144
  H      -2.813992     -1.974967     -2.206770
  H      -1.168629     -1.719786      2.945657
  H      -0.784199     -0.087663      2.346869
  H      -0.103996     -2.696685      0.845291
  H       1.032956     -1.759306      1.831947
  H       4.115626      0.175199     -2.304270
  H       3.797317      1.246577     -0.925424
  H       5.384491      0.475325     -1.098694
  H       3.383431      0.034498      1.932411
  H       3.607190     -1.707942      2.200140
  H       5.007551     -0.684949      1.831237
  H       4.398702     -2.917293     -1.848564
  H       4.198832     -3.592455     -0.219199
  H       5.651158     -2.650905     -0.617073
  H       3.251351      2.918674      0.596011
  H       2.204450      4.288502      1.013216
  H       2.394427      2.938605      2.149401
  H      -0.681435      2.660361      2.248129
  H      -0.964929      3.902248      1.014181
  H      -1.604854      2.256203      0.788844
  H       0.600173      3.759463     -1.729028
  H       1.671103      2.380910     -2.053113
  H      -0.085878      2.147282     -2.011451
>
51
-1986.77291486; 31P isotropic shielding: 79.159969 ppm
  O      -3.153423     -1.900222      1.684040
  C      -2.265056     -1.106669      1.422316
  O      -2.361843     -0.184644      0.425303
  Si     -3.689876     -0.150172     -0.679533
  C      -3.798985     -1.802449     -1.556930
  C      -3.190399      1.218594     -1.859005
  C      -5.255621      0.279349      0.258894
  C      -0.920901     -1.051912      2.124847
  C       0.219239     -1.636724      1.258109
  P       0.626986     -0.668096     -0.301304
  O       2.071737     -1.391395     -0.625157
  Si      3.703491     -1.104591     -0.338690
  C       4.011957     -0.697515      1.471677
  C       4.575371     -2.695166     -0.826343
  C       4.259789      0.318601     -1.436275
  O       1.101575      0.726422      0.477872
  Si      0.814454      2.353534      0.154756
  C      -0.740845      2.880600      1.067645
  C       0.638252      2.617412     -1.697806
  C       2.311385      3.268663      0.828634
  H      -2.842573     -2.052656     -2.035140
  H      -4.054793     -2.603870     -0.854401
  H      -4.568930     -1.772525     -2.340825
  H      -3.960818      1.368733     -2.627997
  H      -2.250896      0.966197     -2.366602
  H      -3.049916      2.172734     -1.335045
  H      -6.099151      0.415405     -0.432609
  H      -5.514066     -0.517318      0.966185
  H      -5.133261      1.213568      0.823654
  H      -1.012820     -1.622633      3.055394
  H      -0.684358     -0.009819      2.374793
  H      -0.018511     -2.665430      0.951357
  H       1.140779     -1.673382      1.854426
  H       3.450001      0.194851      1.771388
  H       3.712447     -1.526503      2.127053
  H       5.080456     -0.506370      1.647470
  H       4.368593     -2.953316     -1.873490
  H       5.664176     -2.600093     -0.710446
  H       4.242424     -3.534602     -0.201316
  H       4.048370      0.101522     -2.492003
  H       5.340172      0.495543     -1.339257
  H       3.744140      1.250096     -1.173763
  H      -1.594903      2.259152      0.774487
  H      -0.611186      2.782412      2.154260
  H      -0.986868      3.930769      0.856234
  H      -0.218928      2.064231     -2.099458
  H       0.488429      3.681965     -1.926206
  H       1.535360      2.281764     -2.234590
  H       3.232468      2.977366      0.307690
  H       2.190700      4.354966      0.712773
  H       2.450275      3.060224      1.898035
>
51
-1986.77294732; 31P isotropic shielding: 79.410014 ppm
  O      -3.066635     -2.397161      0.365739
  C      -2.336985     -1.470010      0.678172
  O      -2.473469     -0.214899      0.169460
  Si     -3.654336      0.149091     -1.041880
  C      -3.347953     -0.911552     -2.554918
  C      -3.316621      1.958892     -1.404204
  C      -5.361504     -0.086577     -0.304298
  C      -1.152276     -1.593178      1.621301
  C       0.147026     -1.939455      0.853587
  P       0.713605     -0.617448     -0.350353
  O       2.188689     -1.262179     -0.698610
  Si      3.783960     -1.053571     -0.209816
  C       4.729253     -2.458801     -1.021576
  C       4.386589      0.609472     -0.851356
  C       3.933142     -1.133492      1.663112
  O       1.085443      0.531365      0.798567
  Si      0.773882      2.184159      0.880523
  C       0.713901      2.899574     -0.856884
  C       2.192928      2.924286      1.865933
  C      -0.854021      2.439470      1.782228
  H      -3.985763     -0.580014     -3.387124
  H      -2.301241     -0.828362     -2.877415
  H      -3.562768     -1.966660     -2.351956
  H      -2.307658      2.103114     -1.810662
  H      -3.409232      2.576774     -0.500972
  H      -4.033660      2.340211     -2.145083
  H      -6.135606      0.265367     -1.001236
  H      -5.550998     -1.143325     -0.082482
  H      -5.464484      0.484261      0.629078
  H      -1.379233     -2.396389      2.331958
  H      -1.014526     -0.657334      2.174762
  H       0.012179     -2.865828      0.277328
  H       0.962969     -2.102760      1.570710
  H       4.370878     -3.433663     -0.663958
  H       4.607803     -2.435011     -2.112920
  H       5.803784     -2.392352     -0.798709
  H       5.450664      0.763208     -0.621945
  H       4.264414      0.671500     -1.941405
  H       3.825188      1.437355     -0.401743
  H       3.326168     -0.351072      2.134805
  H       4.978517     -0.991439      1.973783
  H       3.600281     -2.105458      2.052190
  H      -0.078791      2.431349     -1.452698
  H       0.522142      3.981525     -0.828725
  H       1.665855      2.741198     -1.381931
  H       3.153924      2.795175      1.351113
  H       2.038846      4.001586      2.021860
  H       2.275655      2.452080      2.854349
  H      -1.134410      3.502242      1.803364
  H      -1.659328      1.878433      1.293574
  H      -0.782288      2.093304      2.822863
>
51
-1986.77232036; 31P isotropic shielding: 78.126634 ppm
  O      -3.223889     -1.984631      1.158985
  C      -2.439368     -1.050618      1.139656
  O      -2.505750     -0.043671      0.226135
  Si     -3.617470     -0.089976     -1.097674
  C      -3.279348     -1.623319     -2.119510
  C      -3.187431      1.472398     -2.043072
  C      -5.368676     -0.013704     -0.431784
  C      -1.256554     -0.909646      2.081276
  C       0.019286     -1.547183      1.479002
  P       0.647158     -0.708378     -0.077333
  O       2.082997     -1.505811     -0.184053
  Si      3.700331     -1.199346      0.156180
  C       3.920991     -0.688082      1.952770
  C       4.585394     -2.818428     -0.194001
  C       4.318004      0.153965     -0.996015
  O       1.095267      0.719961      0.653128
  Si      0.860748      2.326922      0.204286
  C       0.878082      2.468123     -1.670441
  C       2.293965      3.269958      0.971296
  C      -0.772799      2.920810      0.915557
  H      -3.539206     -2.531744     -1.564207
  H      -3.865561     -1.606695     -3.049163
  H      -2.216536     -1.676504     -2.390843
  H      -2.154364      1.443652     -2.410919
  H      -3.299891      2.366486     -1.416074
  H      -3.850202      1.587762     -2.912023
  H      -5.500635      0.863626      0.216312
  H      -6.094149      0.066633     -1.253682
  H      -5.604517     -0.910880      0.151775
  H      -1.515222     -1.421716      3.015134
  H      -1.073451      0.149350      2.296269
  H      -0.162374     -2.602891      1.233539
  H       0.832976     -1.506441      2.216001
  H       3.382554      0.243259      2.165406
  H       3.544998     -1.461871      2.635758
  H       4.984450     -0.530149      2.183321
  H       4.215281     -3.619864      0.459307
  H       4.430839     -3.134575     -1.234217
  H       5.667346     -2.720748     -0.027513
  H       3.801579      1.103323     -0.811726
  H       4.152972     -0.122330     -2.046170
  H       5.394732      0.327176     -0.859441
  H       0.090111      1.852213     -2.120901
  H       0.715154      3.508012     -1.986179
  H       1.838474      2.136986     -2.086968
  H       2.212327      4.345727      0.761478
  H       2.306698      3.142504      2.062151
  H       3.260458      2.925184      0.581908
  H      -1.602740      2.295778      0.565908
  H      -0.759741      2.881313      2.013578
  H      -0.974599      3.960880      0.622897
>
51
-1986.77294634; 31P isotropic shielding: 78.403503 ppm
  O      -3.430310     -0.464282      1.015769
  C      -2.309919     -0.941403      1.089114
  O      -1.849111     -1.893558      0.234264
  Si     -2.770198     -2.422754     -1.131765
  C      -3.090686     -0.951176     -2.245353
  C      -4.343939     -3.251795     -0.538845
  C      -1.609765     -3.664517     -1.927674
  C      -1.274143     -0.507930      2.116815
  C      -0.775946      0.928419      1.829393
  P      -0.001958      1.087833      0.133757
  O       1.378629      0.211124      0.453604
  Si      2.102129     -1.059409     -0.385792
  C       3.956652     -0.829356     -0.183397
  C       1.565015     -2.677430      0.400962
  C       1.604482     -0.986025     -2.198180
  O       0.527446      2.637042      0.256424
  Si      1.957920      3.450404      0.603946
  C       3.157447      3.177422     -0.818124
  C       2.690377      2.834814      2.223028
  C       1.473562      5.260482      0.727586
  H      -3.503201     -1.275697     -3.210986
  H      -3.801151     -0.258556     -1.779620
  H      -2.161139     -0.399879     -2.438770
  H      -4.896704     -3.684542     -1.384771
  H      -4.995826     -2.530837     -0.032387
  H      -4.119819     -4.066018      0.163795
  H      -2.076080     -4.113938     -2.815509
  H      -0.670646     -3.194053     -2.244272
  H      -1.362593     -4.477258     -1.231884
  H      -0.432990     -1.207718      2.125471
  H      -1.759342     -0.532753      3.101355
  H      -0.034848      1.229135      2.582336
  H      -1.617771      1.632717      1.868653
  H       4.230289     -0.767309      0.878535
  H       4.501101     -1.679230     -0.618720
  H       4.313925      0.083234     -0.676874
  H       0.476357     -2.796244      0.354564
  H       2.025644     -3.533234     -0.112603
  H       1.869418     -2.720312      1.455916
  H       1.928979     -0.044745     -2.661701
  H       0.516527     -1.054556     -2.316718
  H       2.061000     -1.812573     -2.760534
  H       4.088486      3.741935     -0.668950
  H       3.419686      2.117150     -0.912674
  H       2.714812      3.503310     -1.769081
  H       3.626928      3.362410      2.453998
  H       1.999458      3.002004      3.060511
  H       2.905185      1.760779      2.169106
  H       2.352467      5.891718      0.920204
  H       1.006787      5.607210     -0.203993
  H       0.756975      5.422946      1.543770
>
51
-1986.77273939; 31P isotropic shielding: 76.889663 ppm
  O      -3.042227     -2.265845      0.983980
  C      -2.338349     -1.283226      1.148582
  O      -2.549996     -0.101480      0.507424
  Si     -3.748017      0.062271     -0.729821
  C      -3.503515      1.835577     -1.292016
  C      -5.449646     -0.177505      0.021103
  C      -3.371114     -1.150704     -2.106328
  C      -1.104415     -1.259232      2.034692
  C       0.138725     -1.772645      1.266908
  P       0.617021     -0.712070     -0.202824
  O       2.037749     -1.460711     -0.558446
  Si      3.681131     -1.196827     -0.321115
  C       4.521708     -2.753226     -0.951589
  C       4.202333      0.298348     -1.337185
  C       4.055223     -0.917382      1.500631
  O       1.124020      0.608863      0.675052
  Si      0.834911      2.258121      0.486554
  C       2.362429      3.118419      1.163361
  C      -0.678641      2.717488      1.498619
  C       0.581675      2.649671     -1.334581
  H      -3.619625      2.541342     -0.459215
  H      -2.505908      1.983496     -1.723320
  H      -4.243189      2.098948     -2.060869
  H      -6.233124      0.022227     -0.723611
  H      -5.606486      0.513073      0.861067
  H      -5.574718     -1.201893      0.389918
  H      -4.026450     -0.970631     -2.970269
  H      -2.330654     -1.042116     -2.440215
  H      -3.518454     -2.183938     -1.771735
  H      -1.298467     -1.916119      2.890715
  H      -0.921904     -0.242486      2.398990
  H      -0.039620     -2.790427      0.893696
  H       1.004685     -1.802366      1.942261
  H       4.198789     -3.634673     -0.381681
  H       4.282428     -2.929953     -2.008663
  H       5.614262     -2.674971     -0.861176
  H       5.292499      0.435257     -1.311645
  H       3.902823      0.179426     -2.387196
  H       3.741655      1.217747     -0.956550
  H       5.127586     -0.728229      1.652929
  H       3.784029     -1.794395      2.103964
  H       3.496562     -0.055053      1.883182
  H       3.261026      2.865918      0.586070
  H       2.241262      4.210431      1.132947
  H       2.542462      2.831652      2.208212
  H      -0.498382      2.545020      2.568845
  H      -0.933583      3.778904      1.371229
  H      -1.544888      2.115213      1.201060
  H      -0.252613      2.069428     -1.747777
  H       0.356692      3.715421     -1.479256
  H       1.477204      2.411241     -1.923610
>
51
-1986.77287982; 31P isotropic shielding: 78.305221 ppm
  O      -2.838319     -1.972893      0.808069
  C      -2.348546     -0.896998      1.110129
  O      -2.626636      0.258145      0.446380
  Si     -3.684719      0.285140     -0.922075
  C      -5.398905     -0.260676     -0.391380
  C      -2.967585     -0.794134     -2.275714
  C      -3.675348      2.101814     -1.393650
  C      -1.356601     -0.712306      2.249417
  C      -0.040383     -1.476272      1.984505
  P       0.810271     -0.902937      0.426647
  O       2.244846     -1.659991      0.727938
  Si      3.782926     -1.473735      0.072258
  C       3.656947     -0.749045     -1.661375
  C       4.757673     -0.326899      1.196253
  C       4.539823     -3.191355      0.031545
  O       1.142964      0.651315      0.914812
  Si      0.893902      2.143917      0.177636
  C       2.520895      3.077402      0.306292
  C      -0.461983      3.030467      1.126612
  C       0.401561      1.910695     -1.622737
  H      -6.113843     -0.144235     -1.218203
  H      -5.396261     -1.312015     -0.082139
  H      -5.762074      0.345097      0.450058
  H      -3.014356     -1.851937     -1.992894
  H      -1.916805     -0.542413     -2.469423
  H      -3.525990     -0.659207     -3.212832
  H      -2.673314      2.443190     -1.680687
  H      -4.346911      2.279667     -2.245185
  H      -4.020171      2.727142     -0.559441
  H      -1.829925     -1.113218      3.156089
  H      -1.154992      0.350901      2.407571
  H      -0.240973     -2.550142      1.873596
  H       0.657574     -1.336608      2.821160
  H       2.987192     -1.344612     -2.295714
  H       3.274736      0.279359     -1.642272
  H       4.644860     -0.726021     -2.142428
  H       4.838581     -0.745264      2.208472
  H       5.776140     -0.164722      0.815644
  H       4.262845      0.648995      1.275630
  H       4.555631     -3.635644      1.035805
  H       5.573919     -3.159579     -0.339055
  H       3.966151     -3.860883     -0.623224
  H       3.318580      2.577053     -0.258417
  H       2.420368      4.097373     -0.090793
  H       2.847712      3.156348      1.351826
  H      -0.189858      3.149953      2.184207
  H      -0.643153      4.032600      0.712983
  H      -1.400868      2.465700      1.074479
  H      -0.516326      1.318136     -1.708005
  H       0.222580      2.884868     -2.099351
  H       1.182873      1.394963     -2.195419
>
51
-1986.77300111; 31P isotropic shielding: 78.852013 ppm
  O      -3.084712     -0.946760      1.976646
  C      -2.218682     -1.338970      1.212499
  O      -2.188148     -1.036062     -0.107697
  Si     -3.371968     -0.123841     -0.960608
  C      -2.540042      0.133188     -2.618038
  C      -3.737791      1.506998     -0.112850
  C      -4.911354     -1.191360     -1.074496
  C      -1.045637     -2.223651      1.603610
  C       0.333499     -1.530816      1.510748
  P       0.813084     -0.853739     -0.181260
  O       2.427542     -0.670937      0.206967
  Si      3.723102     -0.634163     -0.870687
  C       3.912721     -2.331255     -1.660118
  C       3.401246      0.665178     -2.193950
  C       5.224767     -0.198424      0.167720
  O       0.275141      0.700647     -0.101843
  Si      0.418782      2.067864      0.872970
  C      -0.721316      1.919010      2.362951
  C      -0.089277      3.499383     -0.233460
  C       2.194175      2.297856      1.449328
  H      -3.179813      0.709640     -3.300275
  H      -1.596794      0.678429     -2.485184
  H      -2.308483     -0.826775     -3.097557
  H      -2.834568      2.118150     -0.009489
  H      -4.163146      1.347035      0.884003
  H      -4.460607      2.081039     -0.710549
  H      -5.689528     -0.698270     -1.673690
  H      -4.688945     -2.159027     -1.543779
  H      -5.323455     -1.381529     -0.075180
  H      -1.053756     -3.095994      0.934158
  H      -1.220473     -2.575794      2.626079
  H       1.111005     -2.270182      1.745301
  H       0.419229     -0.729167      2.255294
  H       4.751033     -2.349363     -2.370659
  H       4.099455     -3.102919     -0.900866
  H       3.002033     -2.610478     -2.206938
  H       2.485178      0.435681     -2.754786
  H       3.283214      1.664732     -1.755925
  H       4.231735      0.708735     -2.912482
  H       6.134888     -0.176001     -0.447988
  H       5.377105     -0.937570      0.965668
  H       5.110631      0.786235      0.639051
  H      -0.312662      1.238126      3.120908
  H      -0.845207      2.901618      2.840946
  H      -1.717422      1.550907      2.092497
  H      -0.044211      4.452336      0.312016
  H       0.582820      3.574424     -1.098903
  H      -1.110960      3.379742     -0.614976
  H       2.542969      1.431949      2.023872
  H       2.874383      2.428461      0.598414
  H       2.276022      3.190980      2.085385
>
51
-1986.77085396; 31P isotropic shielding: 79.231595 ppm
  O      -2.079679     -0.046655      0.315099
  C      -1.958559     -0.952958     -0.492679
  O      -2.844947     -1.180245     -1.495317
  Si     -4.314922     -0.300819     -1.696264
  C      -5.099745     -1.176992     -3.157768
  C      -3.938056      1.489997     -2.099067
  C      -5.356228     -0.482991     -0.146622
  C      -0.854751     -2.000587     -0.483068
  C       0.360780     -1.659865      0.391512
  P       1.626926     -0.625499     -0.518057
  O       2.688446     -0.450591      0.755806
  Si      4.370848     -0.552236      0.745932
  C       5.067657      0.415448     -0.708207
  C       4.918544      0.178765      2.386081
  C       4.861553     -2.364072      0.616056
  O       0.889319      0.835067     -0.556951
  Si      0.697292      2.126945      0.517767
  C      -0.718387      3.142574     -0.175246
  C       2.298656      3.118849      0.497863
  C       0.323214      1.542689      2.262894
  H      -4.461637     -1.110824     -4.048969
  H      -5.266401     -2.240297     -2.940233
  H      -6.071364     -0.727350     -3.405182
  H      -3.539084      2.019549     -1.227287
  H      -4.851031      2.007421     -2.426607
  H      -3.201319      1.566045     -2.909783
  H      -4.870817     -0.003305      0.711202
  H      -6.342279     -0.018474     -0.288924
  H      -5.519726     -1.541414      0.097774
  H      -0.564218     -2.198876     -1.525091
  H      -1.334304     -2.929733     -0.136458
  H       0.892385     -2.584680      0.658299
  H       0.060521     -1.163855      1.321437
  H       4.803413      1.478926     -0.649585
  H       6.164097      0.341627     -0.734210
  H       4.682442      0.025322     -1.659639
  H       4.617862      1.231016      2.474096
  H       4.474706     -0.369025      3.228079
  H       6.011461      0.131333      2.491850
  H       5.953347     -2.485992      0.649037
  H       4.505731     -2.798284     -0.328477
  H       4.432586     -2.950462      1.439918
  H      -0.538915      3.414444     -1.223819
  H      -1.650033      2.567975     -0.122531
  H      -0.852780      4.070992      0.397385
  H       3.123152      2.546897      0.940175
  H       2.583778      3.388653     -0.527858
  H       2.191111      4.049636      1.072656
  H       0.229928      2.406653      2.937156
  H      -0.620030      0.984678      2.291287
  H       1.126053      0.900584      2.645141
>
51
-1986.77342903; 31P isotropic shielding: 76.356116 ppm
  O      -2.399675     -2.510975      1.580893
  C      -2.194777     -1.345936      1.282883
  O      -2.258973     -0.871633      0.015532
  Si     -2.688851     -1.781327     -1.381156
  C      -4.545113     -2.047774     -1.305903
  C      -1.775121     -3.416290     -1.456307
  C      -2.176858     -0.631900     -2.767143
  C      -1.839756     -0.245582      2.269757
  C      -0.410063      0.318993      2.106064
  P      -0.019534      1.125042      0.449305
  O       0.603143     -0.123947     -0.421466
  Si      1.837862     -1.266688     -0.361282
  C       3.464998     -0.468365      0.139264
  C       1.398125     -2.635665      0.854246
  C       1.962947     -1.925901     -2.116710
  O       1.370745      1.874437      0.994794
  Si      2.037317      3.306450      0.405816
  C       2.200193      3.200045     -1.466016
  C       3.715555      3.456163      1.233083
  C       0.918692      4.741685      0.883646
  H      -5.080597     -1.091583     -1.235721
  H      -4.905407     -2.569585     -2.203531
  H      -4.812381     -2.655896     -0.432013
  H      -2.097326     -4.082067     -0.648191
  H      -0.691306     -3.281362     -1.372471
  H      -1.974688     -3.911277     -2.417836
  H      -2.394885     -1.071511     -3.750113
  H      -2.705632      0.327809     -2.698564
  H      -1.100698     -0.425871     -2.709747
  H      -1.969783     -0.650617      3.279189
  H      -2.564533      0.569726      2.130599
  H       0.344734     -0.446716      2.325280
  H      -0.270676      1.124354      2.840077
  H       3.399106     -0.019583      1.137150
  H       4.269381     -1.217950      0.149926
  H       3.753430      0.321557     -0.565854
  H       2.044059     -3.509862      0.687171
  H       1.548673     -2.315484      1.893609
  H       0.357549     -2.966912      0.756481
  H       2.741605     -2.697985     -2.189740
  H       2.224609     -1.117618     -2.812896
  H       1.019660     -2.368299     -2.459235
  H       1.220010      3.048598     -1.937749
  H       2.630369      4.124414     -1.876512
  H       2.848580      2.366329     -1.765333
  H       4.220381      4.384450      0.930739
  H       3.614100      3.470376      2.326619
  H       4.367471      2.614402      0.966265
  H       1.327851      5.700503      0.535471
  H      -0.080405      4.622649      0.443027
  H       0.800596      4.803682      1.974108
>
51
-1986.77065706; 31P isotropic shielding: 78.542500 ppm
  O      -2.916344     -0.747960      2.189118
  C      -2.029496     -0.942545      1.373869
  O      -2.178413     -0.701441      0.045638
  Si     -3.668148     -0.172495     -0.653823
  C      -4.999070     -1.441368     -0.285890
  C      -3.251969     -0.123732     -2.479969
  C      -4.104185      1.524310      0.015070
  C      -0.643744     -1.447895      1.747162
  C       0.264785     -1.929869      0.607342
  P       0.733744     -0.632002     -0.685855
  O       2.236854     -1.196894     -1.051895
  Si      3.817804     -1.063977     -0.496418
  C       4.523282      0.568238     -1.105253
  C       3.889781     -1.141748      1.383384
  C       4.735351     -2.513738     -1.262202
  O       1.084118      0.601855      0.386315
  Si      0.568428      2.201761      0.458852
  C      -0.590704      2.376702      1.928106
  C      -0.295063      2.677930     -1.141696
  C       2.099601      3.259164      0.725262
  H      -4.687991     -2.443774     -0.610090
  H      -5.219757     -1.480268      0.786936
  H      -5.926233     -1.191839     -0.821114
  H      -4.111704      0.231983     -3.064788
  H      -2.983949     -1.123106     -2.847167
  H      -2.403492      0.541679     -2.681391
  H      -3.297729      2.247377     -0.159330
  H      -5.006780      1.907138     -0.482246
  H      -4.300636      1.478267      1.092553
  H      -0.795914     -2.240236      2.492633
  H      -0.155310     -0.623981      2.286558
  H      -0.200425     -2.761179      0.059090
  H       1.202013     -2.306283      1.036791
  H       4.412689      0.659633     -2.194183
  H       4.006725      1.415472     -0.638925
  H       5.592785      0.653479     -0.866758
  H       4.923780     -1.007491      1.732550
  H       3.274048     -0.351068      1.829057
  H       3.535300     -2.107927      1.766613
  H       4.314159     -3.470031     -0.923970
  H       5.799560     -2.498211     -0.988132
  H       4.668771     -2.486437     -2.358029
  H      -0.890610      3.426708      2.055798
  H      -1.506176      1.784542      1.815017
  H      -0.099727      2.059731      2.858260
  H      -1.184076      2.061037     -1.314117
  H      -0.612069      3.729880     -1.110382
  H       0.368911      2.550655     -2.006725
  H       2.754612      3.249569     -0.155499
  H       1.819577      4.304029      0.920001
  H       2.683934      2.904656      1.584972
>
51
-1986.77119582; 31P isotropic shielding: 77.597836 ppm
  O      -2.927930     -1.030766      1.795583
  C      -2.016205     -1.152728      0.993822
  O      -2.117560     -0.774863     -0.306731
  Si     -3.586108     -0.187286     -1.003365
  C      -4.897251     -1.518907     -0.845460
  C      -3.091616      0.090802     -2.789006
  C      -4.101113      1.407134     -0.161726
  C      -0.654551     -1.727129      1.358136
  C       0.339587     -1.963155      0.212364
  P       0.819076     -0.421813     -0.781346
  O       2.424372     -0.713987     -1.003340
  Si      3.860659     -0.926213     -0.153819
  C       5.054840      0.367819     -0.809962
  C       3.618682     -0.708419      1.700009
  C       4.476272     -2.661664     -0.537656
  O       0.837869      0.628237      0.510102
  Si      0.403525      2.242218      0.670327
  C      -0.317872      2.888515     -0.941990
  C       1.967852      3.190196      1.108760
  C      -0.842547      2.329139      2.072303
  H      -4.557517     -2.463717     -1.290945
  H      -5.142539     -1.702888      0.206983
  H      -5.817198     -1.217426     -1.366102
  H      -3.936261      0.486686     -3.369946
  H      -2.770059     -0.848586     -3.257662
  H      -2.260047      0.802242     -2.868183
  H      -3.313176      2.168258     -0.215750
  H      -4.994728      1.820314     -0.651179
  H      -4.338793      1.230235      0.893481
  H      -0.852206     -2.658920      1.907034
  H      -0.221882     -1.034169      2.092203
  H      -0.060521     -2.685851     -0.512134
  H       1.259559     -2.396141      0.626031
  H       5.175073      0.274667     -1.897580
  H       4.688336      1.381230     -0.597871
  H       6.047657      0.265846     -0.349783
  H       4.571222     -0.870281      2.225040
  H       3.264663      0.301675      1.935225
  H       2.889213     -1.419650      2.107455
  H       3.787070     -3.422968     -0.147627
  H       5.463413     -2.842158     -0.089145
  H       4.565296     -2.815096     -1.621501
  H       0.427320      2.865022     -1.748012
  H      -1.175961      2.290962     -1.270236
  H      -0.654254      3.928199     -0.823654
  H       2.711930      3.111352      0.304545
  H       1.756692      4.257220      1.266097
  H       2.423240      2.801115      2.029260
  H      -0.398139      1.968437      3.009993
  H      -1.177759      3.362416      2.239689
  H      -1.729829      1.717245      1.869569
>
51
-1986.77144642; 31P isotropic shielding: 85.708480 ppm
  O      -1.734560     -2.996613      0.357198
  C      -1.616573     -1.908082      0.894382
  O      -2.388099     -0.835583      0.589677
  Si     -3.424441     -0.786267     -0.791513
  C      -4.029211      0.987690     -0.753523
  C      -4.827184     -2.008250     -0.554333
  C      -2.402641     -1.144511     -2.320083
  C      -0.598864     -1.609919      1.986577
  C      -0.132495     -0.146359      2.099296
  P       0.167114      0.753998      0.463618
  O       0.588893     -0.511660     -0.497936
  Si      1.956632     -1.431029     -0.853517
  C       1.293082     -3.011500     -1.610401
  C       3.003964     -0.464482     -2.081447
  C       2.965990     -1.768815      0.699188
  O       1.657518      1.397659      0.861361
  Si      2.231548      2.944688      0.507073
  C       1.393729      4.171147      1.660928
  C       1.860592      3.373074     -1.286294
  C       4.080089      2.865051      0.825526
  H      -4.700243      1.194202     -1.598781
  H      -4.580290      1.198092      0.172896
  H      -3.182030      1.683492     -0.809463
  H      -4.443999     -3.035060     -0.525914
  H      -5.553397     -1.931943     -1.376088
  H      -5.364520     -1.815712      0.384296
  H      -2.997842     -0.974460     -3.228418
  H      -1.521940     -0.491541     -2.357362
  H      -2.055762     -2.184062     -2.323157
  H       0.245391     -2.282657      1.811073
  H      -1.051196     -1.933537      2.937501
  H       0.800060     -0.099251      2.676177
  H      -0.881423      0.456959      2.630060
  H       0.730155     -2.797280     -2.528585
  H       2.109056     -3.701594     -1.867283
  H       0.612487     -3.521582     -0.916751
  H       3.842240     -1.073322     -2.448451
  H       2.408225     -0.154586     -2.950343
  H       3.424014      0.437455     -1.618824
  H       2.431019     -2.405272      1.415359
  H       3.224643     -0.828694      1.201419
  H       3.901219     -2.284587      0.437825
  H       1.755151      5.194898      1.490243
  H       0.306080      4.170067      1.505341
  H       1.583708      3.918108      2.712838
  H       2.243763      4.372455     -1.536117
  H       2.322471      2.653630     -1.974466
  H       0.778848      3.370816     -1.474321
  H       4.552480      3.841993      0.651819
  H       4.287067      2.570647      1.863079
  H       4.566782      2.134889      0.165415
>
51
-1986.77311618; 31P isotropic shielding: 79.646559 ppm
  O      -1.545366     -3.083901      0.403749
  C      -1.523036     -1.972763      0.905845
  O      -2.351024     -0.965688      0.532769
  Si     -3.332788     -1.030282     -0.886630
  C      -4.663522     -2.331461     -0.655371
  C      -2.232053     -1.374421     -2.362424
  C      -4.050582      0.700800     -0.937730
  C      -0.574832     -1.568317      2.026278
  C      -0.208807     -0.073989      2.095861
  P       0.109249      0.776494      0.437158
  O       0.640086     -0.499970     -0.454192
  Si      2.081381     -1.331062     -0.727686
  C       3.125505     -0.313941     -1.916482
  C       3.032287     -1.584884      0.876997
  C       1.560904     -2.963473     -1.487328
  O       1.543684      1.521936      0.863201
  Si      2.021525      3.092987      0.471517
  C       1.044618      4.297131      1.536022
  C       1.706649      3.425376     -1.352666
  C       3.854358      3.165350      0.871828
  H      -5.245921     -2.141674      0.256535
  H      -5.361841     -2.329409     -1.504340
  H      -4.217548     -3.329868     -0.576399
  H      -1.401783     -0.658486     -2.400958
  H      -2.805187     -1.288797     -3.296522
  H      -1.808700     -2.383708     -2.307344
  H      -3.248366      1.448761     -0.982451
  H      -4.694796      0.834793     -1.817755
  H      -4.654989      0.905257     -0.043741
  H       0.316637     -2.191388      1.913271
  H      -1.047042     -1.882527      2.970691
  H       0.688344      0.059811      2.714001
  H      -1.021252      0.498896      2.563117
  H       3.464504      0.615677     -1.442910
  H       4.016669     -0.872682     -2.235193
  H       2.554740     -0.048943     -2.816373
  H       3.209257     -0.625050      1.377473
  H       2.503759     -2.245495      1.575820
  H       4.008940     -2.044722      0.667694
  H       2.431270     -3.609341     -1.669720
  H       1.050145     -2.804672     -2.446265
  H       0.866351     -3.496302     -0.825122
  H      -0.031657      4.211917      1.332155
  H       1.201938      4.097383      2.604664
  H       1.340872      5.337297      1.340679
  H       0.640315      3.322081     -1.593147
  H       2.014942      4.445508     -1.621838
  H       2.263617      2.726692     -1.989855
  H       4.421987      2.441165      0.272604
  H       4.261448      4.164851      0.664253
  H       4.035613      2.941055      1.931461
>
51
-1986.77297301; 31P isotropic shielding: 79.172749 ppm
  O      -3.181843      0.299058      1.356883
  C      -2.307000     -0.534644      1.192526
  O      -2.226938     -1.329650      0.096967
  Si     -3.168885     -1.062140     -1.327000
  C      -2.458258     -2.337719     -2.502708
  C      -2.864951      0.686826     -1.923603
  C      -4.974008     -1.395351     -0.942275
  C      -1.198904     -0.807300      2.200091
  C       0.127137     -1.341830      1.626077
  P       0.689935     -0.580644     -0.010675
  O       2.270901     -0.277062      0.439003
  Si      3.661796     -0.553872     -0.475643
  C       5.036996      0.342424      0.435580
  C       3.979317     -2.406862     -0.534588
  C       3.437008      0.127766     -2.214299
  O       0.012903      0.912131      0.111537
  Si      0.374585      2.411031      0.792334
  C       1.626311      3.270347     -0.318031
  C       1.098016      2.214886      2.519118
  C      -1.260950      3.325507      0.829667
  H      -2.953415     -2.291033     -3.482506
  H      -1.384265     -2.166616     -2.652079
  H      -2.587747     -3.354519     -2.108368
  H      -1.789483      0.874894     -2.028925
  H      -3.269682      1.416207     -1.213029
  H      -3.342397      0.850071     -2.900060
  H      -5.350976     -0.674565     -0.207194
  H      -5.586794     -1.315693     -1.851406
  H      -5.111626     -2.406236     -0.534906
  H      -1.606163     -1.525463      2.929588
  H      -1.047379      0.125898      2.750091
  H       0.056270     -2.421106      1.434173
  H       0.933633     -1.187733      2.354537
  H       4.844218      1.422269      0.485633
  H       5.137252     -0.029697      1.463909
  H       6.001819      0.197384     -0.070345
  H       3.149627     -2.928516     -1.031288
  H       4.899809     -2.639608     -1.088066
  H       4.080877     -2.822360      0.477167
  H       3.249886      1.209236     -2.201774
  H       2.588990     -0.354002     -2.718634
  H       4.335229     -0.051263     -2.821967
  H       1.268627      3.314046     -1.355381
  H       1.809912      4.300578      0.018014
  H       2.586703      2.739988     -0.311739
  H       2.001227      1.592938      2.495788
  H       1.373154      3.198368      2.926816
  H       0.385596      1.759638      3.218683
  H      -1.646113      3.479547     -0.186987
  H      -2.012890      2.750977      1.385895
  H      -1.155167      4.311067      1.304301
>
51
-1986.77301639; 31P isotropic shielding: 79.427454 ppm
  O      -2.854852     -2.380240      1.479928
  C      -2.096969     -1.521135      1.059777
  O      -1.983892     -1.209579     -0.256904
  Si     -2.921685     -1.971829     -1.491003
  C      -2.491614     -3.795830     -1.551156
  C      -2.363331     -1.068824     -3.035703
  C      -4.742219     -1.678474     -1.148483
  C      -1.156177     -0.715517      1.941444
  C      -0.870352      0.734266      1.508752
  P       0.112753      0.935193     -0.088019
  O       1.367793     -0.061068      0.387124
  Si      2.376109     -0.971255     -0.609058
  C       3.070451      0.136685     -1.961361
  C       3.732644     -1.620551      0.514533
  C       1.381544     -2.383210     -1.353168
  O       0.739694      2.436920      0.163950
  Si      1.747805      3.336646      1.162833
  C       3.148859      2.273462      1.828854
  C       0.734862      4.052953      2.579768
  C       2.416638      4.715654      0.077053
  H      -1.414347     -3.943077     -1.701885
  H      -2.782182     -4.294143     -0.618849
  H      -3.016427     -4.287846     -2.382353
  H      -2.908331     -1.435548     -3.916777
  H      -1.290855     -1.209955     -3.218888
  H      -2.545032      0.009923     -2.946854
  H      -5.355397     -2.060848     -1.976827
  H      -5.053149     -2.183687     -0.226924
  H      -4.956549     -0.606291     -1.043232
  H      -0.205234     -1.269330      1.975373
  H      -1.571766     -0.747848      2.955620
  H      -0.286160      1.221166      2.300855
  H      -1.803185      1.304325      1.393576
  H       3.634307      0.976675     -1.534436
  H       3.746528     -0.419500     -2.625590
  H       2.262876      0.555441     -2.576693
  H       4.436299     -2.254246     -0.043235
  H       4.302730     -0.798409      0.966046
  H       3.311331     -2.224284      1.329611
  H       0.553504     -1.992798     -1.957243
  H       0.953182     -3.020773     -0.568481
  H       2.005193     -3.016479     -1.999341
  H       3.805700      2.867526      2.480299
  H       2.767035      1.423972      2.407472
  H       3.760645      1.870201      1.012113
  H       1.327813      4.778167      3.155349
  H      -0.154310      4.573938      2.199912
  H       0.396146      3.274554      3.275771
  H       1.599962      5.328069     -0.328010
  H       3.087741      5.377821      0.641824
  H       2.980669      4.306417     -0.771765
>
51
-1986.77098012; 31P isotropic shielding: 84.183148 ppm
  O      -3.311063     -1.730969      1.454733
  C      -2.273729     -1.380954      0.916196
  O      -2.238977     -0.696364     -0.256140
  Si     -3.653962     -0.278731     -1.152739
  C      -2.937269      0.546024     -2.674894
  C      -4.697104      0.903805     -0.138213
  C      -4.583766     -1.845979     -1.596288
  C      -0.890603     -1.627973      1.496517
  C       0.256644     -1.823733      0.488770
  P       0.712623     -0.308732     -0.541228
  O       2.292218     -0.655875     -0.858143
  Si      3.784084     -0.935167     -0.136948
  C       4.018353     -2.791226      0.074776
  C       5.056144     -0.248147     -1.336132
  C       3.905011     -0.066100      1.526837
  O       0.826529      0.724359      0.766074
  Si      0.731096      2.405070      0.765664
  C       1.934982      3.092749     -0.506160
  C       1.195753      2.928872      2.507494
  C      -1.029942      2.923896      0.358037
  H      -3.736844      0.841686     -3.368446
  H      -2.367520      1.445827     -2.411765
  H      -2.258333     -0.133067     -3.206254
  H      -4.126128      1.799644      0.138524
  H      -5.048635      0.419517      0.780480
  H      -5.575576      1.231676     -0.711893
  H      -4.981077     -2.333639     -0.698762
  H      -5.424463     -1.617955     -2.266868
  H      -3.929321     -2.559769     -2.114903
  H      -0.979243     -2.491865      2.166080
  H      -0.658623     -0.760000      2.132443
  H       0.031034     -2.638592     -0.213619
  H       1.158920     -2.112825      1.044120
  H       3.872797     -3.315849     -0.879156
  H       5.033632     -3.018230      0.430291
  H       3.310078     -3.212346      0.800359
  H       4.982032     -0.743091     -2.313678
  H       4.904868      0.828051     -1.494146
  H       6.078271     -0.394640     -0.959833
  H       3.835986      1.022473      1.411652
  H       4.868444     -0.292690      2.005868
  H       3.103378     -0.377768      2.207075
  H       1.695652      2.722738     -1.512171
  H       1.899094      4.190736     -0.534122
  H       2.967348      2.796266     -0.278965
  H       1.150922      4.021678      2.614994
  H       0.509735      2.491255      3.245226
  H       2.213252      2.605708      2.762535
  H      -1.143198      4.016112      0.401116
  H      -1.311630      2.595208     -0.650128
  H      -1.742476      2.482829      1.067434
>
51
-1986.77144062; 31P isotropic shielding: 84.890380 ppm
  O      -2.727911     -2.438787     -0.509417
  C      -2.302478     -1.558722      0.220443
  O      -2.638648     -0.247984      0.078542
  Si     -3.608906      0.305739     -1.243003
  C      -2.724329     -0.085667     -2.847080
  C      -3.692756      2.152962     -0.921138
  C      -5.312353     -0.472042     -1.136588
  C      -1.312939     -1.803579      1.349949
  C       0.085382     -2.156252      0.790164
  P       0.799250     -0.800449     -0.281369
  O       2.290169     -1.463160     -0.486424
  Si      3.879103     -1.064865     -0.113217
  C       4.921716     -2.392688     -0.935266
  C       4.279741      0.628341     -0.829772
  C       4.108854     -1.078605      1.752371
  O       1.070172      0.307529      0.932130
  Si      0.669006      1.939289      1.064237
  C       0.455110      2.680625     -0.651160
  C       2.098710      2.748781      1.977310
  C      -0.911411      2.085025      2.067192
  H      -2.712183     -1.166125     -3.030970
  H      -3.221716      0.405848     -3.694972
  H      -1.683637      0.262415     -2.812777
  H      -4.290336      2.651172     -1.697277
  H      -2.695778      2.610611     -0.920883
  H      -4.162350      2.363378      0.048915
  H      -5.977595     -0.048837     -1.902716
  H      -5.256354     -1.555898     -1.288462
  H      -5.771639     -0.283895     -0.156574
  H      -1.688883     -2.649220      1.940190
  H      -1.252035     -0.924306      1.998317
  H       0.025349     -3.061098      0.170653
  H       0.789428     -2.343409      1.612480
  H       4.768548     -2.397700     -2.022637
  H       5.991624     -2.228268     -0.745194
  H       4.661310     -3.389252     -0.554290
  H       4.084287      0.651257     -1.910448
  H       3.678166      1.416003     -0.361297
  H       5.338264      0.880743     -0.675195
  H       5.153197     -0.874509      2.028421
  H       3.838055     -2.057685      2.170467
  H       3.471144     -0.322828      2.226130
  H       0.180845      3.742713     -0.584295
  H       1.381935      2.608470     -1.235507
  H      -0.330784      2.162030     -1.213395
  H       3.036668      2.675953      1.412506
  H       1.894463      3.814750      2.150923
  H       2.258127      2.276485      2.956018
  H      -1.735869      1.552150      1.579194
  H      -0.777695      1.661902      3.072367
  H      -1.205639      3.137460      2.185701
>
51
-1986.77300922; 31P isotropic shielding: 75.423376 ppm
  O      -3.354399     -1.319674      1.708150
  C      -2.302823     -1.149753      1.112964
  O      -2.238174     -0.762270     -0.186374
  Si     -3.636160     -0.467674     -1.157599
  C      -2.885103     -0.019619     -2.814826
  C      -4.608084      0.955069     -0.419220
  C      -4.649886     -2.041993     -1.265541
  C      -0.933424     -1.309996      1.755018
  C       0.230545     -1.700715      0.827968
  P       0.724550     -0.411255     -0.459447
  O       2.308508     -0.816406     -0.665064
  Si      3.763394     -0.986599      0.159536
  C       3.774784      0.020064      1.749207
  C       4.020012     -2.812996      0.536279
  C       5.086275     -0.364291     -1.019839
  O       0.818689      0.855006      0.626689
  Si      0.751027      2.502393      0.284774
  C       2.022389      2.911444     -1.040472
  C       1.150619      3.361382      1.905378
  C      -0.981714      2.935640     -0.302608
  H      -3.671094      0.189146     -3.554004
  H      -2.247704      0.869714     -2.736515
  H      -2.264974     -0.839403     -3.199646
  H      -4.988459      0.690766      0.574480
  H      -5.464913      1.209446     -1.059167
  H      -3.984681      1.853445     -0.324681
  H      -5.045018     -2.319687     -0.281604
  H      -5.496765     -1.907829     -1.953372
  H      -4.044346     -2.877319     -1.642574
  H      -1.052031     -2.035684      2.569023
  H      -0.700147     -0.345538      2.231385
  H       0.010016     -2.630628      0.285005
  H       1.118186     -1.888476      1.447055
  H       4.715534     -0.145021      2.294071
  H       3.689763      1.093478      1.541405
  H       2.945358     -0.252905      2.412675
  H       5.018359     -2.990207      0.961030
  H       3.280354     -3.187998      1.256044
  H       3.932567     -3.415267     -0.378013
  H       5.077366     -0.935573     -1.957687
  H       6.088735     -0.454074     -0.578466
  H       4.920414      0.692010     -1.270356
  H       1.835321      2.332610     -1.954836
  H       1.992748      3.977687     -1.304819
  H       3.040196      2.678326     -0.700820
  H       2.149273      3.081286      2.265221
  H       1.127411      4.453939      1.788932
  H       0.425416      3.091091      2.684580
  H      -1.730676      2.660729      0.451629
  H      -1.080304      4.012332     -0.499080
  H      -1.223634      2.400146     -1.229368
>
51
-1986.77141233; 31P isotropic shielding: 84.630216 ppm
  O      -3.614647     -1.390847      1.172791
  C      -2.426493     -1.291581      0.916173
  O      -1.922392     -1.440394     -0.339782
  Si     -2.940734     -1.579466     -1.729561
  C      -3.896454     -3.190168     -1.637235
  C      -1.700150     -1.591934     -3.135169
  C      -4.056267     -0.075700     -1.816819
  C      -1.351669     -0.942114      1.929193
  C      -0.896515      0.531696      1.806056
  P       0.006296      0.962265      0.213778
  O       1.319413     -0.028633      0.482941
  Si      2.157270     -1.087684     -0.522615
  C       3.897391     -1.174239      0.182426
  C       1.332432     -2.773765     -0.441358
  C       2.169507     -0.425168     -2.281568
  O       0.582878      2.430358      0.688086
  Si      2.001647      3.059575      1.334455
  C       2.522870      2.101000      2.867014
  C       1.594830      4.842871      1.761863
  C       3.347598      2.984815      0.022212
  H      -4.474709     -3.351349     -2.558118
  H      -3.218943     -4.046103     -1.515039
  H      -4.592145     -3.179879     -0.790124
  H      -0.987318     -2.421280     -3.039852
  H      -1.131603     -0.653762     -3.158186
  H      -2.212042     -1.700491     -4.101475
  H      -3.463457      0.848038     -1.781231
  H      -4.627698     -0.072567     -2.755741
  H      -4.766317     -0.064312     -0.982065
  H      -0.486326     -1.601156      1.785740
  H      -1.768281     -1.121687      2.926363
  H      -0.208823      0.766620      2.629421
  H      -1.758609      1.208964      1.888520
  H       3.878978     -1.491574      1.233733
  H       4.508690     -1.898195     -0.374589
  H       4.404647     -0.202154      0.133590
  H       0.280928     -2.708250     -0.744446
  H       1.839018     -3.493035     -1.100238
  H       1.364200     -3.179074      0.579389
  H       1.151835     -0.343451     -2.681872
  H       2.739771     -1.091077     -2.944309
  H       2.630414      0.570230     -2.329134
  H       1.750551      2.142989      3.646907
  H       2.704374      1.047322      2.623368
  H       3.446354      2.519626      3.292263
  H       0.793710      4.896107      2.511135
  H       2.473484      5.361534      2.170240
  H       1.260528      5.393664      0.872577
  H       4.265553      3.479225      0.370056
  H       3.602076      1.948622     -0.229645
  H       3.024051      3.487765     -0.899018
