50
-1868.40472027; 31P isotropic shielding: 219.487988 ppm
  S       2.314930     -0.208290      2.686874
  P       1.776675      0.227864      0.857530
  N       0.376807     -0.524428      0.255224
  H      -0.432276      0.089372      0.041658
  N      -2.162490      0.042810     -0.299935
  C      -3.416983      0.612666     -0.444408
  C      -3.788637      1.955661     -0.591842
  C      -5.148867      2.243943     -0.710890
  C      -6.124075      1.223347     -0.685568
  C      -5.771192     -0.121607     -0.541102
  C      -4.409052     -0.404153     -0.421625
  N      -3.702531     -1.587710     -0.265569
  C      -2.351050     -1.274524     -0.187171
  C      -1.304121     -2.269201      0.007395
  C       0.047912     -1.872762      0.260588
  C       1.016881     -2.869199      0.497520
  C       0.677388     -4.217058      0.472011
  C      -0.639122     -4.617220      0.199786
  C      -1.607789     -3.646279     -0.026794
  C       1.266920      1.961551      0.594995
  C       1.961780      2.823050     -0.264540
  C       1.540574      4.148603     -0.417148
  C       0.422203      4.615101      0.280032
  C      -0.271901      3.756725      1.142329
  C       0.152568      2.437966      1.307476
  C       3.061649     -0.125904     -0.393276
  C       2.706293     -0.307237     -1.739733
  C       3.692633     -0.561593     -2.695592
  C       5.037544     -0.632850     -2.313212
  C       5.393726     -0.453599     -0.971937
  C       4.408330     -0.203460     -0.012351
  H      -3.031848      2.736913     -0.610464
  H      -5.469941      3.277442     -0.826287
  H      -7.174988      1.489168     -0.781392
  H      -6.526651     -0.905033     -0.522160
  H      -4.104676     -2.506780     -0.139541
  H       2.038073     -2.573250      0.716374
  H       1.446903     -4.963842      0.659669
  H      -0.902132     -5.671992      0.165382
  H      -2.622490     -3.968615     -0.255773
  H       2.826704      2.462604     -0.815563
  H       2.085664      4.814229     -1.084369
  H       0.093788      5.645847      0.156560
  H      -1.140161      4.117137      1.691438
  H      -0.374790      1.777271      1.992177
  H       1.659652     -0.258235     -2.031660
  H       3.412042     -0.709681     -3.737152
  H       5.805251     -0.834220     -3.058712
  H       6.438403     -0.514359     -0.671355
  H       4.668369     -0.081890      1.037302
>
50
-1868.40394427; 31P isotropic shielding: 214.408525 ppm
  S       2.591632     -0.016262      2.746633
  P       1.803643      0.318204      0.986019
  N       0.350010     -0.462219      0.594773
  H      -0.480879      0.130961      0.411018
  N      -2.149767      0.027761     -0.163331
  C      -3.397383      0.550786     -0.462357
  C      -3.811870      1.882873     -0.595113
  C      -5.151905      2.118407     -0.905017
  C      -6.066100      1.056962     -1.080486
  C      -5.670198     -0.277554     -0.952191
  C      -4.328361     -0.507256     -0.641868
  N      -3.592545     -1.666399     -0.444364
  C      -2.284109     -1.301311     -0.152451
  C      -1.221723     -2.260372      0.122379
  C       0.085195     -1.821142      0.510050
  C       1.076194     -2.787283      0.781852
  C       0.801654     -4.145046      0.665939
  C      -0.470569     -4.586282      0.273715
  C      -1.460267     -3.646290      0.011459
  C       1.276132      2.047192      0.693345
  C       0.625155      2.413871     -0.496913
  C       0.216836      3.735004     -0.691416
  C       0.462992      4.698374      0.294336
  C       1.118009      4.336485      1.475865
  C       1.523722      3.013490      1.676175
  C       2.926636     -0.107366     -0.396895
  C       4.313622     -0.022560     -0.206556
  C       5.185137     -0.305940     -1.261204
  C       4.677885     -0.686022     -2.509010
  C       3.295132     -0.782325     -2.699730
  C       2.420978     -0.491517     -1.649055
  H      -3.103466      2.696297     -0.453730
  H      -5.505258      3.142139     -1.012963
  H      -7.103368      1.282364     -1.320414
  H      -6.378960     -1.092508     -1.087716
  H      -3.959306     -2.608501     -0.441702
  H       2.058710     -2.459412      1.107743
  H       1.586534     -4.867057      0.884459
  H      -0.684397     -5.648326      0.177628
  H      -2.439670     -4.001162     -0.305700
  H       0.426777      1.674437     -1.268365
  H      -0.291365      4.012620     -1.613480
  H       0.145208      5.728396      0.139877
  H       1.310242      5.082554      2.245110
  H       2.025004      2.713553      2.594531
  H       4.698021      0.248965      0.774440
  H       6.260731     -0.237661     -1.106551
  H       5.358235     -0.914467     -3.327907
  H       2.896359     -1.090473     -3.664967
  H       1.347878     -0.582284     -1.796794
>
50
-1868.40447980; 31P isotropic shielding: 219.380129 ppm
  S       3.513525     -0.526195      1.463587
  P       1.799879      0.254233      0.947655
  N       0.420799     -0.318188      1.814757
  H      -0.415414      0.217940      1.524051
  N      -1.982677      0.034281      0.450045
  C      -2.729248      0.552020     -0.597667
  C      -3.207786      1.851749     -0.809770
  C      -3.891695      2.109377     -1.998228
  C      -4.104043      1.098150     -2.961053
  C      -3.638672     -0.204429     -2.765361
  C      -2.952652     -0.454505     -1.575847
  N      -2.332131     -1.584498     -1.069975
  C      -1.745066     -1.237319      0.137166
  C      -0.937429     -2.173777      0.911939
  C       0.134647     -1.706686      1.720472
  C       0.939902     -2.633870      2.398345
  C       0.696910     -4.002206      2.284689
  C      -0.368160     -4.470530      1.504688
  C      -1.178994     -3.558955      0.832691
  C       1.655380      2.050878      1.190753
  C       2.379204      2.900442      0.337470
  C       2.338541      4.282474      0.524624
  C       1.582119      4.827261      1.570180
  C       0.870686      3.983918      2.428671
  C       0.906653      2.597991      2.242931
  C       1.353118     -0.056034     -0.801761
  C       0.472663      0.792548     -1.492530
  C       0.017495      0.449012     -2.766826
  C       0.427016     -0.752844     -3.355584
  C       1.302585     -1.603171     -2.670655
  C       1.769122     -1.255036     -1.399825
  H      -3.039195      2.629094     -0.067567
  H      -4.272327      3.110476     -2.191835
  H      -4.642058      1.339170     -3.875859
  H      -3.798526     -0.980085     -3.512025
  H      -2.160707     -2.446913     -1.571087
  H       1.757153     -2.259782      3.006324
  H       1.331556     -4.705601      2.820759
  H      -0.573670     -5.536848      1.435505
  H      -2.029832     -3.920522      0.256533
  H       2.975038      2.477619     -0.469179
  H       2.899361      4.935316     -0.142069
  H       1.552949      5.905706      1.716968
  H       0.287649      4.402670      3.247281
  H       0.364521      1.943548      2.920650
  H       0.131689      1.716079     -1.032939
  H      -0.667303      1.111781     -3.291705
  H       0.070037     -1.020870     -4.349067
  H       1.630709     -2.535030     -3.129087
  H       2.462779     -1.900838     -0.865435
>
50
-1868.40170329; 31P isotropic shielding: 202.805618 ppm
  S       3.599501     -0.711365      1.218053
  P       1.882457      0.142367      0.851204
  N       0.547227     -0.425241      1.786812
  H      -0.285608      0.158035      1.595433
  N      -1.926079      0.097121      0.613463
  C      -2.717824      0.700409     -0.352092
  C      -3.152507      2.027837     -0.463405
  C      -3.901582      2.377037     -1.587470
  C      -4.220711      1.429342     -2.584764
  C      -3.800602      0.100501     -2.489002
  C      -3.049030     -0.241375     -1.363629
  N      -2.445910     -1.421162     -0.960863
  C      -1.764386     -1.163693      0.218833
  C      -0.947476     -2.172773      0.885225
  C       0.197057     -1.794170      1.638872
  C       1.007737     -2.788424      2.206101
  C       0.699242     -4.137751      2.037064
  C      -0.436963     -4.519484      1.312169
  C      -1.253030     -3.540816      0.749815
  C       1.813206      1.931060      1.173195
  C       1.129638      2.463816      2.275700
  C       1.148883      3.842651      2.510810
  C       1.850805      4.693035      1.651532
  C       2.542734      4.162092      0.555420
  C       2.528139      2.787171      0.318839
  C       1.309718     -0.078531     -0.874733
  C       1.641958     -1.262912     -1.549644
  C       1.081663     -1.537323     -2.800464
  C       0.196383     -0.627296     -3.389549
  C      -0.129584      0.560101     -2.724238
  C       0.418697      0.829767     -1.468957
  H      -2.900884      2.756116      0.304623
  H      -4.249967      3.401690     -1.702622
  H      -4.806893      1.741400     -3.446970
  H      -4.042793     -0.626130     -3.262336
  H      -2.342314     -2.259599     -1.518171
  H       1.880083     -2.480581      2.773355
  H       1.339041     -4.894483      2.487526
  H      -0.692491     -5.571393      1.201540
  H      -2.156496     -3.836224      0.217775
  H       0.595423      1.804538      2.954946
  H       0.616456      4.250028      3.368686
  H       1.864688      5.765822      1.836864
  H       3.096469      4.819980     -0.112207
  H       3.074796      2.374673     -0.527066
  H       2.343954     -1.955600     -1.090174
  H       1.344813     -2.458415     -3.318596
  H      -0.232364     -0.838139     -4.368359
  H      -0.820698      1.269479     -3.174573
  H       0.139825      1.742016     -0.949173
>
50
-1868.40167760; 31P isotropic shielding: 203.225613 ppm
  S       3.289247     -1.216668      1.617007
  P       1.977404     -0.489767      0.366920
  N       0.914727     -1.641251     -0.358964
  H       0.331094     -1.172934     -1.073201
  N      -1.453058     -0.515310     -1.309467
  C      -2.252004      0.574988     -1.618921
  C      -2.198658      1.452865     -2.709676
  C      -3.102099      2.515680     -2.736675
  C      -4.047553      2.706506     -1.705083
  C      -4.119234      1.839394     -0.612126
  C      -3.210021      0.780500     -0.589336
  N      -2.966476     -0.228135      0.328006
  C      -1.888482     -0.966871     -0.135685
  C      -1.310672     -2.069137      0.626136
  C       0.072842     -2.377811      0.517416
  C       0.615682     -3.394828      1.316484
  C      -0.188017     -4.101063      2.210831
  C      -1.555816     -3.816376      2.311111
  C      -2.107406     -2.813148      1.517852
  C       0.831084      0.717827      1.130671
  C       0.481127      0.554037      2.479424
  C      -0.519101      1.349643      3.045509
  C      -1.168304      2.319268      2.272751
  C      -0.815709      2.492484      0.929405
  C       0.174194      1.690201      0.358964
  C       2.670314      0.334374     -1.098340
  C       2.674497     -0.277888     -2.360115
  C       3.275320      0.365381     -3.447223
  C       3.876485      1.616457     -3.279848
  C       3.882775      2.225087     -2.018335
  C       3.286566      1.585873     -0.930823
  H      -1.466996      1.305326     -3.501180
  H      -3.082317      3.215523     -3.569957
  H      -4.735569      3.547728     -1.763068
  H      -4.844260      1.993019      0.184979
  H      -3.355053     -0.293349      1.260241
  H       1.674508     -3.613669      1.224065
  H       0.251951     -4.888344      2.820347
  H      -2.188941     -4.383772      2.990250
  H      -3.177637     -2.616700      1.568777
  H       1.002645     -0.191702      3.075766
  H      -0.784651      1.217607      4.093448
  H      -1.941868      2.944248      2.716977
  H      -1.320550      3.240044      0.321225
  H       0.423724      1.815318     -0.690935
  H       2.221559     -1.257496     -2.489883
  H       3.275166     -0.114977     -4.424274
  H       4.344011      2.114887     -4.127425
  H       4.355882      3.196100     -1.882398
  H       3.300851      2.055130      0.050974
>
50
-1868.40150997; 31P isotropic shielding: 202.732782 ppm
  S       3.340233     -0.845651      1.639220
  P       1.955016     -0.339478      0.360177
  N       0.919179     -1.615115     -0.168670
  H       0.284879     -1.263625     -0.906941
  N      -1.532439     -0.715383     -1.144696
  C      -2.387202      0.300509     -1.545938
  C      -2.415979      1.039775     -2.735948
  C      -3.360650      2.060419     -2.847545
  C      -4.266945      2.344131     -1.802256
  C      -4.257265      1.614892     -0.610856
  C      -3.307357      0.597829     -0.504366
  N      -2.984395     -0.281096      0.515871
  C      -1.898451     -1.033299      0.094799
  C      -1.242965     -2.010246      0.958308
  C       0.148077     -2.272444      0.827305
  C       0.767547     -3.161731      1.717745
  C       0.031570     -3.786837      2.723766
  C      -1.343031     -3.548236      2.848955
  C      -1.970269     -2.672050      1.966416
  C       0.783984      0.910705      1.008388
  C       0.473944      0.896214      2.376789
  C      -0.539403      1.720420      2.874348
  C      -1.240887      2.571175      2.012418
  C      -0.927584      2.596395      0.648675
  C       0.075562      1.764589      0.147630
  C       2.557350      0.316250     -1.226063
  C       3.175545      1.577951     -1.229521
  C       3.693599      2.101969     -2.414266
  C       3.606628      1.367316     -3.603777
  C       3.003541      0.106224     -3.601319
  C       2.480507     -0.421698     -2.416143
  H      -1.713646      0.821515     -3.537596
  H      -3.404126      2.653678     -3.758971
  H      -4.988655      3.148970     -1.927885
  H      -4.952463      1.840534      0.195667
  H      -3.330938     -0.246213      1.466102
  H       1.830934     -3.347034      1.606093
  H       0.529808     -4.476619      3.402646
  H      -1.922776     -4.054760      3.617951
  H      -3.045574     -2.514078      2.039729
  H       1.036835      0.243635      3.040922
  H      -0.773861      1.704514      3.937826
  H      -2.024646      3.218990      2.402693
  H      -1.473298      3.250839     -0.027739
  H       0.294469      1.772283     -0.916450
  H       3.254258      2.144873     -0.303740
  H       4.168868      3.081407     -2.410027
  H       4.013444      1.775861     -4.527367
  H       2.941280     -0.471844     -4.521825
  H       2.026048     -1.409023     -2.415634
>
50
-1868.40158540; 31P isotropic shielding: 203.192917 ppm
  S       3.351331     -0.929916      1.578945
  P       1.936269     -0.416172      0.335043
  N       0.948517     -1.721458     -0.220148
  H       0.360841     -1.416474     -1.007650
  N      -1.476021     -0.720208     -1.252402
  C      -2.267829      0.351834     -1.639723
  C      -2.266722      1.094307     -2.828518
  C      -3.146153      2.172717     -2.926187
  C      -4.018472      2.510860     -1.868388
  C      -4.040909      1.777798     -0.679800
  C      -3.156798      0.701722     -0.587877
  N      -2.885419     -0.204945      0.422127
  C      -1.852686     -1.021427     -0.011614
  C      -1.257270     -2.035903      0.852997
  C       0.124756     -2.349614      0.755016
  C       0.695403     -3.246728      1.668755
  C      -0.083050     -3.836104      2.664565
  C      -1.451669     -3.551088      2.753692
  C      -2.029500     -2.662617      1.849714
  C       0.737249      0.757391      1.077655
  C       0.334273      0.532059      2.405254
  C      -0.668666      1.316651      2.978752
  C      -1.268268      2.343939      2.240062
  C      -0.860430      2.582305      0.923824
  C       0.132411      1.789250      0.342618
  C       2.490169      0.328222     -1.236354
  C       3.784933      0.863955     -1.293060
  C       4.242792      1.473579     -2.464153
  C       3.412996      1.548073     -3.587711
  C       2.122303      1.010547     -3.537225
  C       1.658140      0.404283     -2.367123
  H      -1.597737      0.831618     -3.645105
  H      -3.164523      2.768949     -3.836477
  H      -4.688810      3.360484     -1.982976
  H      -4.711231      2.043071      0.135521
  H      -3.200126     -0.137857      1.381849
  H       1.755694     -3.463214      1.583182
  H       0.375988     -4.533540      3.362903
  H      -2.065454     -4.030006      3.513975
  H      -3.099190     -2.463500      1.900214
  H       0.820632     -0.248493      2.985371
  H      -0.971516      1.134195      4.008930
  H      -2.041411      2.963724      2.692307
  H      -1.320026      3.379158      0.342882
  H       0.430024      1.978413     -0.684450
  H       4.427637      0.784620     -0.418792
  H       5.250257      1.884515     -2.500012
  H       3.771740      2.019240     -4.501429
  H       1.474134      1.061710     -4.410576
  H       0.648498      0.001775     -2.345203
>
50
-1868.40097857; 31P isotropic shielding: 198.906121 ppm
  S       3.549359     -0.500102      1.353968
  P       1.778903      0.209158      0.934044
  N       0.486021     -0.469633      1.857927
  H      -0.372280      0.083560      1.734589
  N      -1.978139      0.004414      0.577058
  C      -2.717962      0.618366     -0.423947
  C      -3.223900      1.923022     -0.503565
  C      -3.894729      2.293673     -1.669095
  C      -4.068690      1.388459     -2.738949
  C      -3.579288      0.081798     -2.675065
  C      -2.907227     -0.281696     -1.507012
  N      -2.279638     -1.450254     -1.110877
  C      -1.714799     -1.223169      0.134492
  C      -0.897434     -2.229226      0.805564
  C       0.194554     -1.842915      1.627962
  C       1.030653     -2.827499      2.172992
  C       0.793892     -4.178392      1.920115
  C      -0.295345     -4.569647      1.130894
  C      -1.133676     -3.599810      0.585764
  C       1.547635      1.995614      1.228502
  C       2.689545      2.801896      1.338793
  C       2.560588      4.179633      1.534305
  C       1.291277      4.760083      1.625379
  C       0.149236      3.958627      1.519951
  C       0.272750      2.581515      1.319680
  C       1.287070     -0.106541     -0.805619
  C       1.591049     -1.364273     -1.354685
  C       1.124915     -1.709034     -2.625282
  C       0.364581     -0.797319     -3.367679
  C       0.072952      0.461538     -2.832907
  C       0.525976      0.803545     -1.556014
  H      -3.092942      2.618795      0.322350
  H      -4.295391      3.301487     -1.759969
  H      -4.597139      1.716073     -3.632121
  H      -3.712776     -0.612718     -3.502335
  H      -2.058538     -2.237638     -1.707471
  H       1.866635     -2.509063      2.787927
  H       1.451331     -4.929555      2.354144
  H      -0.496557     -5.624400      0.954354
  H      -1.997668     -3.905358     -0.002953
  H       3.671448      2.336592      1.283064
  H       3.452265      4.798052      1.621567
  H       1.191306      5.832939      1.782289
  H      -0.840827      4.405587      1.594756
  H      -0.625719      1.976245      1.229708
  H       2.203964     -2.059790     -0.786413
  H       1.367926     -2.686018     -3.040845
  H       0.011549     -1.061988     -4.363531
  H      -0.516352      1.176471     -3.403313
  H       0.281236      1.780097     -1.149089
>
50
-1868.40093169; 31P isotropic shielding: 199.032894 ppm
  S       3.260381     -0.985411      1.713742
  P       1.906719     -0.445521      0.413785
  N       0.915534     -1.731727     -0.178738
  H       0.361675     -1.413248     -0.985290
  N      -1.450174     -0.685613     -1.296603
  C      -2.207115      0.401382     -1.711347
  C      -2.150046      1.143217     -2.899139
  C      -3.005587      2.237527     -3.027877
  C      -3.908721      2.592125     -2.001796
  C      -3.986781      1.860055     -0.814856
  C      -3.126352      0.768117     -0.691766
  N      -2.908876     -0.143726      0.326619
  C      -1.876982     -0.979720     -0.070429
  C      -1.332621     -2.005581      0.814264
  C       0.045905     -2.345258      0.765487
  C       0.566827     -3.252833      1.698361
  C      -0.257640     -3.827227      2.665468
  C      -1.622976     -3.516450      2.705943
  C      -2.151607     -2.617365      1.782487
  C       0.703640      0.754197      1.106671
  C       0.153295      1.799438      0.348381
  C      -0.845110      2.614331      0.888625
  C      -1.312007      2.385404      2.186769
  C      -0.766242      1.345287      2.948924
  C       0.241467      0.538178      2.416501
  C       2.537140      0.283019     -1.136395
  C       1.747907      0.380068     -2.295955
  C       2.269330      0.972302     -3.448940
  C       3.575170      1.474660     -3.453607
  C       4.362371      1.379275     -2.301352
  C       3.846970      0.783741     -1.146955
  H      -1.457664      0.867643     -3.691618
  H      -2.980474      2.833463     -3.938198
  H      -4.559095      3.453661     -2.140031
  H      -4.681069      2.137486     -0.023995
  H      -3.254668     -0.069536      1.275084
  H       1.625305     -3.488831      1.650477
  H       0.163082     -4.532882      3.379508
  H      -2.272209     -3.983768      3.443686
  H      -3.218461     -2.398092      1.795008
  H       0.497996      1.982382     -0.664998
  H      -1.262888      3.421071      0.289960
  H      -2.089305      3.022095      2.607260
  H      -1.114797      1.170235      3.965866
  H       0.686686     -0.252634      3.015424
  H       0.727759      0.004818     -2.309017
  H       1.654119      1.040029     -4.344733
  H       3.978644      1.934916     -4.354147
  H       5.381093      1.763123     -2.301659
  H       4.455453      0.688678     -0.250057
>
50
-1868.40092986; 31P isotropic shielding: 198.829734 ppm
  S       3.506689     -0.562214      1.448882
  P       1.761522      0.180670      0.983484
  N       0.434189     -0.464418      1.881971
  H      -0.409141      0.105692      1.735135
  N      -1.987868      0.052564      0.537934
  C      -2.689936      0.675675     -0.484315
  C      -3.168567      1.989339     -0.582449
  C      -3.803176      2.366807     -1.765929
  C      -3.968120      1.459615     -2.835552
  C      -3.505775      0.144164     -2.753516
  C      -2.869904     -0.226117     -1.567484
  N      -2.275652     -1.404689     -1.150203
  C      -1.737947     -1.182264      0.107904
  C      -0.958796     -2.201152      0.804530
  C       0.119400     -1.832769      1.652839
  C       0.920840     -2.831027      2.224187
  C       0.662803     -4.178216      1.972261
  C      -0.413483     -4.551495      1.157013
  C      -1.217443     -3.567784      0.585549
  C       1.561121      1.974038      1.258701
  C       0.297243      2.587134      1.319221
  C       0.198840      3.968525      1.503403
  C       1.355123      4.747253      1.622944
  C       2.613508      4.139702      1.562422
  C       2.717253      2.757645      1.383221
  C       1.303689     -0.137193     -0.765141
  C       1.590829     -1.405971     -1.297658
  C       1.149455     -1.748540     -2.577616
  C       0.431200     -0.823933     -3.345602
  C       0.156593      0.445406     -2.826957
  C       0.584789      0.785709     -1.541070
  H      -3.044817      2.686645      0.243286
  H      -4.182147      3.381559     -1.871344
  H      -4.468095      1.792654     -3.742986
  H      -3.632345     -0.551982     -3.580476
  H      -2.054666     -2.199064     -1.737498
  H       1.747062     -2.526426      2.859046
  H       1.293282     -4.940200      2.426897
  H      -0.631638     -5.602874      0.980547
  H      -2.071888     -3.858776     -0.024079
  H      -0.612164      2.000274      1.217695
  H      -0.782903      4.436643      1.554579
  H       1.274600      5.823529      1.767044
  H       3.516113      4.740346      1.660669
  H       3.690069      2.271513      1.350915
  H       2.171441     -2.112062     -0.708925
  H       1.379094     -2.734127     -2.980259
  H       0.097644     -1.087076     -4.348536
  H      -0.399660      1.170300     -3.417635
  H       0.353539      1.770770     -1.146947
>
50
-1868.40091234; 31P isotropic shielding: 198.998902 ppm
  S       3.541796     -0.421187      1.406449
  P       1.772743      0.264484      0.943677
  N       0.475944     -0.373863      1.890087
  H      -0.383572      0.169388      1.735412
  N      -1.982598      0.025811      0.570478
  C      -2.714801      0.587221     -0.466376
  C      -3.225912      1.883954     -0.613537
  C      -3.885379      2.195307     -1.802710
  C      -4.043069      1.239279     -2.830096
  C      -3.548529     -0.060344     -2.698564
  C      -2.888020     -0.364362     -1.507208
  N      -2.259012     -1.509321     -1.049301
  C      -1.708690     -1.220019      0.189744
  C      -0.892989     -2.188659      0.915667
  C       0.191242     -1.757848      1.725985
  C       1.026760     -2.710997      2.325098
  C       0.796720     -4.073656      2.137609
  C      -0.284924     -4.507761      1.360452
  C      -1.122508     -3.569315      0.761745
  C       1.536747      2.062005      1.154584
  C       2.677009      2.874369      1.232826
  C       2.545386      4.259318      1.364996
  C       1.274916      4.841342      1.424464
  C       0.134431      4.034138      1.350779
  C       0.260685      2.649529      1.213661
  C       1.292382     -0.131572     -0.782611
  C       0.534041      0.741509     -1.578586
  C       0.091437      0.340951     -2.842034
  C       0.390901     -0.939694     -3.317246
  C       1.148116     -1.814814     -2.529014
  C       1.603886     -1.411945     -1.271839
  H      -3.107676      2.618971      0.179697
  H      -4.289580      3.195579     -1.946036
  H      -4.562608      1.521338     -3.743811
  H      -3.668691     -0.794098     -3.493333
  H      -2.026034     -2.322342     -1.605623
  H       1.857068     -2.359098      2.929355
  H       1.453437     -4.799859      2.613196
  H      -0.480968     -5.570727      1.234695
  H      -1.980896     -3.906694      0.182273
  H       3.659836      2.408666      1.202729
  H       3.435859      4.882413      1.427870
  H       1.172785      5.920032      1.532288
  H      -0.856564      4.482405      1.401373
  H      -0.636731      2.039732      1.147452
  H       0.284117      1.734728     -1.217627
  H      -0.495514      1.027497     -3.448558
  H       0.046194     -1.250030     -4.302780
  H       1.396894     -2.808646     -2.898764
  H       2.214132     -2.079412     -0.668191
>
50
-1868.40094059; 31P isotropic shielding: 199.055511 ppm
  S      -0.030575      3.002035     -1.077543
  P       0.854122      1.342109     -0.556332
  N       0.537272      0.087231     -1.701892
  H      -0.453627      0.197253     -1.964860
  N      -2.135357     -0.563956     -1.183471
  C      -3.308709     -0.297426     -0.494227
  C      -4.291339      0.674645     -0.727707
  C      -5.354848      0.753347      0.170576
  C      -5.450480     -0.115756      1.280489
  C      -4.484251     -1.093249      1.527551
  C      -3.420815     -1.166531      0.625569
  N      -2.294098     -1.969504      0.567922
  C      -1.539312     -1.545990     -0.518203
  C      -0.216498     -2.095483     -0.799068
  C       0.802312     -1.268127     -1.345189
  C       2.098931     -1.782400     -1.480318
  C       2.397121     -3.088981     -1.091341
  C       1.392664     -3.915242     -0.573620
  C       0.097769     -3.418308     -0.437924
  C       2.667276      1.453507     -0.495690
  C       3.345153      1.699603      0.707272
  C       4.727730      1.908829      0.704000
  C       5.439176      1.881796     -0.499591
  C       4.762934      1.653148     -1.704775
  C       3.383203      1.444341     -1.704748
  C       0.311778      0.663783      1.059853
  C      -0.889107      1.133180      1.612695
  C      -1.413144      0.544885      2.765396
  C      -0.739759     -0.518130      3.377780
  C       0.460877     -0.989416      2.834221
  C       0.985988     -0.403730      1.678837
  H      -4.206901      1.348684     -1.576945
  H      -6.130284      1.501826      0.018960
  H      -6.296533     -0.020350      1.958576
  H      -4.559061     -1.758082      2.386177
  H      -1.946377     -2.554408      1.317531
  H       2.872275     -1.144405     -1.896447
  H       3.410684     -3.467796     -1.210337
  H       1.614753     -4.942312     -0.290944
  H      -0.690128     -4.066750     -0.056971
  H       2.795888      1.733961      1.645047
  H       5.247381      2.096311      1.642179
  H       6.515420      2.046309     -0.500922
  H       5.311280      1.644170     -2.645386
  H       2.851405      1.281186     -2.639624
  H      -1.406180      1.955496      1.123219
  H      -2.349617      0.911913      3.180231
  H      -1.143874     -0.972638      4.281586
  H       0.993112     -1.811879      3.309896
  H       1.915665     -0.782998      1.263913
>
50
-1868.39942969; 31P isotropic shielding: 199.561084 ppm
  S       3.203023     -1.245195      1.817718
  P       1.989068     -0.524827      0.469171
  N       0.986962     -1.681867     -0.331122
  H       0.447223     -1.214314     -1.079538
  N      -1.324081     -0.554538     -1.421037
  C      -2.102253      0.539771     -1.767913
  C      -1.987310      1.423926     -2.848902
  C      -2.884746      2.489866     -2.918552
  C      -3.884318      2.677858     -1.938814
  C      -4.017984      1.804404     -0.856864
  C      -3.114674      0.742417     -0.791142
  N      -2.924413     -0.271636      0.132417
  C      -1.824517     -1.010849     -0.275605
  C      -1.294288     -2.120164      0.510858
  C       0.093336     -2.427704      0.484731
  C       0.586927     -3.452586      1.305147
  C      -0.270176     -4.168438      2.140392
  C      -1.641715     -3.884571      2.159047
  C      -2.144265     -2.873004      1.343904
  C       0.788275      0.683755      1.141013
  C       0.207474      1.668546      0.325884
  C      -0.815977      2.479131      0.820595
  C      -1.277964      2.301766      2.129635
  C      -0.705789      1.318421      2.944780
  C       0.327768      0.514547      2.455583
  C       2.788833      0.295989     -0.943037
  C       3.412545      1.536192     -0.725707
  C       4.083428      2.176196     -1.768241
  C       4.144959      1.579668     -3.034101
  C       3.536311      0.339911     -3.250453
  C       2.860526     -0.304001     -2.208563
  H      -1.213912      1.278818     -3.600167
  H      -2.817221      3.194522     -3.745269
  H      -4.565233      3.522040     -2.028902
  H      -4.785056      1.956144     -0.099712
  H      -3.363174     -0.340577      1.041839
  H       1.649688     -3.670142      1.275970
  H       0.131716     -4.962202      2.767517
  H      -2.314958     -4.459148      2.792035
  H      -3.215627     -2.676610      1.330766
  H       0.542927      1.797215     -0.699433
  H      -1.261789      3.236523      0.179353
  H      -2.077490      2.933321      2.514513
  H      -1.056632      1.182837      3.966904
  H       0.791535     -0.240842      3.086498
  H       3.374324      1.996039      0.259949
  H       4.562087      3.138246     -1.593562
  H       4.671003      2.078434     -3.846460
  H       3.588442     -0.131325     -4.230564
  H       2.401978     -1.275066     -2.376759
>
50
-1868.40145974; 31P isotropic shielding: 203.012545 ppm
  S       0.867186      1.602652      2.463217
  P       1.413152      0.681750      0.828697
  N       0.164339     -0.317302      0.249296
  H      -0.673297     -0.339082      0.861737
  N      -2.440345     -0.703496      0.793732
  C      -3.737917     -0.642245      1.277152
  C      -4.211271     -0.365566      2.567109
  C      -5.591997     -0.365144      2.766308
  C      -6.490614     -0.633685      1.710507
  C      -6.037434     -0.912887      0.418381
  C      -4.654349     -0.912047      0.225165
  N      -3.860584     -1.139119     -0.888993
  C      -2.532324     -0.996206     -0.503233
  C      -1.412123     -1.147426     -1.424244
  C      -0.081228     -0.784556     -1.040128
  C       0.952859     -0.923394     -1.988549
  C       0.699826     -1.392782     -3.273275
  C      -0.596827     -1.762696     -3.652039
  C      -1.628128     -1.641863     -2.726912
  C       1.797704      1.801357     -0.564688
  C       0.774333      2.666123     -0.987671
  C       0.993992      3.549963     -2.043764
  C       2.241239      3.587459     -2.681227
  C       3.263810      2.733327     -2.259844
  C       3.042329      1.838080     -1.207551
  C       2.873933     -0.385551      1.051388
  C       2.826915     -1.759830      0.777867
  C       3.949989     -2.560966      1.011247
  C       5.124495     -1.994361      1.514452
  C       5.172507     -0.623165      1.798107
  C       4.051062      0.176791      1.575547
  H      -3.514672     -0.155401      3.375513
  H      -5.990289     -0.152492      3.756547
  H      -7.560960     -0.622915      1.907264
  H      -6.733452     -1.119382     -0.392755
  H      -4.191876     -1.288754     -1.832417
  H       1.968338     -0.666756     -1.710731
  H       1.524044     -1.485230     -3.978412
  H      -0.796457     -2.148586     -4.649072
  H      -2.626698     -1.962591     -3.019286
  H      -0.188164      2.647415     -0.479685
  H       0.194779      4.214147     -2.368654
  H       2.413386      4.281247     -3.502505
  H       4.235154      2.758644     -2.751243
  H       3.838073      1.166307     -0.896065
  H       1.910853     -2.206120      0.400734
  H       3.903109     -3.628778      0.803741
  H       5.997349     -2.619247      1.696429
  H       6.080385     -0.181001      2.204990
  H       4.075369      1.234958      1.828518
>
50
-1868.39951999; 31P isotropic shielding: 210.849993 ppm
  S       2.992760     -1.759301      0.612498
  P       1.836046     -0.190408      0.443585
  N       0.157786     -0.450578      0.464071
  H      -0.367412     -0.213021     -0.399191
  N      -1.955752     -0.362045     -1.143341
  C      -2.847110     -0.285541     -2.201083
  C      -2.714644      0.330702     -3.452673
  C      -3.790267      0.242088     -4.337308
  C      -4.975398     -0.442688     -3.991329
  C      -5.125368     -1.061874     -2.747012
  C      -4.045940     -0.970657     -1.865995
  N      -3.836831     -1.446376     -0.579852
  C      -2.560695     -1.065799     -0.182710
  C      -1.982714     -1.411764      1.109510
  C      -0.611442     -1.121670      1.402809
  C      -0.082503     -1.516173      2.649113
  C      -0.875854     -2.164077      3.589092
  C      -2.226203     -2.432887      3.321112
  C      -2.759786     -2.057808      2.093528
  C       2.121056      1.076049      1.730098
  C       1.106743      1.986520      2.067243
  C       1.337318      2.961743      3.040797
  C       2.581301      3.035474      3.678390
  C       3.593447      2.128570      3.344328
  C       3.363803      1.147980      2.375102
  C       1.931872      0.671481     -1.163675
  C       2.275895      2.025806     -1.270667
  C       2.326439      2.637241     -2.528274
  C       2.025771      1.902925     -3.679229
  C       1.685199      0.548236     -3.574761
  C       1.647139     -0.068970     -2.323920
  H      -1.798095      0.855713     -3.712976
  H      -3.718425      0.709800     -5.317437
  H      -5.791640     -0.489698     -4.709552
  H      -6.041236     -1.588624     -2.485064
  H      -4.465312     -2.042700     -0.058642
  H       0.964001     -1.323718      2.864572
  H      -0.439682     -2.458269      4.542150
  H      -2.850182     -2.928939      4.061053
  H      -3.813571     -2.256236      1.903716
  H       0.139409      1.922865      1.574237
  H       0.545133      3.660149      3.305822
  H       2.758917      3.794334      4.438858
  H       4.559947      2.180444      3.842888
  H       4.133795      0.422711      2.120131
  H       2.501515      2.604223     -0.378425
  H       2.597567      3.688854     -2.605868
  H       2.061563      2.382055     -4.656352
  H       1.455874     -0.029006     -4.468908
  H       1.403864     -1.126432     -2.243259
>
50
-1868.40420082; 31P isotropic shielding: 215.048962 ppm
  S       2.973267     -1.763497      0.492860
  P       1.831173     -0.178992      0.382077
  N       0.151714     -0.419763      0.467634
  H      -0.400723     -0.185725     -0.379577
  N      -2.005366     -0.357564     -1.083556
  C      -2.921329     -0.300418     -2.121293
  C      -2.828366      0.315978     -3.376287
  C      -3.920553      0.203571     -4.237623
  C      -5.083655     -0.504721     -3.865081
  C      -5.194180     -1.124384     -2.616872
  C      -4.098249     -1.009435     -1.759294
  N      -3.850972     -1.479594     -0.477876
  C      -2.574072     -1.073107     -0.109647
  C      -1.958732     -1.410059      1.167463
  C      -0.583712     -1.104268      1.424077
  C      -0.015784     -1.497476      2.653448
  C      -0.775342     -2.156802      3.613162
  C      -2.129913     -2.438769      3.382302
  C      -2.701402     -2.066513      2.170967
  C       2.183255      1.073351      1.665356
  C       3.454826      1.130404      2.253358
  C       3.735837      2.099868      3.220188
  C       2.746915      3.010556      3.609178
  C       1.474509      2.951698      3.028789
  C       1.192366      1.987673      2.057599
  C       1.874019      0.694022     -1.221725
  C       2.205797      2.051282     -1.330255
  C       2.213339      2.670951     -2.584781
  C       1.881939      1.941803     -3.730632
  C       1.553118      0.584382     -3.624556
  C       1.557653     -0.040934     -2.377121
  H      -1.928090      0.858501     -3.656757
  H      -3.879452      0.670435     -5.219917
  H      -5.913921     -0.570139     -4.565568
  H      -6.093031     -1.669577     -2.334528
  H      -4.455211     -2.088493      0.057311
  H       1.033926     -1.293302      2.840343
  H      -0.309601     -2.449406      4.552608
  H      -2.727855     -2.942898      4.138105
  H      -3.757896     -2.275682      2.009857
  H       4.207138      0.402201      1.957271
  H       4.724485      2.140013      3.674425
  H       2.964860      3.760646      4.367851
  H       0.700315      3.652935      3.336102
  H       0.203087      1.935718      1.608742
  H       2.455303      2.625182     -0.441499
  H       2.475281      3.724760     -2.664129
  H       1.884793      2.427246     -4.705289
  H       1.299886      0.011185     -4.514851
  H       1.323904     -1.100442     -2.295059
>
50
-1868.40417905; 31P isotropic shielding: 214.769530 ppm
  S       2.256289     -0.272135      2.590186
  P       1.668346      0.169683      0.777353
  N       0.218448     -0.531585      0.233764
  H      -0.576736      0.110255      0.052799
  N      -2.319923      0.122863     -0.224568
  C      -3.558630      0.735701     -0.321121
  C      -3.889153      2.090931     -0.454410
  C      -5.242194      2.426059     -0.520337
  C      -6.250254      1.439670     -0.456709
  C      -5.938738      0.083158     -0.326081
  C      -4.583522     -0.246388     -0.259692
  N      -3.912701     -1.453802     -0.130910
  C      -2.549192     -1.187220     -0.103840
  C      -1.530333     -2.217228      0.052284
  C      -0.156751     -1.867563      0.253838
  C       0.785143     -2.897043      0.456582
  C       0.398562     -4.232362      0.446057
  C      -0.940194     -4.586837      0.223844
  C      -1.882401     -3.582939      0.032081
  C       1.218937      1.919970      0.516927
  C       0.159051      2.450045      1.272932
  C      -0.218012      3.783488      1.110047
  C       0.470708      4.602657      0.206316
  C       1.536029      4.082443     -0.534591
  C       1.908786      2.742250     -0.384221
  C       2.892172     -0.246722     -0.514713
  C       2.482802     -0.432948     -1.844882
  C       3.424618     -0.737856     -2.830542
  C       4.778627     -0.854695     -2.494368
  C       5.188598     -0.670469     -1.169185
  C       4.247780     -0.370216     -0.179882
  H      -3.107085      2.845576     -0.502748
  H      -5.531722      3.470141     -0.623478
  H      -7.294320      1.741754     -0.511291
  H      -6.719712     -0.673533     -0.277603
  H      -4.341275     -2.357990      0.014396
  H       1.823340     -2.636644      0.636927
  H       1.148263     -5.005236      0.606386
  H      -1.240685     -5.631884      0.201367
  H      -2.915702     -3.869755     -0.157678
  H      -0.362632      1.819636      1.989822
  H      -1.044423      4.185881      1.693513
  H       0.179669      5.644818      0.084807
  H       2.077133      4.717530     -1.234067
  H       2.732259      2.339983     -0.968681
  H       1.429094     -0.348744     -2.101374
  H       3.101793     -0.889925     -3.859237
  H       5.511305     -1.095198     -3.263173
  H       6.240310     -0.766508     -0.904451
  H       4.548532     -0.244569      0.858307
>
50
-1868.40396916; 31P isotropic shielding: 214.293910 ppm
  S       2.372286     -0.338385      2.559384
  P       1.710732      0.149618      0.783832
  N       0.234010     -0.528058      0.286179
  H      -0.560160      0.125958      0.148761
  N      -2.302360      0.156776     -0.129740
  C      -3.538524      0.776923     -0.212655
  C      -3.864447      2.137835     -0.286654
  C      -5.215765      2.479325     -0.354699
  C      -6.226685      1.493822     -0.350557
  C      -5.919816      0.131878     -0.279096
  C      -4.566292     -0.204002     -0.210315
  N      -3.899971     -1.418023     -0.130168
  C      -2.536162     -1.157010     -0.074012
  C      -1.522063     -2.196977      0.042971
  C      -0.146259     -1.861927      0.254642
  C       0.791953     -2.902716      0.412593
  C       0.399383     -4.234814      0.349321
  C      -0.941783     -4.574276      0.118251
  C      -1.880154     -3.559381     -0.029595
  C       1.254963      1.907310      0.585972
  C       0.338863      2.452244      1.501744
  C      -0.068164      3.781116      1.377054
  C       0.449640      4.580622      0.350074
  C       1.373723      4.045446     -0.552221
  C       1.773613      2.709254     -0.439625
  C       2.875545     -0.243463     -0.567915
  C       4.249848     -0.321246     -0.300379
  C       5.149026     -0.602163     -1.332665
  C       4.679326     -0.815057     -2.633766
  C       3.307445     -0.745347     -2.902494
  C       2.406511     -0.457908     -1.873904
  H      -3.080301      2.891885     -0.288248
  H      -5.501731      3.527862     -0.412539
  H      -7.269263      1.801082     -0.404758
  H      -6.702817     -0.624268     -0.276176
  H      -4.332624     -2.326719     -0.033516
  H       1.831396     -2.653616      0.601863
  H       1.146076     -5.016722      0.476469
  H      -1.247260     -5.616241      0.055867
  H      -2.915452     -3.834269     -0.225681
  H      -0.044058      1.834906      2.311882
  H      -0.784295      4.195487      2.084692
  H       0.137002      5.619574      0.258185
  H       1.783341      4.665608     -1.347869
  H       2.485154      2.295836     -1.149746
  H       4.598307     -0.176469      0.720154
  H       6.215177     -0.661975     -1.120306
  H       5.380031     -1.041688     -3.435863
  H       2.938584     -0.920221     -3.911897
  H       1.339371     -0.408723     -2.077728
>
50
-1868.40486574; 31P isotropic shielding: 214.824749 ppm
  S       2.647817      0.139459      2.956327
  P       1.914749      0.419650      1.162844
  N       0.476430     -0.377328      0.748804
  H      -0.351171      0.209166      0.529863
  N      -2.009742      0.088654     -0.060123
  C      -3.248362      0.602930     -0.406963
  C      -3.656806      1.930574     -0.592083
  C      -4.988178      2.157481     -0.943042
  C      -5.899477      1.091836     -1.107958
  C      -5.509335     -0.238378     -0.927798
  C      -4.176128     -0.459476     -0.576641
  N      -3.447443     -1.612395     -0.323860
  C      -2.146042     -1.239381     -0.011005
  C      -1.091582     -2.189283      0.319844
  C       0.209938     -1.737932      0.712139
  C       1.194343     -2.694440      1.036806
  C       0.918560     -4.055140      0.969190
  C      -0.348572     -4.508807      0.574556
  C      -1.331729     -3.578043      0.259765
  C       1.387606      2.136045      0.803480
  C       1.562488      3.124956      1.779291
  C       1.148856      4.436867      1.528724
  C       0.559199      4.764739      0.303582
  C       0.386599      3.778590     -0.675348
  C       0.802703      2.468405     -0.430087
  C       3.082121     -0.039425     -0.171341
  C       4.461500      0.083924      0.051636
  C       5.366943     -0.223329     -0.966929
  C       4.901745     -0.666311     -2.210500
  C       3.527169     -0.801665     -2.433083
  C       2.618740     -0.486761     -1.418876
  H      -2.950478      2.747189     -0.458967
  H      -5.336915      3.177592     -1.092293
  H      -6.929945      1.310641     -1.380979
  H      -6.215841     -1.056549     -1.055430
  H      -3.814715     -2.554132     -0.307842
  H       2.172167     -2.355116      1.365041
  H       1.697983     -4.769770      1.227781
  H      -0.563813     -5.573357      0.517289
  H      -2.307515     -3.944266     -0.055613
  H       2.014291      2.851050      2.730876
  H       1.283888      5.200983      2.292383
  H       0.235638      5.786247      0.109681
  H      -0.069993      4.029993     -1.631292
  H       0.663069      1.710227     -1.196352
  H       4.813417      0.404308      1.030058
  H       6.436280     -0.124671     -0.787382
  H       5.608746     -0.913130     -3.000983
  H       3.161264     -1.158727     -3.394466
  H       1.552031     -0.607395     -1.589725
>
50
-1868.40460117; 31P isotropic shielding: 219.403600 ppm
  S       3.345742     -1.196913     -1.836057
  P       2.146021     -0.036583     -0.813159
  N       0.669176     -0.676658     -0.279809
  H      -0.202356     -0.245089     -0.641163
  N      -1.953671     -0.274565     -0.405465
  C      -3.254113      0.125036     -0.667287
  C      -3.735350      1.184676     -1.447912
  C      -5.117998      1.352796     -1.533588
  C      -6.009277      0.489352     -0.860284
  C      -5.547042     -0.572584     -0.077547
  C      -4.162773     -0.736004      0.004335
  N      -3.360466     -1.650672      0.670278
  C      -2.034182     -1.341118      0.395086
  C      -0.903564     -2.092197      0.925465
  C       0.440679     -1.750637      0.568013
  C       1.502223     -2.509472      1.103350
  C       1.258114     -3.568427      1.969962
  C      -0.053542     -3.907055      2.333232
  C      -1.110541     -3.172538      1.808783
  C       2.916544      0.632182      0.707979
  C       2.138762      0.962821      1.828987
  C       2.743063      1.501031      2.968313
  C       4.125016      1.717939      2.993199
  C       4.903502      1.386987      1.878059
  C       4.303168      0.840764      0.740896
  C       1.503077      1.410200     -1.733019
  C       0.591162      2.298263     -1.137171
  C       0.097019      3.383739     -1.863261
  C       0.515510      3.594355     -3.182749
  C       1.429279      2.716087     -3.774123
  C       1.922466      1.625319     -3.051570
  H      -3.043665      1.843842     -1.968112
  H      -5.523069      2.165489     -2.133546
  H      -7.081095      0.653296     -0.953023
  H      -6.238031     -1.236246      0.439113
  H      -3.685339     -2.434373      1.220006
  H       2.520511     -2.273077      0.809609
  H       2.097946     -4.137917      2.364277
  H      -0.245181     -4.734346      3.012719
  H      -2.123188     -3.441230      2.105503
  H       1.066985      0.781914      1.818109
  H       2.135660      1.744492      3.838608
  H       4.594942      2.136042      3.882009
  H       5.980318      1.546967      1.896788
  H       4.902267      0.555898     -0.121519
  H       0.259044      2.143371     -0.113978
  H      -0.612955      4.065748     -1.398191
  H       0.130310      4.442441     -3.746814
  H       1.756234      2.876823     -4.800066
  H       2.626760      0.927331     -3.500366
