51
-1880.51640364; 31P isotropic shielding: 243.456655 ppm
  C       2.080997     -3.336084     -0.949007
  C       1.405738     -2.455497     -1.986756
  O       1.401730     -1.065520     -1.505594
  P       0.081992     -0.142693     -1.541108
  O      -1.000473     -0.617177     -2.442741
  C      -0.410650      0.172238      0.262174
  C      -1.922196      0.107158      0.438715
  C      -2.533678      1.307721      0.860630
  C      -3.911090      1.360137      0.971552
  O      -4.683985      2.417333      1.376528
  C      -6.065910      1.965610      1.274956
  O      -6.043744      0.575704      0.861109
  C      -4.716483      0.262096      0.661841
  C      -4.172618     -0.924978      0.233084
  C      -2.764640     -0.987170      0.137163
  N      -2.242073     -2.280633     -0.326565
  O      -1.058300     -2.580393     -0.042607
  O      -2.997405     -3.031204     -0.952557
  N       0.318141     -0.582627      1.268539
  C       1.661187     -0.354587      1.541651
  C       2.357285     -1.282603      2.352058
  C       3.696604     -1.089957      2.679748
  C       4.397173      0.029755      2.218018
  C       3.698490      0.934568      1.418947
  C       2.358896      0.771984      1.068217
  N       4.416765      2.125132      0.889359
  O       3.775323      2.928129      0.187580
  O       5.618139      2.254341      1.173273
  O       0.689226      1.321918     -1.836380
  C       1.308418      1.616415     -3.139698
  C       2.825412      1.615918     -3.016456
  H       1.493342     -3.374427     -0.025991
  H       2.167657     -4.359096     -1.340004
  H       3.086824     -2.967616     -0.714109
  H       0.377013     -2.769732     -2.187326
  H       1.963638     -2.449039     -2.931961
  H      -0.143929      1.224251      0.398757
  H      -1.928505      2.181672      1.084651
  H      -6.584426      2.566117      0.515125
  H      -6.543027      2.047370      2.259711
  H      -4.775052     -1.787163     -0.028817
  H       0.020475     -1.551854      1.319777
  H       1.828015     -2.160022      2.721935
  H       4.204949     -1.822401      3.303887
  H       5.440638      0.201333      2.456631
  H       1.907853      1.501324      0.407709
  H       0.924920      2.604267     -3.419250
  H       0.949909      0.888245     -3.878809
  H       3.155541      2.330181     -2.253618
  H       3.194853      0.620704     -2.744985
  H       3.270644      1.903052     -3.979384
>
51
-1880.51683218; 31P isotropic shielding: 243.329306 ppm
  C       1.934088     -2.754120     -3.108464
  C       1.522080     -2.617911     -1.650520
  O       1.505189     -1.201910     -1.249758
  P       0.179769     -0.297168     -1.402343
  O      -0.864852     -0.854501     -2.301629
  C      -0.374990      0.145755      0.355461
  C      -1.891492      0.095595      0.487164
  C      -2.511196      1.326258      0.795904
  C      -3.891160      1.390870      0.852717
  O      -4.673342      2.473694      1.163712
  C      -6.048851      2.035283      0.966781
  O      -6.022260      0.602166      0.748575
  C      -4.691192      0.274123      0.599794
  C      -4.138836     -0.943567      0.282310
  C      -2.728721     -1.015829      0.239560
  N      -2.198313     -2.341857     -0.108861
  O      -2.929305     -3.125358     -0.723060
  O      -1.035840     -2.633677      0.259624
  N       0.322868     -0.537236      1.433318
  C       1.659555     -0.286514      1.721624
  C       2.346036     -1.170992      2.587192
  C       3.676014     -0.950008      2.935701
  C       4.376816      0.154239      2.438833
  C       3.688228      1.015256      1.584473
  C       2.358242      0.824089      1.213022
  N       4.407357      2.187589      1.017203
  O       5.602346      2.338473      1.316796
  O       3.772980      2.954944      0.270571
  O       0.785307      1.146898     -1.786979
  C       1.467485      1.347873     -3.075973
  C       2.974172      1.406781     -2.870325
  H       2.026872     -3.818027     -3.367411
  H       1.177331     -2.307163     -3.763476
  H       2.901898     -2.270159     -3.290613
  H       2.250391     -3.080659     -0.974833
  H       0.537621     -3.057689     -1.465085
  H      -0.111213      1.204740      0.426113
  H      -1.909641      2.212794      0.975893
  H      -6.459269      2.534675      0.076792
  H      -6.629622      2.257402      1.868996
  H      -4.736174     -1.822498      0.068633
  H       0.032622     -1.505828      1.529852
  H       1.816455     -2.036485      2.984089
  H       4.177001     -1.648836      3.602844
  H       5.413553      0.345928      2.690718
  H       1.915920      1.519726      0.511622
  H       1.072706      2.294262     -3.462768
  H       1.173515      0.547172     -3.766690
  H       3.351645      0.452386     -2.487366
  H       3.466969      1.618073     -3.829618
  H       3.241037      2.197445     -2.159915
>
51
-1880.51650099; 31P isotropic shielding: 243.129840 ppm
  C       1.805267     -2.720284     -3.211792
  C       1.477051     -2.582566     -1.732614
  O       1.471630     -1.165811     -1.332157
  P       0.140627     -0.262967     -1.442510
  O      -0.920277     -0.808309     -2.330050
  C      -0.384390      0.150399      0.331812
  C      -1.899238      0.106037      0.483019
  C      -2.508186      1.335951      0.815384
  C      -3.886914      1.407195      0.892918
  O      -4.657798      2.494612      1.212876
  C      -6.041443      2.046587      1.119766
  O      -6.024460      0.636307      0.782480
  C      -4.696336      0.298941      0.634386
  C      -4.154988     -0.916999      0.292166
  C      -2.745915     -0.997328      0.231753
  N      -2.227835     -2.322001     -0.137774
  O      -2.971478     -3.096026     -0.748925
  O      -1.061104     -2.623120      0.210067
  N       0.325792     -0.552227      1.388455
  C       1.664581     -0.305363      1.669074
  C       2.352978     -1.191505      2.531746
  C       3.684412     -0.972518      2.875780
  C       4.384962      0.131467      2.377603
  C       3.695413      0.992471      1.524090
  C       2.363986      0.802963      1.156288
  N       4.414810      2.163061      0.953279
  O       5.607506      2.319252      1.259318
  O       3.783360      2.922961      0.196669
  O       0.735332      1.188952     -1.813813
  C       1.375397      1.418020     -3.120069
  C       2.888991      1.456498     -2.966529
  H       1.887199     -3.784457     -3.473223
  H       1.010840     -2.276779     -3.822790
  H       2.759360     -2.233479     -3.450310
  H       2.247150     -3.037001     -1.098982
  H       0.508530     -3.029717     -1.489670
  H      -0.113642      1.206635      0.416826
  H      -1.899816      2.217481      0.997007
  H      -6.547433      2.608185      0.322830
  H      -6.529370      2.185375      2.093033
  H      -4.760251     -1.788514      0.070649
  H       0.031331     -1.520034      1.478811
  H       1.822935     -2.055467      2.931335
  H       4.186389     -1.671891      3.541601
  H       5.422128      0.322898      2.628317
  H       1.921188      1.497928      0.454464
  H       0.978077      2.379067     -3.465903
  H       1.047617      0.640005     -3.821413
  H       3.348681      1.700683     -3.934474
  H       3.188390      2.217560     -2.236984
  H       3.272063      0.485471     -2.634221
>
51
-1880.51683783; 31P isotropic shielding: 243.060341 ppm
  C       2.080736     -3.466864     -0.823342
  C       1.434984     -2.591489     -1.883912
  O       1.445924     -1.195652     -1.421061
  P       0.153028     -0.241743     -1.508999
  O      -0.927250     -0.701090     -2.420692
  C      -0.367072      0.133462      0.275562
  C      -1.882209      0.096286      0.427693
  C      -2.481379      1.317471      0.805664
  C      -3.859497      1.394995      0.889938
  O      -4.621796      2.474924      1.252793
  C      -6.009088      2.044914      1.130454
  O      -6.002425      0.641288      0.765355
  C      -4.677256      0.301588      0.596629
  C      -4.145483     -0.905615      0.211147
  C      -2.737249     -0.992379      0.141664
  N      -2.226871     -2.305178     -0.278486
  O      -2.985081     -3.064350     -0.890750
  O      -1.049835     -2.610593      0.026207
  N       0.334309     -0.600776      1.316507
  C       1.678966     -0.387565      1.596326
  C       2.349555     -1.297280      2.447768
  C       3.688708     -1.116160      2.783200
  C       4.414654     -0.027299      2.287861
  C       3.741288      0.857896      1.446261
  C       2.402516      0.707001      1.088357
  N       4.487810      2.010723      0.873011
  O       5.679370      2.148997      1.191262
  O       3.878387      2.774024      0.101702
  O       0.815775      1.196007     -1.823067
  C       1.504813      1.430347     -3.099246
  C       2.013273      2.861909     -3.096187
  H       2.161666     -4.495812     -1.199745
  H       3.086790     -3.107461     -0.575672
  H       1.476627     -3.486566      0.089760
  H       0.404370     -2.892642     -2.094886
  H       2.006650     -2.607093     -2.820732
  H      -0.087790      1.185308      0.386484
  H      -1.866101      2.187540      1.016877
  H      -6.496151      2.627913      0.336743
  H      -6.509493      2.169348      2.098829
  H      -4.756996     -1.765450     -0.037045
  H       0.023026     -1.564280      1.390627
  H       1.800860     -2.151209      2.843468
  H       4.177080     -1.833867      3.439564
  H       5.458653      0.134086      2.531278
  H       1.972462      1.417224      0.393989
  H       0.792250      1.246067     -3.913691
  H       2.330410      0.710520     -3.177422
  H       2.707820      3.027299     -2.264604
  H       2.540569      3.065955     -4.037908
  H       1.180094      3.570221     -3.008128
>
51
-1880.51720131; 31P isotropic shielding: 247.039733 ppm
  C       1.316028     -3.990304     -2.938473
  C       0.234282     -3.007927     -3.351295
  O       0.702032     -1.644943     -3.040914
  P      -0.340056     -0.471713     -2.654671
  O      -1.774433     -0.827368     -2.777593
  C       0.173873      0.192646     -0.987364
  C      -0.987106      0.134404      0.011117
  C      -1.697528      1.340828      0.175935
  C      -2.708204      1.400838      1.115185
  O      -3.518244      2.463398      1.412507
  C      -4.340547      2.037983      2.537064
  O      -4.058484      0.635748      2.779062
  C      -3.025328      0.307559      1.928139
  C      -2.358547     -0.887467      1.810829
  C      -1.349775     -0.959694      0.821367
  N      -0.712053     -2.270426      0.681563
  O      -0.741343     -3.051004      1.647872
  O      -0.187607     -2.555424     -0.417557
  N       1.450858     -0.357185     -0.566390
  C       2.056849      0.005479      0.626836
  C       3.093966     -0.801361      1.152572
  C       3.747899     -0.451060      2.331136
  C       3.393606      0.703852      3.037508
  C       2.364350      1.484244      2.511383
  C       1.693707      1.168661      1.331088
  N       1.938344      2.706515      3.246182
  O       2.576420      3.026587      4.261261
  O       0.961749      3.339030      2.805490
  O       0.176700      0.773379     -3.542662
  C       0.055357      0.711092     -5.005374
  C       1.413635      0.438188     -5.636788
  H       1.454856     -3.979978     -1.851801
  H       1.018567     -5.005414     -3.234712
  H       2.269516     -3.755841     -3.428450
  H      -0.708865     -3.186905     -2.827242
  H       0.048688     -3.041571     -4.432816
  H       0.323155      1.260707     -1.196935
  H      -1.438497      2.216523     -0.413724
  H      -5.398154      2.158279      2.273362
  H      -4.065628      2.626156      3.423733
  H      -2.584398     -1.752156      2.424186
  H       1.632505     -1.301910     -0.885743
  H       3.376992     -1.710455      0.623317
  H       4.540143     -1.092019      2.712848
  H       3.880078      0.991264      3.962712
  H       0.903935      1.825857      0.992468
  H      -0.339807      1.689120     -5.303309
  H      -0.687182     -0.050769     -5.276571
  H       2.137180      1.208820     -5.343987
  H       1.801123     -0.538282     -5.325510
  H       1.322493      0.447822     -6.731740
>
51
-1880.51559087; 31P isotropic shielding: 247.771703 ppm
  C       1.938892     -2.892141     -3.043455
  C       1.533124     -2.746987     -1.584591
  O       1.540905     -1.331406     -1.180086
  P       0.248821     -0.390227     -1.374372
  O      -0.799904     -0.921515     -2.284733
  C      -0.327946      0.102816      0.363735
  C      -1.847297      0.078980      0.470293
  C      -2.452460      1.325585      0.741494
  C      -3.832041      1.412658      0.774543
  O      -4.601223      2.514953      1.045742
  C      -5.982505      2.090272      0.857743
  O      -5.973471      0.655807      0.646516
  C      -4.645438      0.303368      0.532197
  C      -4.107371     -0.929419      0.250510
  C      -2.698060     -1.024365      0.233584
  N      -2.181743     -2.365363     -0.073984
  O      -1.025411     -2.659913      0.311443
  O      -2.916813     -3.157141     -0.672995
  N       0.340891     -0.559725      1.471385
  C       1.672021     -0.312053      1.785526
  C       2.318810     -1.153361      2.722087
  C       3.640053     -0.928026      3.099932
  C       4.371645      0.137297      2.563332
  C       3.723557      0.952235      1.635428
  C       2.403295      0.755970      1.233127
  N       4.478682      2.075149      1.016342
  O       5.651909      2.257129      1.377874
  O       3.894623      2.771619      0.166121
  O       0.914149      1.026881     -1.766479
  C       1.637395      1.182229     -3.035469
  C       2.163761      2.605907     -3.098409
  H       1.194716     -2.423302     -3.697347
  H       2.919873     -2.435408     -3.227040
  H       2.002834     -3.958115     -3.302659
  H       2.254966     -3.221948     -0.910632
  H       0.541407     -3.168428     -1.395577
  H      -0.049652      1.159502      0.413234
  H      -1.840264      2.206654      0.912200
  H      -6.392520      2.589992     -0.031811
  H      -6.556232      2.323675      1.762137
  H      -4.714793     -1.803521      0.045739
  H       0.033674     -1.519645      1.596148
  H       1.764675     -1.986708      3.152807
  H       4.109600     -1.592198      3.823009
  H       5.401757      0.332082      2.839358
  H       1.994707      1.410282      0.474039
  H       0.942410      0.961286     -3.855935
  H       2.454817      0.449752     -3.053813
  H       1.338105      3.327773     -3.069588
  H       2.840107      2.809260     -2.260263
  H       2.715767      2.751698     -4.036790
>
51
-1880.51698738; 31P isotropic shielding: 246.351729 ppm
  C       1.160720     -4.865627     -0.448761
  C       0.046397     -3.991151      0.109364
  O       0.390625     -2.561204      0.042483
  P       0.147833     -1.728218     -1.316979
  O      -1.066361     -2.062793     -2.100607
  C       0.172320     -0.008821     -0.619866
  C      -1.233882      0.358856     -0.132868
  C      -1.480271      0.287253      1.252334
  C      -2.763224      0.517463      1.709724
  O      -3.204420      0.531082      3.010966
  C      -4.645925      0.721258      2.937172
  O      -4.979245      1.015992      1.557542
  C      -3.819549      0.800627      0.840508
  C      -3.630090      0.866440     -0.519920
  C      -2.316071      0.650726     -0.990461
  N      -2.161285      0.756922     -2.457661
  O      -3.163044      0.566941     -3.158212
  O      -1.044844      1.074393     -2.920659
  N       1.210222      0.098499      0.382742
  C       1.837573      1.286943      0.708683
  C       1.452388      2.522522      0.139609
  C       2.116545      3.700659      0.490385
  C       3.163452      3.699601      1.413625
  C       3.522914      2.470411      1.973930
  C       2.891300      1.276397      1.645191
  N       4.632507      2.427769      2.967269
  O       4.928671      1.326595      3.460866
  O       5.198792      3.495814      3.247287
  O       1.548731     -1.904808     -2.088255
  C       1.630161     -1.754316     -3.554133
  C       2.036854     -0.339493     -3.939421
  H       1.299452     -4.695850     -1.522243
  H       2.110174     -4.663547      0.061554
  H       0.903114     -5.922899     -0.297671
  H      -0.117377     -4.177284      1.176192
  H      -0.898101     -4.139277     -0.427891
  H       0.425447      0.619620     -1.476039
  H      -0.670059      0.057899      1.936334
  H      -4.930129      1.569133      3.571162
  H      -5.146415     -0.208794      3.245279
  H      -4.433476      1.075964     -1.216879
  H       1.499985     -0.745230      0.860743
  H       0.633185      2.564968     -0.572720
  H       1.803883      4.638715      0.035721
  H       3.687209      4.604398      1.700199
  H       3.222121      0.351958      2.110185
  H       0.662750     -2.034939     -3.985830
  H       2.385607     -2.487444     -3.857956
  H       2.959196     -0.044821     -3.423951
  H       2.218715     -0.297316     -5.022163
  H       1.245328      0.381115     -3.707101
>
51
-1880.51776469; 31P isotropic shielding: 250.988499 ppm
  C       1.167493     -4.872487     -0.383452
  C       0.055380     -3.992187      0.169805
  O       0.396201     -2.562626      0.081222
  P       0.151790     -1.750748     -1.290515
  O      -1.060059     -2.101204     -2.070769
  C       0.169388     -0.020826     -0.620322
  C      -1.238510      0.350250     -0.141234
  C      -1.486870      0.298051      1.244484
  C      -2.771160      0.531429      1.696460
  O      -3.214612      0.562059      2.996606
  C      -4.655990      0.751391      2.918346
  O      -4.988500      1.020681      1.533296
  C      -3.826824      0.798991      0.821500
  C      -3.635385      0.845447     -0.539464
  C      -2.319994      0.626623     -1.004719
  N      -2.162961      0.712046     -2.473050
  O      -1.046849      1.026765     -2.938743
  O      -3.162687      0.507682     -3.172469
  N       1.205058      0.106454      0.382492
  C       1.838635      1.299480      0.678361
  C       1.451137      2.524158      0.087636
  C       2.120175      3.707795      0.409376
  C       3.174323      3.723243      1.324215
  C       3.536292      2.504811      1.905959
  C       2.900123      1.305596      1.606102
  N       4.653950      2.479971      2.890862
  O       4.956647      1.387222      3.398958
  O       5.219485      3.553590      3.150340
  O       1.554809     -1.933594     -2.056766
  C       1.638700     -1.800354     -3.524244
  C       2.045402     -0.389922     -3.925283
  H       2.120409     -4.660553      0.116301
  H       0.913635     -5.927900     -0.214064
  H       1.297566     -4.719066     -1.460478
  H      -0.101150     -4.163803      1.240135
  H      -0.892216     -4.149505     -0.359360
  H       0.421733      0.594571     -1.486134
  H      -0.676764      0.080772      1.932567
  H      -4.940253      1.611002      3.536458
  H      -5.157132     -0.172443      3.243388
  H      -4.438319      1.042475     -1.240578
  H       1.503591     -0.729892      0.868009
  H       0.626253      2.553835     -0.618806
  H       1.805669      4.637135     -0.061622
  H       3.701726      4.632659      1.588636
  H       3.233440      0.389915      2.086390
  H       0.672148     -2.086501     -3.954248
  H       2.395023     -2.536614     -3.818138
  H       2.228999     -0.360014     -5.008121
  H       1.253148      0.332893     -3.702467
  H       2.966602     -0.088753     -3.411553
>
51
-1880.51778833; 31P isotropic shielding: 251.038506 ppm
  C       1.150497     -4.896127     -0.265853
  C       0.035261     -3.999478      0.253859
  O       0.379358     -2.573373      0.128859
  P       0.139867     -1.796730     -1.263791
  O      -1.077130     -2.155003     -2.032440
  C       0.174371     -0.050047     -0.640014
  C      -1.228083      0.343434     -0.162464
  C      -1.469851      0.324192      1.225255
  C      -2.750126      0.576984      1.678140
  O      -3.186613      0.641560      2.979465
  C      -4.628072      0.830935      2.902947
  O      -4.964183      1.080606      1.515180
  C      -3.808248      0.832650      0.802528
  C      -3.623297      0.847328     -0.560053
  C      -2.311805      0.608538     -1.026511
  N      -2.161246      0.660101     -2.497155
  O      -1.046011      0.959751     -2.974746
  O      -3.165299      0.445321     -3.187128
  N       1.218151      0.096198      0.351367
  C       1.844305      1.297605      0.628758
  C       1.459354      2.507887      0.007517
  C       2.123141      3.699924      0.308416
  C       3.169373      3.738209      1.231643
  C       3.528568      2.533945      1.843817
  C       2.897336      1.326915      1.565606
  N       4.637464      2.533704      2.838875
  O       4.934860      1.454116      3.377370
  O       5.201736      3.613222      3.075589
  O       1.538719     -2.014387     -2.028461
  C       1.619736     -1.917033     -3.498900
  C       2.032607     -0.518817     -3.935350
  H       0.893630     -5.946124     -0.069422
  H       1.289845     -4.772630     -1.345537
  H       2.099593     -4.671830      0.235783
  H      -0.130081     -4.141648      1.327200
  H      -0.908447     -4.170010     -0.278187
  H       0.425971      0.540073     -1.523453
  H      -0.658561      0.116387      1.914819
  H      -4.909849      1.699425      3.509370
  H      -5.128808     -0.088054      3.242506
  H      -4.428188      1.034839     -1.261544
  H       1.501982     -0.725461      0.869664
  H       0.640759      2.519888     -0.706727
  H       1.810655      4.617765     -0.185900
  H       3.692745      4.654421      1.480149
  H       3.228133      0.423034      2.069420
  H       0.650705     -2.208516     -3.919646
  H       2.371738     -2.663966     -3.776419
  H       2.955874     -0.209711     -3.430097
  H       2.215080     -0.516597     -5.018773
  H       1.244286      0.213283     -3.729534
>
51
-1880.51758021; 31P isotropic shielding: 251.005275 ppm
  C       2.538356     -2.588485     -1.034223
  C       1.606794     -2.075770     -2.119016
  O       1.351370     -0.642060     -1.900143
  P      -0.129477     -0.019293     -1.880815
  O      -1.190972     -0.844656     -2.516325
  C      -0.431270      0.532853     -0.092247
  C      -1.879170      0.282012      0.311177
  C      -2.628200      1.435301      0.630883
  C      -3.968270      1.303031      0.945268
  O      -4.852974      2.289924      1.295718
  C      -6.134556      1.625894      1.498522
  O      -5.930375      0.205111      1.290969
  C      -4.605640      0.060629      0.939270
  C      -3.925777     -1.090414      0.619292
  C      -2.552636     -0.960663      0.315288
  N      -1.880670     -2.226682     -0.019988
  O      -2.572760     -3.175193     -0.401988
  O      -0.637644     -2.296904      0.122553
  N       0.522688      0.074015      0.899482
  C       1.821117      0.561991      0.979332
  C       2.271140      1.699942      0.273401
  C       3.579759      2.163513      0.433915
  C       4.484466      1.517332      1.276454
  C       4.027491      0.383599      1.955436
  C       2.731128     -0.100015      1.828567
  N       4.965886     -0.345369      2.852786
  O       6.114251      0.109049      2.980106
  O       4.550347     -1.368028      3.422906
  O       0.083233      1.452054     -2.523951
  C      -0.001628      1.630672     -3.979959
  C       1.305311      1.269301     -4.675489
  H       2.048777     -2.574687     -0.055352
  H       2.819799     -3.626584     -1.257437
  H       3.452061     -1.984910     -0.981718
  H       0.652524     -2.611452     -2.130804
  H       2.067670     -2.150986     -3.112298
  H      -0.327389      1.619638     -0.157902
  H      -2.157207      2.414237      0.623513
  H      -6.855142      2.004118      0.760903
  H      -6.470489      1.801843      2.528461
  H      -4.400165     -2.064682      0.591907
  H       0.400989     -0.904430      1.140476
  H       1.618593      2.211032     -0.427429
  H       3.900924      3.041328     -0.123844
  H       5.505163      1.858269      1.407083
  H       2.434376     -0.982894      2.387087
  H      -0.241504      2.692114     -4.107721
  H      -0.839965      1.029440     -4.352864
  H       1.229303      1.514165     -5.743893
  H       2.144540      1.831801     -4.248897
  H       1.523419      0.199453     -4.584650
>
51
-1880.51531312; 31P isotropic shielding: 241.889001 ppm
  C       1.536636     -4.816683     -0.550736
  C       0.452437     -3.985932      0.120441
  O       0.737525     -2.543744      0.022130
  P       0.316834     -1.723060     -1.299420
  O      -0.928704     -2.154105     -1.980367
  C       0.260670      0.004758     -0.609445
  C      -1.168698      0.329773     -0.165409
  C      -1.440965      0.299061      1.216369
  C      -2.741381      0.494182      1.639752
  O      -3.209766      0.535507      2.930376
  C      -4.655686      0.669146      2.822145
  O      -4.971426      0.899069      1.426439
  C      -3.789363      0.705342      0.740245
  C      -3.574258      0.730785     -0.617368
  C      -2.243580      0.548393     -1.055033
  N      -2.064084      0.597572     -2.520695
  O      -3.052105      0.378484     -3.232681
  O      -0.937920      0.894086     -2.978248
  N       1.263757      0.156218      0.423987
  C       1.885775      1.358456      0.709177
  C       1.466336      2.578677      0.131452
  C       2.118540      3.773084      0.448390
  C       3.187126      3.803437      1.345806
  C       3.581173      2.588901      1.914783
  C       2.962571      1.379597      1.618944
  N       4.715996      2.579796      2.880397
  O       5.268349      3.661861      3.132962
  O       5.045308      1.490820      3.379799
  O       1.664314     -1.780823     -2.176579
  C       1.612825     -1.380894     -3.599718
  C       1.303380     -2.578072     -4.485522
  H       1.332575     -5.883228     -0.383401
  H       1.562545     -4.636799     -1.631088
  H       2.523930     -4.583122     -0.134343
  H       0.404169     -4.176267      1.197896
  H      -0.534784     -4.167944     -0.320622
  H       0.516612      0.637363     -1.462579
  H      -0.635184      0.127474      1.922339
  H      -4.983101      1.529177      3.417866
  H      -5.127818     -0.266537      3.156568
  H      -4.370495      0.883089     -1.336883
  H       1.615258     -0.682794      0.868171
  H       0.629016      2.597220     -0.560621
  H       1.779090      4.698677     -0.012575
  H       3.702152      4.721040      1.606331
  H       3.320814      0.467874      2.088671
  H       2.607936     -0.968461     -3.798426
  H       0.866331     -0.587339     -3.728198
  H       0.303264     -2.967778     -4.267803
  H       1.335555     -2.269739     -5.539639
  H       2.043121     -3.375002     -4.337837
>
51
-1880.51906080; 31P isotropic shielding: 250.612061 ppm
  C       1.290982     -4.825500      0.125920
  C      -0.032974     -4.078109      0.190165
  O       0.179611     -2.624074      0.088025
  P       0.001149     -1.877486     -1.329729
  O      -1.228459     -2.171703     -2.104992
  C       0.141972     -0.124160     -0.747075
  C      -1.226944      0.347919     -0.240795
  C      -1.439694      0.348076      1.151858
  C      -2.695666      0.667164      1.630049
  O      -3.100381      0.758185      2.939981
  C      -4.530394      1.027239      2.894256
  O      -4.886085      1.275399      1.510871
  C      -3.758673      0.969841      0.775723
  C      -3.602339      0.968578     -0.590608
  C      -2.314016      0.664107     -1.082337
  N      -2.190458      0.706666     -2.555688
  O      -1.076857      0.978418     -3.053600
  O      -3.213113      0.519671     -3.225680
  N       1.221555     -0.011194      0.209464
  C       1.852663      1.183449      0.507227
  C       1.506382      2.397064     -0.129803
  C       2.182159      3.578784      0.184840
  C       3.202318      3.603210      1.137288
  C       3.522702      2.395960      1.764890
  C       2.878179      1.198907      1.474151
  N       4.601840      2.381210      2.791866
  O       4.862157      1.299825      3.345898
  O       5.178240      3.451719      3.039994
  O       1.384983     -2.213715     -2.082187
  C       1.455523     -2.232104     -3.556151
  C       1.759085     -0.851139     -4.118871
  H       1.111335     -5.900726      0.262967
  H       1.782756     -4.675432     -0.841434
  H       1.969903     -4.487644      0.918655
  H      -0.532263     -4.218760      1.155229
  H      -0.722494     -4.385966     -0.605515
  H       0.397827      0.433150     -1.650683
  H      -0.628202      0.101677      1.828187
  H      -4.748292      1.919061      3.493438
  H      -5.073547      0.143267      3.259969
  H      -4.411751      1.192091     -1.276244
  H       1.436223     -0.821213      0.777372
  H       0.709175      2.419279     -0.867553
  H       1.899917      4.499601     -0.321962
  H       3.734352      4.511402      1.396632
  H       3.178296      0.291884      1.991352
  H       0.509422     -2.629081     -3.940953
  H       2.260901     -2.942399     -3.773057
  H       0.919165     -0.163382     -3.970922
  H       2.659241     -0.429204     -3.654593
  H       1.936791     -0.932413     -5.200133
>
51
-1880.51843550; 31P isotropic shielding: 249.696131 ppm
  C       1.033772     -4.960382     -0.252694
  C      -0.073761     -4.035269      0.233036
  O       0.295806     -2.618153      0.085553
  P       0.078728     -1.860234     -1.321583
  O      -1.153593     -2.188535     -2.079399
  C       0.175538     -0.107944     -0.724336
  C      -1.203580      0.323236     -0.209674
  C      -1.409993      0.309615      1.183969
  C      -2.671522      0.593236      1.669963
  O      -3.072089      0.665431      2.982293
  C      -4.507063      0.908304      2.946083
  O      -4.878046      1.143255      1.564304
  C      -3.746208      0.872624      0.822494
  C      -3.596604      0.882217     -0.544548
  C      -2.303133      0.614550     -1.044154
  N      -2.188444      0.667565     -2.517637
  O      -1.084136      0.967860     -3.019791
  O      -3.209054      0.456283     -3.183673
  N       1.253671      0.021897      0.231944
  C       1.861377      1.227138      0.535792
  C       1.487695      2.438162     -0.090549
  C       2.140165      3.631157      0.230770
  C       3.163203      3.669419      1.179639
  C       3.510692      2.464335      1.796908
  C       2.889946      1.256489      1.499212
  N       4.593436      2.464179      2.820156
  O       5.151778      3.543614      3.070978
  O       4.876581      1.384667      3.366537
  O       1.463646     -2.136034     -2.092772
  C       1.518262     -2.153189     -3.567179
  C       1.766922     -0.762847     -4.133736
  H       1.190380     -4.861927     -1.332536
  H       1.979299     -4.740446      0.257551
  H       0.757429     -6.001831     -0.038075
  H      -0.256661     -4.154390      1.306386
  H      -1.013093     -4.201084     -0.308334
  H       0.416116      0.464931     -1.622253
  H      -0.588640      0.082095      1.854972
  H      -4.736541      1.799073      3.542850
  H      -5.031428      0.016755      3.320227
  H      -4.415047      1.087634     -1.225105
  H       1.489830     -0.787586      0.792058
  H       0.687578      2.449706     -0.825403
  H       1.837113      4.549773     -0.267954
  H       3.677468      4.586378      1.443939
  H       3.210526      0.351912      2.008383
  H       0.582088     -2.582777     -3.941313
  H       2.345130     -2.835444     -3.792895
  H       1.934132     -0.838505     -5.217103
  H       0.905261     -0.105224     -3.974990
  H       2.657669     -0.310091     -3.680512
>
51
-1880.51845194; 31P isotropic shielding: 250.630774 ppm
  C       1.404926     -4.831268     -0.660759
  C       0.325600     -4.004631      0.023333
  O       0.634753     -2.565071     -0.025619
  P       0.238781     -1.693340     -1.321847
  O      -1.013021     -2.073519     -2.021302
  C       0.220761      0.011927     -0.574045
  C      -1.203026      0.358773     -0.128636
  C      -1.484562      0.295764      1.250193
  C      -2.782644      0.509644      1.671651
  O      -3.257823      0.526936      2.960410
  C      -4.700109      0.691569      2.847077
  O      -5.000832      0.974844      1.457808
  C      -3.819801      0.770995      0.772719
  C      -3.595554      0.830016     -0.582370
  C      -2.266959      0.628121     -1.017665
  N      -2.077041      0.715103     -2.480209
  O      -3.065978      0.543456     -3.203865
  O      -0.940459      0.994376     -2.922457
  N       1.219359      0.101534      0.471250
  C       1.879702      1.273537      0.793827
  C       1.497768      2.525079      0.258714
  C       2.187765      3.687120      0.613675
  C       3.258639      3.653500      1.508281
  C       3.615084      2.408778      2.035326
  C       2.958008      1.230271      1.700959
  N       4.750860      2.331410      2.996648
  O       5.039936      1.217950      3.466116
  O       5.344424      3.384792      3.275612
  O       1.588131     -1.753566     -2.195989
  C       1.549108     -1.318499     -3.609213
  C       1.233021     -2.491308     -4.524721
  H       1.182590     -5.899127     -0.528854
  H       1.446628     -4.618686     -1.734642
  H       2.390598     -4.626129     -0.225952
  H       0.261179     -4.228421      1.093502
  H      -0.659003     -4.156797     -0.434693
  H       0.499980      0.666757     -1.402771
  H      -0.687121      0.085592      1.955238
  H      -5.015844      1.536838      3.469394
  H      -5.192094     -0.246043      3.145903
  H      -4.383196      1.022141     -1.301814
  H       1.548902     -0.762374      0.883472
  H       0.659299      2.592607     -0.428865
  H       1.876681      4.638093      0.185547
  H       3.803005      4.545187      1.797542
  H       3.287860      0.292442      2.139027
  H       2.549560     -0.911711     -3.792177
  H       0.811385     -0.514657     -3.722774
  H       0.227217     -2.874859     -4.322551
  H       1.275217     -2.159342     -5.571272
  H       1.963242     -3.299306     -4.390664
>
51
-1880.51900868; 31P isotropic shielding: 250.643796 ppm
  C      -1.885699     -3.936218     -0.054351
  C      -0.761266     -4.207312     -1.042239
  O       0.274956     -3.163252     -0.957492
  P       0.135899     -1.815938     -1.836232
  O      -1.144475     -1.638878     -2.563923
  C       0.475252     -0.503186     -0.555969
  C      -0.849788     -0.029794      0.046983
  C      -1.178608     -0.492975      1.336350
  C      -2.405382     -0.152153      1.871393
  O      -2.912123     -0.495892      3.101480
  C      -4.209504      0.159344      3.194872
  O      -4.472989      0.798898      1.921268
  C      -3.332018      0.617813      1.165902
  C      -3.063093      1.078457     -0.101501
  C      -1.801590      0.751036     -0.644964
  N      -1.555590      1.286016     -2.001459
  O      -0.374714      1.430480     -2.383132
  O      -2.537836      1.598784     -2.686204
  N       1.428821     -1.014135      0.408652
  C       2.285696     -0.206364      1.132466
  C       3.306329     -0.791903      1.919311
  C       4.175812     -0.001595      2.666436
  C       4.066788      1.393647      2.661307
  C       3.052967      1.954298      1.885311
  C       2.161648      1.196385      1.126811
  N       2.897511      3.437066      1.870776
  O       3.713320      4.110328      2.520488
  O       1.959647      3.915177      1.212157
  O       1.477834     -1.891561     -2.712996
  C       1.654475     -0.946659     -3.838631
  C       1.105500     -1.538230     -5.127529
  H      -2.410944     -3.009630     -0.311362
  H      -2.608593     -4.763113     -0.084639
  H      -1.498604     -3.854908      0.968942
  H      -1.134617     -4.250035     -2.071120
  H      -0.228275     -5.136647     -0.814298
  H       0.925471      0.321622     -1.113730
  H      -0.470318     -1.100866      1.889070
  H      -4.170997      0.920042      3.987573
  H      -4.980378     -0.596473      3.390797
  H      -3.769188      1.666487     -0.676383
  H       1.543037     -2.017875      0.473750
  H       3.412251     -1.876499      1.928831
  H       4.954634     -0.477616      3.259042
  H       4.733258      2.029995      3.232280
  H       1.390686      1.705162      0.560229
  H       2.736927     -0.786401     -3.885881
  H       1.164209      0.004470     -3.597775
  H       1.583269     -2.500586     -5.349841
  H       0.022457     -1.683422     -5.052573
  H       1.308835     -0.849793     -5.959351
>
51
-1880.51871907; 31P isotropic shielding: 250.648259 ppm
  C       1.867247     -2.846905     -3.130703
  C       1.482938     -2.715892     -1.664729
  O       1.497641     -1.304692     -1.246120
  P       0.203989     -0.360276     -1.411714
  O      -0.857693     -0.880007     -2.313785
  C      -0.346149      0.113459      0.340358
  C      -1.863815      0.092779      0.468848
  C      -2.461133      1.337461      0.765408
  C      -3.839781      1.427732      0.821373
  O      -4.600769      2.531440      1.108132
  C      -5.988605      2.101351      0.996378
  O      -5.985551      0.681744      0.698914
  C      -4.660064      0.324634      0.575379
  C      -4.130011     -0.905607      0.268036
  C      -2.721404     -1.004721      0.229994
  N      -2.213668     -2.343391     -0.101203
  O      -1.052472     -2.645379      0.263284
  O      -2.959785     -3.126125     -0.698309
  N       0.337071     -0.564361      1.429797
  C       1.673882     -0.325795      1.725960
  C       2.332617     -1.182217      2.640178
  C       3.660963     -0.967179      2.998720
  C       4.387951      0.102282      2.464201
  C       3.727791      0.932509      1.558559
  C       2.400131      0.746987      1.176092
  N       4.477013      2.060598      0.942089
  O       5.657150      2.232622      1.285641
  O       3.881496      2.771285      0.111761
  O       0.865240      1.060770     -1.796741
  C       1.568698      1.231306     -3.074513
  C       2.093079      2.656156     -3.129086
  H       1.113236     -2.372486     -3.769110
  H       2.845212     -2.387765     -3.324027
  H       1.927876     -3.910342     -3.400900
  H       2.214355     -3.197808     -1.006147
  H       0.493916     -3.138929     -1.465215
  H      -0.064184      1.168736      0.397990
  H      -1.843742      2.214666      0.937226
  H      -6.468087      2.647408      0.172537
  H      -6.495777      2.274170      1.954018
  H      -4.743203     -1.774334      0.057745
  H       0.027706     -1.524340      1.548422
  H       1.782363     -2.019281      3.068646
  H       4.139919     -1.642931      3.704700
  H       5.423496      0.288818      2.725129
  H       1.981488      1.413540      0.433297
  H       0.861752      1.018796     -3.886960
  H       2.386734      0.500221     -3.114091
  H       2.630946      2.813235     -4.073789
  H       1.267331      3.376826     -3.079586
  H       2.781468      2.850233     -2.298585
>
51
-1880.51718984; 31P isotropic shielding: 246.356880 ppm
  C       2.151437     -3.374945     -0.856240
  C       1.506055     -2.485671     -1.905400
  O       1.507535     -1.097442     -1.420053
  P       0.203103     -0.156973     -1.479518
  O      -0.863817     -0.601910     -2.415005
  C      -0.333267      0.149669      0.313077
  C      -1.849765      0.105066      0.448119
  C      -2.455349      1.311076      0.863031
  C      -3.834336      1.382224      0.938059
  O      -4.602864      2.447690      1.329354
  C      -5.987709      2.013877      1.195685
  O      -5.974168      0.629470      0.763746
  C      -4.646576      0.298009      0.598720
  C      -4.108181     -0.893317      0.175038
  C      -2.699139     -0.974736      0.115741
  N      -2.182355     -2.271317     -0.344991
  O      -2.931554     -3.007074     -0.995552
  O      -1.009848     -2.588483     -0.034447
  N       0.356417     -0.620440      1.334980
  C       1.695982     -0.413389      1.643312
  C       2.350685     -1.340049      2.488749
  C       3.683607     -1.165914      2.851616
  C       4.417849     -0.067055      2.391695
  C       3.760309      0.834376      1.555102
  C       2.428516      0.690210      1.169397
  N       4.516806      1.998163      1.017076
  O       5.696376      2.140995      1.377250
  O       3.928194      2.763791      0.233542
  O       0.849701      1.298808     -1.737761
  C       1.513395      1.605106     -3.013100
  C       0.517899      2.148353     -4.029620
  H       2.235853     -4.397912     -1.247777
  H       3.155969     -3.016454     -0.601523
  H       1.545780     -3.408974      0.055266
  H       0.478316     -2.788854     -2.126989
  H       2.083089     -2.482900     -2.839084
  H      -0.055066      1.196852      0.464079
  H      -1.844142      2.174579      1.109889
  H      -6.484868      2.630567      0.434697
  H      -6.482718      2.088683      2.172305
  H      -4.715474     -1.744787     -0.109716
  H       0.042637     -1.585029      1.375347
  H       1.794621     -2.200799      2.858514
  H       4.160283     -1.896493      3.502353
  H       5.456930      0.090115      2.657961
  H       2.012866      1.413431      0.479395
  H       2.015476      0.699584     -3.378135
  H       2.280226      2.342128     -2.751916
  H       1.046778      2.416537     -4.954766
  H      -0.246675      1.399488     -4.263802
  H       0.023783      3.048269     -3.642900
>
51
-1880.51664295; 31P isotropic shielding: 244.106840 ppm
  C      -1.387321     -4.778317     -0.697353
  C       0.082101     -4.422231     -0.866396
  O       0.341683     -3.043583     -0.413505
  P       0.214578     -1.829874     -1.469725
  O      -0.994429     -1.816681     -2.328131
  C       0.365111     -0.383095     -0.302216
  C      -1.028561      0.146098      0.050100
  C      -1.524030     -0.139972      1.336779
  C      -2.802792      0.269252      1.661577
  O      -3.456242      0.116458      2.859688
  C      -4.793315      0.656962      2.654646
  O      -4.826922      1.259053      1.337266
  C      -3.617299      0.945548      0.750675
  C      -3.181995      1.236210     -0.520001
  C      -1.870633      0.830918     -0.855210
  N      -1.452403      1.172122     -2.231085
  O      -0.233378      1.180403     -2.506789
  O      -2.335131      1.462817     -3.049210
  N       1.178951     -0.748347      0.840238
  C       1.914867      0.165737      1.569666
  C       2.818386     -0.289938      2.559833
  C       3.563704      0.609723      3.317148
  C       3.442292      1.990422      3.122483
  C       2.544910      2.423122      2.146985
  C       1.779008      1.553327      1.371767
  N       2.379103      3.887732      1.923105
  O       1.548602      4.254198      1.075560
  O       3.079056      4.658943      2.598427
  O       1.621618     -1.924253     -2.242157
  C       1.804973     -1.265007     -3.552648
  C       2.809771     -0.131776     -3.424099
  H      -2.012742     -4.139839     -1.330170
  H      -1.546076     -5.826570     -0.986134
  H      -1.697426     -4.658327      0.348132
  H       0.407181     -4.519965     -1.909823
  H       0.731917     -5.045027     -0.241664
  H       0.886239      0.374813     -0.891702
  H      -0.901632     -0.667066      2.052184
  H      -4.990870      1.424128      3.413042
  H      -5.522644     -0.164869      2.701984
  H      -3.795630      1.751829     -1.249426
  H       1.311506     -1.734261      1.026154
  H       2.931530     -1.361795      2.721072
  H       4.253950      0.231686      4.068794
  H       4.013013      2.709984      3.698396
  H       1.091542      1.968437      0.644481
  H       0.832408     -0.914971     -3.914374
  H       2.169156     -2.054458     -4.220487
  H       2.425733      0.669042     -2.782850
  H       3.760353     -0.494501     -3.013971
  H       3.002029      0.297661     -4.416755
>
51
-1880.51828754; 31P isotropic shielding: 251.714642 ppm
  C       1.643028     -4.594155     -1.192147
  C       0.542960     -3.920983     -0.383969
  O       0.773551     -2.471732     -0.253861
  P       0.342416     -1.473715     -1.444043
  O      -0.877807     -1.836787     -2.205579
  C       0.223441      0.129227     -0.501912
  C      -1.222521      0.358098     -0.053126
  C      -1.522694      0.141632      1.306113
  C      -2.836499      0.248756      1.719525
  O      -3.332242      0.111444      2.993289
  C      -4.778793      0.219626      2.868046
  O      -5.071992      0.623481      1.507233
  C      -3.871180      0.549552      0.830233
  C      -3.628312      0.758023     -0.506805
  C      -2.284374      0.667008     -0.932059
  N      -2.075406      0.918040     -2.372570
  O      -3.041189      0.773305     -3.132371
  O      -0.948102      1.301544     -2.756918
  N       1.196866      0.141648      0.571939
  C       1.831853      1.292932      1.004434
  C       1.405232      2.581312      0.609307
  C       2.066926      3.720281      1.075507
  C       3.153122      3.625435      1.946951
  C       3.554476      2.343763      2.334594
  C       2.926174      1.187310      1.886754
  N       4.709827      2.200640      3.264647
  O       5.271822      3.237083      3.651551
  O       5.045586      1.052934      3.601854
  O       1.702925     -1.355810     -2.294520
  C       1.651520     -0.772445     -3.653131
  C       1.458244     -1.861182     -4.697188
  H       1.639974     -4.248065     -2.231568
  H       2.629344     -4.388948     -0.759014
  H       1.481307     -5.680865     -1.190261
  H       0.521011     -4.281259      0.650004
  H      -0.444917     -4.068438     -0.836467
  H       0.486441      0.887985     -1.242933
  H      -0.726746     -0.100431      2.002672
  H      -5.143997      0.984396      3.563314
  H      -5.229981     -0.764317      3.064600
  H      -4.412921      0.984891     -1.219431
  H       1.573256     -0.749357      0.871399
  H       0.553201      2.695087     -0.055112
  H       1.721316      4.701007      0.754363
  H       3.676457      4.497953      2.321081
  H       3.291184      0.219084      2.217667
  H       2.614527     -0.262158     -3.763858
  H       0.846786     -0.028902     -3.699919
  H       0.490554     -2.356343     -4.560909
  H       1.480528     -1.412812     -5.700048
  H       2.259520     -2.608472     -4.637259
>
51
-1880.51851275; 31P isotropic shielding: 250.631304 ppm
  C       2.084705     -2.772678     -3.033557
  C       1.630144     -2.646412     -1.587430
  O       1.621315     -1.234411     -1.168150
  P       0.314650     -0.310616     -1.345440
  O      -0.711467     -0.834881     -2.286157
  C      -0.286352      0.114136      0.401704
  C      -1.806901      0.090900      0.484288
  C      -2.413663      1.329457      0.786562
  C      -3.793457      1.418095      0.803511
  O      -4.564196      2.513315      1.097553
  C      -5.944678      2.095423      0.888195
  O      -5.934016      0.669840      0.622367
  C      -4.605119      0.318518      0.516063
  C      -4.065375     -0.905772      0.201889
  C      -2.656106     -1.002917      0.200095
  N      -2.137999     -2.334408     -0.146702
  O      -0.988390     -2.646397      0.243884
  O      -2.866998     -3.101697     -0.783961
  N       0.365275     -0.592145      1.492112
  C       1.690548     -0.353496      1.837595
  C       2.321707     -1.225614      2.756317
  C       3.635415     -1.012148      3.165892
  C       4.373996      0.073104      2.681127
  C       3.741367      0.918378      1.770071
  C       2.429871      0.733764      1.336294
  N       4.505407      2.064587      1.203421
  O       3.942949      2.775774      0.352330
  O       5.664990      2.246073      1.607906
  O       0.957190      1.130117     -1.683375
  C       1.633477      1.364929     -2.967954
  C       0.649028      1.863986     -4.016617
  H       2.156467     -3.834836     -3.306002
  H       1.362121     -2.295964     -3.706047
  H       3.071644     -2.314517     -3.177267
  H       2.331408     -3.127302     -0.896052
  H       0.634250     -3.072164     -1.436161
  H      -0.006466      1.167276      0.496540
  H      -1.802532      2.203202      0.994622
  H      -6.350960      2.627678      0.016283
  H      -6.521107      2.293330      1.799425
  H      -4.671244     -1.771565     -0.039242
  H       0.060274     -1.557356      1.573477
  H       1.761148     -2.073619      3.148542
  H       4.092622     -1.699974      3.874629
  H       5.398257      0.260196      2.982755
  H       2.035579      1.414108      0.592121
  H       2.129277      0.438113     -3.283043
  H       2.404746      2.107853     -2.738461
  H       0.160292      2.786649     -3.680010
  H       1.185062      2.079877     -4.951319
  H      -0.120558      1.110414     -4.217427
