58
-1366.66638129; 31P isotropic shielding: 258.825804 ppm
  C       5.755009      3.040662     -1.308938
  C       4.362325      2.424695     -1.516675
  C       3.727155      1.907886     -0.215400
  C       2.331308      1.296605     -0.454136
  N       1.635532      0.766012      0.730084
  C       1.231022      1.801621      1.686829
  C      -0.024274      1.418042      2.442123
  C      -1.124090      0.905029      1.871745
  P      -1.347860      0.734569      0.074721
  O      -0.809189      1.846642     -0.779851
  C      -0.785131     -0.933871     -0.393244
  C      -0.766894     -2.006075      0.510940
  C      -0.396041     -3.283148      0.081550
  C      -0.036504     -3.496113     -1.253772
  C      -0.044747     -2.426537     -2.157154
  C      -0.420811     -1.150110     -1.730673
  C      -3.173674      0.636083     -0.080789
  C      -3.936979     -0.378161      0.518611
  C      -5.326186     -0.395560      0.370551
  C      -5.962845      0.599734     -0.381444
  C      -5.206362      1.609506     -0.984930
  C      -3.815646      1.628405     -0.835688
  C       2.287406     -0.362764      1.411724
  C       2.741099     -1.491357      0.479676
  C       3.093350     -2.771984      1.253085
  C       3.611027     -3.894253      0.340241
  H       5.710394      3.892810     -0.616141
  H       6.453505      2.305478     -0.884604
  H       6.181986      3.400691     -2.254529
  H       3.693224      3.170842     -1.972911
  H       4.430930      1.595590     -2.238814
  H       4.395063      1.160694      0.241167
  H       3.652599      2.737455      0.504882
  H       1.658177      2.040086     -0.897918
  H       2.410729      0.482717     -1.186893
  H       1.019858      2.720089      1.121149
  H       2.033584      2.042681      2.412112
  H      -0.027941      1.602612      3.519485
  H      -1.996991      0.687380      2.488004
  H      -1.020651     -1.841110      1.556255
  H      -0.377404     -4.109810      0.789860
  H       0.255196     -4.490292     -1.587796
  H       0.244311     -2.587574     -3.194597
  H      -0.421124     -0.310212     -2.422703
  H      -3.451074     -1.166231      1.091664
  H      -5.912048     -1.186665      0.836224
  H      -7.045401      0.584260     -0.498313
  H      -5.698730      2.382843     -1.572711
  H      -3.210131      2.404381     -1.299442
  H       3.155509     -0.021660      2.017307
  H       1.557808     -0.764796      2.131445
  H       3.620406     -1.171745     -0.098906
  H       1.951049     -1.711327     -0.246187
  H       2.199688     -3.120863      1.792671
  H       3.848523     -2.543479      2.021945
  H       2.865526     -4.150391     -0.424379
  H       3.837650     -4.805131      0.910209
  H       4.529178     -3.588281     -0.180718
>
58
-1366.66855471; 31P isotropic shielding: 265.789745 ppm
  C       6.008501      2.771040      0.746012
  C       4.947090      1.680078      0.534857
  C       3.506040      2.206657      0.639272
  C       2.471206      1.089447      0.397850
  N       1.048889      1.474966      0.509450
  C       0.622745      1.703761      1.886444
  C       0.470712      0.422707      2.668414
  C       0.154317     -0.786135      2.179307
  P      -0.171338     -1.275513      0.452826
  O       0.999466     -1.507879     -0.458298
  C      -1.095385     -2.842504      0.704399
  C      -0.612391     -3.998518      0.075072
  C      -1.280968     -5.217476      0.232690
  C      -2.435066     -5.287718      1.019553
  C      -2.923053     -4.135377      1.648810
  C      -2.256601     -2.917914      1.489905
  C      -1.447302     -0.157896     -0.218462
  C      -2.342680      0.566102      0.582121
  C      -3.325178      1.368775     -0.006060
  C      -3.424823      1.448928     -1.399282
  C      -2.540792      0.718815     -2.202106
  C      -1.559572     -0.083238     -1.615223
  C       0.610951      2.540568     -0.405366
  C       0.962214      2.267782     -1.872836
  C       0.199390      3.198280     -2.828530
  C       0.542287      2.947483     -4.304886
  H       5.910180      3.233018      1.738694
  H       7.025423      2.364265      0.666031
  H       5.908131      3.570157     -0.002061
  H       5.089332      1.214088     -0.452763
  H       5.092821      0.875558      1.272758
  H       3.360135      2.660018      1.632316
  H       3.365886      3.017675     -0.091756
  H       2.618735      0.644811     -0.591752
  H       2.639967      0.271563      1.108529
  H      -0.355177      2.211803      1.862000
  H       1.291457      2.389214      2.446559
  H       0.623622      0.513764      3.747765
  H       0.081388     -1.619177      2.879815
  H       0.287485     -3.924054     -0.532166
  H      -0.900314     -6.111856     -0.258496
  H      -2.955622     -6.236329      1.142221
  H      -3.823655     -4.186651      2.259015
  H      -2.648640     -2.025247      1.974995
  H      -2.267995      0.512948      1.666235
  H      -4.011253      1.933517      0.623599
  H      -4.187646      2.076606     -1.856933
  H      -2.615098      0.775672     -3.286904
  H      -0.865385     -0.649414     -2.232814
  H      -0.481296      2.611507     -0.307708
  H       1.016523      3.532690     -0.113705
  H       0.731713      1.220969     -2.106737
  H       2.042714      2.394168     -2.035101
  H       0.417505      4.247610     -2.572828
  H      -0.881151      3.061984     -2.673894
  H       1.612387      3.108169     -4.497252
  H      -0.020922      3.617083     -4.968538
  H       0.307493      1.913151     -4.593258
>
58
-1366.66753431; 31P isotropic shielding: 266.624393 ppm
  C       3.571774     -3.789887      0.957378
  C       3.089888     -2.515104      1.666432
  C       2.747842     -1.382644      0.685815
  C       2.307580     -0.104960      1.409092
  N       1.657288      0.890522      0.542495
  C       1.279258      2.088438      1.300528
  C       0.041337      1.862058      2.142789
  C      -1.074423      1.262892      1.702583
  P      -1.342287      0.761814     -0.025654
  O      -0.823250      1.691721     -1.085324
  C      -0.795754     -0.968503     -0.186631
  C      -0.755968     -1.852020      0.901907
  C      -0.401507     -3.189982      0.709501
  C      -0.081922     -3.652987     -0.571493
  C      -0.112932     -2.772037     -1.659234
  C      -0.471593     -1.434921     -1.469413
  C      -3.171715      0.644135     -0.110826
  C      -3.914649     -0.242083      0.685444
  C      -5.307627     -0.281038      0.586089
  C      -5.969256      0.563878     -0.313651
  C      -5.233528      1.444505     -1.113257
  C      -3.838769      1.485212     -1.012894
  C       2.336583      1.189268     -0.728731
  C       3.731801      1.839095     -0.629868
  C       4.357626      2.072911     -2.014507
  C       5.744574      2.731535     -1.951501
  H       2.806430     -4.165434      0.265153
  H       4.482377     -3.597525      0.372569
  H       3.799441     -4.588885      1.675599
  H       2.200634     -2.745821      2.272502
  H       3.863193     -2.172375      2.372522
  H       3.628305     -1.177978      0.058564
  H       1.951655     -1.712953      0.009731
  H       1.578097     -0.372053      2.188575
  H       3.180991      0.330876      1.941771
  H       1.058617      2.887761      0.578971
  H       2.100570      2.452456      1.949241
  H       0.065031      2.242233      3.167328
  H      -1.933158      1.168955      2.367923
  H      -0.981251     -1.492435      1.903968
  H      -0.365027     -3.869178      1.559663
  H       0.196042     -4.694838     -0.720855
  H       0.144941     -3.127405     -2.655700
  H      -0.488967     -0.739470     -2.306273
  H      -3.409917     -0.915598      1.376109
  H      -5.877170     -0.972736      1.205054
  H      -7.054866      0.531632     -0.392458
  H      -5.745294      2.100291     -1.816109
  H      -3.250445      2.162222     -1.628975
  H       2.413464      0.252383     -1.296142
  H       1.653850      1.833468     -1.296472
  H       4.404451      1.204885     -0.031192
  H       3.659602      2.800962     -0.098316
  H       3.679577      2.698021     -2.616392
  H       4.432306      1.109317     -2.543431
  H       6.165384      2.881145     -2.954845
  H       6.451479      2.112275     -1.381231
  H       5.694285      3.713687     -1.460519
>
58
-1366.66845570; 31P isotropic shielding: 265.770675 ppm
  C       3.755347     -3.747065      0.932087
  C       3.226605     -2.507186      1.669118
  C       2.863335     -1.357770      0.716305
  C       2.388822     -0.110723      1.470457
  N       1.715755      0.888622      0.626662
  C       1.293278      2.051665      1.414679
  C       0.045589      1.767473      2.224586
  C      -1.043867      1.150001      1.745537
  P      -1.267386      0.691982     -0.000864
  O      -0.756418      1.665238     -1.025066
  C      -0.671209     -1.017444     -0.203353
  C      -0.632161     -1.934775      0.856855
  C      -0.237576     -3.255998      0.630024
  C       0.123149     -3.668437     -0.657328
  C       0.092967     -2.753502     -1.716646
  C      -0.305815     -1.433182     -1.492548
  C      -3.091629      0.529854     -0.121949
  C      -3.825604     -0.393837      0.639105
  C      -5.215230     -0.464733      0.513994
  C      -5.882282      0.385486     -0.376787
  C      -5.155179      1.303250     -1.141761
  C      -3.763835      1.375993     -1.015415
  C       2.392463      1.245248     -0.632120
  C       3.770458      1.926912     -0.499140
  C       4.428489      2.220891     -1.862122
  C       3.679572      3.266845     -2.707073
  H       4.670643     -3.513503      0.370092
  H       3.991609     -4.560566      1.631016
  H       3.012817     -4.122376      0.215252
  H       2.336725     -2.781213      2.255984
  H       3.980191     -2.162208      2.395187
  H       3.741357     -1.115894      0.098965
  H       2.077851     -1.688009      0.028001
  H       1.663036     -0.416409      2.239527
  H       3.248395      0.333233      2.018653
  H       1.067241      2.869431      0.715872
  H       2.092421      2.413875      2.091397
  H       0.038434      2.119248      3.259492
  H      -1.912195      1.013649      2.390821
  H      -0.888583     -1.614093      1.864644
  H      -0.202116     -3.961447      1.458602
  H       0.432333     -4.697232     -0.833425
  H       0.382549     -3.069335     -2.717714
  H      -0.323661     -0.711644     -2.307007
  H      -3.316019     -1.071491      1.322166
  H      -5.777749     -1.185269      1.105895
  H      -6.965262      0.328638     -0.475392
  H      -5.670945      1.963336     -1.837642
  H      -3.182167      2.082681     -1.603858
  H       2.500717      0.328383     -1.227238
  H       1.688059      1.881345     -1.178011
  H       4.443215      1.286981      0.091225
  H       3.667460      2.869236      0.061886
  H       4.512430      1.280740     -2.431280
  H       5.459303      2.566791     -1.692918
  H       3.579872      4.214276     -2.158143
  H       2.669676      2.931855     -2.973641
  H       4.216627      3.477479     -3.641442
>
58
-1366.66754443; 31P isotropic shielding: 265.773704 ppm
  C       3.757695     -3.606934      0.927955
  C       3.206806     -2.378627      1.668002
  C       2.831329     -1.230243      0.718768
  C       2.340397      0.008065      1.476725
  N       1.654815      1.001734      0.636106
  C       1.216979      2.156236      1.427572
  C      -0.023819      1.848417      2.239699
  C      -1.104552      1.215064      1.761253
  P      -1.326771      0.765576      0.012775
  O      -0.834793      1.755439     -1.004922
  C      -0.702151     -0.931166     -0.209452
  C      -0.654189     -1.862791      0.837943
  C      -0.237748     -3.174330      0.594697
  C       0.136551     -3.562532     -0.696357
  C       0.097965     -2.633083     -1.742615
  C      -0.322918     -1.322498     -1.502217
  C      -3.147993      0.572958     -0.105170
  C      -3.866185     -0.361621      0.657616
  C      -5.254246     -0.457516      0.531516
  C      -5.935568      0.378332     -0.362033
  C      -5.224244      1.307099     -1.128464
  C      -3.834538      1.404954     -1.001090
  C       2.328440      1.364883     -0.621977
  C       3.690898      2.078149     -0.488509
  C       4.315225      2.438526     -1.851533
  C       4.743524      1.218704     -2.686332
  H       4.671535     -3.356639      0.370856
  H       4.003741     -4.419587      1.624493
  H       3.024305     -3.990814      0.206268
  H       2.318279     -2.668419      2.249354
  H       3.951759     -2.026031      2.399360
  H       3.707329     -0.974907      0.104394
  H       2.051328     -1.567459      0.027794
  H       1.619392     -0.308670      2.245893
  H       3.194942      0.461613      2.025115
  H       0.974941      2.971446      0.731060
  H       2.011231      2.530193      2.103691
  H      -0.033628      2.194966      3.276323
  H      -1.968097      1.061296      2.409041
  H      -0.920568     -1.560608      1.848899
  H      -0.195744     -3.890974      1.413298
  H       0.462813     -4.583732     -0.885376
  H       0.398116     -2.930082     -2.746342
  H      -0.348284     -0.589638     -2.306283
  H      -3.345968     -1.028615      1.343172
  H      -5.804292     -1.186393      1.124922
  H      -7.017253      0.301811     -0.461521
  H      -5.751039      1.956230     -1.826381
  H      -3.265015      2.120645     -1.590529
  H       2.441389      0.446748     -1.209395
  H       1.623345      1.997309     -1.175961
  H       4.396273      1.447949      0.076059
  H       3.559929      2.999395      0.098287
  H       5.191582      3.082499     -1.684177
  H       3.596933      3.043268     -2.427631
  H       5.228174      1.530335     -3.621058
  H       3.888812      0.585094     -2.954796
  H       5.459235      0.594776     -2.131686
>
58
-1366.66755721; 31P isotropic shielding: 266.017971 ppm
  C       5.387382      1.468488     -0.472211
  C       4.903178      1.857577      0.936177
  C       3.431272      2.314408      0.990749
  C       2.444021      1.188356      0.620205
  N       1.007407      1.508133      0.765240
  C       0.568083      1.563536      2.155243
  C       0.448009      0.196307      2.781807
  C       0.181680     -0.958455      2.152098
  P      -0.101128     -1.257584      0.374962
  O       1.089567     -1.334467     -0.537051
  C      -0.959116     -2.880463      0.426752
  C      -0.400148     -3.943230     -0.297020
  C      -1.015807     -5.199701     -0.291502
  C      -2.192826     -5.401124      0.436566
  C      -2.756917     -4.342243      1.159398
  C      -2.143249     -3.087275      1.152418
  C      -1.416710     -0.123687     -0.182976
  C      -2.341605      0.477192      0.683144
  C      -3.349441      1.303239      0.175793
  C      -3.444586      1.530202     -1.201485
  C      -2.530970      0.922808     -2.070685
  C      -1.525194      0.096482     -1.564688
  C       0.533877      2.652294     -0.029714
  C       0.899873      2.554401     -1.515145
  C       0.114716      3.562370     -2.368547
  C       0.449407      3.463311     -3.864846
  H       5.249723      2.300205     -1.178235
  H       6.454856      1.211431     -0.464570
  H       4.841173      0.602751     -0.866097
  H       5.040727      1.003434      1.618380
  H       5.540518      2.665821      1.325503
  H       3.214177      2.683704      2.004269
  H       3.296303      3.172172      0.313915
  H       2.599756      0.853762     -0.408293
  H       2.642803      0.307804      1.243678
  H      -0.423384      2.044456      2.182234
  H       1.213511      2.197161      2.797904
  H       0.580227      0.168048      3.867399
  H       0.125707     -1.867911      2.751843
  H       0.515705     -3.767919     -0.857902
  H      -0.576365     -6.020903     -0.855960
  H      -2.672410     -6.378819      0.440302
  H      -3.675785     -4.494822      1.723712
  H      -2.595455     -2.267220      1.708173
  H      -2.269776      0.309800      1.755690
  H      -4.058525      1.772612      0.856246
  H      -4.227066      2.176760     -1.595239
  H      -2.601276      1.094651     -3.143533
  H      -0.807662     -0.375018     -2.233088
  H      -0.560793      2.669758      0.064548
  H       0.898658      3.620524      0.374260
  H       0.698406      1.533892     -1.863549
  H       1.976882      2.726102     -1.655701
  H       0.318511      4.584826     -2.012019
  H      -0.962499      3.393978     -2.221581
  H       0.222650      2.460072     -4.252267
  H       1.516321      3.653800     -4.047245
  H      -0.125694      4.189110     -4.455158
>
58
-1366.66654092; 31P isotropic shielding: 266.249734 ppm
  C       3.828751      3.804362     -1.524446
  C       3.539770      3.922577     -0.017374
  C       3.327913      2.569064      0.689564
  C       2.058158      1.833959      0.210805
  N       1.738047      0.569126      0.893140
  C       2.704368     -0.502375      0.628901
  C       2.059175     -1.871953      0.668771
  C       0.898090     -2.179486      0.072746
  P      -0.012958     -1.044934     -1.018319
  O       0.810823     -0.186872     -1.936353
  C      -1.058946     -2.200341     -1.987205
  C      -0.873878     -2.236012     -3.376834
  C      -1.635692     -3.104154     -4.166159
  C      -2.585977     -3.940986     -3.572267
  C      -2.777384     -3.906433     -2.185370
  C      -2.018166     -3.038271     -1.396773
  C      -1.213429     -0.136667      0.007630
  C      -1.718592     -0.648545      1.211859
  C      -2.694968      0.055504      1.921603
  C      -3.170798      1.277764      1.434291
  C      -2.663719      1.795271      0.236299
  C      -1.691152      1.090002     -0.477316
  C       1.422847      0.660817      2.326816
  C       0.420918      1.763376      2.686559
  C      -0.135943      1.595034      4.108924
  C      -1.088065      2.730277      4.514050
  H       2.983683      3.368983     -2.071776
  H       4.036915      4.788624     -1.964569
  H       4.704987      3.165346     -1.705107
  H       4.374008      4.451277      0.467893
  H       2.648669      4.552197      0.138062
  H       4.211664      1.933343      0.522421
  H       3.268925      2.739448      1.774961
  H       1.192735      2.501725      0.319645
  H       2.121850      1.589638     -0.854531
  H       3.559099     -0.481346      1.333890
  H       3.113641     -0.347249     -0.379373
  H       2.601056     -2.657663      1.201539
  H       0.519931     -3.200772      0.126416
  H      -0.131834     -1.576309     -3.821876
  H      -1.487088     -3.126566     -5.244752
  H      -3.179312     -4.616317     -4.186807
  H      -3.521222     -4.551970     -1.720682
  H      -2.188086     -3.008510     -0.321727
  H      -1.336205     -1.586937      1.608794
  H      -3.077535     -0.343792      2.859476
  H      -3.929220      1.827591      1.988814
  H      -3.025482      2.750589     -0.140856
  H      -1.284991      1.488216     -1.405119
  H       1.001686     -0.312519      2.621489
  H       2.342790      0.793729      2.937198
  H      -0.405514      1.757141      1.968202
  H       0.900576      2.750224      2.606499
  H       0.697450      1.539871      4.827537
  H      -0.663222      0.631230      4.175073
  H      -0.574901      3.702109      4.495465
  H      -1.484375      2.581461      5.527378
  H      -1.940268      2.792903      3.823981
>
58
-1366.66756494; 31P isotropic shielding: 265.797021 ppm
  C       5.497459      3.695804      0.041426
  C       4.055638      3.284642     -0.295539
  C       3.626571      1.969574      0.376278
  C       2.182095      1.581646      0.001320
  N       1.646656      0.355067      0.629536
  C       1.341959      0.525894      2.047047
  C       0.105014      1.359225      2.275369
  C      -0.956496      1.457819      1.460500
  P      -1.240340      0.646213     -0.148544
  O      -0.593766      1.231800     -1.370776
  C      -0.973044     -1.144683      0.074268
  C      -1.053726     -1.790796      1.316547
  C      -0.883983     -3.175956      1.403616
  C      -0.641089     -3.927430      0.248732
  C      -0.571815     -3.288114     -0.994480
  C      -0.739485     -1.904377     -1.082107
  C      -3.068094      0.769725     -0.283455
  C      -3.936433      0.252036      0.690876
  C      -5.319928      0.372120      0.538848
  C      -5.847241      1.008526     -0.592004
  C      -4.987049      1.522589     -1.567636
  C      -3.601347      1.403719     -1.414589
  C       2.412426     -0.873804      0.360707
  C       2.652313     -1.118014     -1.134946
  C       3.118902     -2.553024     -1.443121
  C       4.487061     -2.918958     -0.840542
  H       5.773180      4.637507     -0.451766
  H       5.627093      3.835373      1.124122
  H       6.213986      2.927269     -0.281332
  H       3.363808      4.087009      0.005332
  H       3.946553      3.184382     -1.386792
  H       4.322608      1.170214      0.079429
  H       3.727273      2.075145      1.467939
  H       1.501849      2.401035      0.262641
  H       2.090219      1.467948     -1.083761
  H       2.180970      0.956971      2.630740
  H       1.171373     -0.472977      2.480647
  H       0.085757      1.922061      3.213100
  H      -1.779723      2.105631      1.764790
  H      -1.238325     -1.211917      2.218810
  H      -0.940412     -3.668649      2.373265
  H      -0.507272     -5.005749      0.317217
  H      -0.385116     -3.868468     -1.896545
  H      -0.680265     -1.399190     -2.043977
  H      -3.536598     -0.254850      1.567777
  H      -5.987383     -0.033042      1.298045
  H      -6.925769      1.100062     -0.711494
  H      -5.394450      2.016209     -2.448799
  H      -2.916534      1.796710     -2.163364
  H       3.379233     -0.878978      0.902951
  H       1.822917     -1.708869      0.765938
  H       3.400732     -0.409759     -1.520287
  H       1.719703     -0.911122     -1.673113
  H       3.164422     -2.676436     -2.535520
  H       2.357820     -3.262405     -1.085019
  H       5.263335     -2.211760     -1.166556
  H       4.800122     -3.924626     -1.151336
  H       4.466336     -2.905172      0.256887
>
58
-1366.66598070; 31P isotropic shielding: 266.579756 ppm
  C       2.741816      4.868895      0.199422
  C       3.691261      3.780888     -0.333242
  C       3.505612      2.404189      0.335449
  C       2.155289      1.742413     -0.012102
  N       1.903713      0.420771      0.586993
  C       2.798862     -0.630829      0.093527
  C       2.136326     -1.992317      0.103746
  C       0.893697     -2.233454     -0.338455
  P      -0.145202     -0.994260     -1.171313
  O       0.548358     -0.063883     -2.125379
  C      -1.355560     -2.045309     -2.065360
  C      -2.218282     -2.938309     -1.410229
  C      -3.115907     -3.717682     -2.144194
  C      -3.160577     -3.607394     -3.539637
  C      -2.306833     -2.715569     -4.196748
  C      -1.406496     -1.936289     -3.462405
  C      -1.155601     -0.174002      0.103509
  C      -1.475633     -0.787215      1.323901
  C      -2.318923     -0.145043      2.234515
  C      -2.844317      1.116179      1.933257
  C      -2.520021      1.735294      0.720084
  C      -1.681563      1.092092     -0.194144
  C       1.793750      0.381912      2.053715
  C       0.899648      1.472698      2.653376
  C       0.550345      1.188514      4.122754
  C      -0.308930      2.294411      4.754366
  H       2.953760      5.840399     -0.266356
  H       1.690026      4.630371     -0.002626
  H       2.853270      4.988792      1.286742
  H       3.554342      3.674221     -1.421016
  H       4.730576      4.110966     -0.186548
  H       4.324057      1.740675      0.018995
  H       3.602854      2.517402      1.426824
  H       1.327604      2.397189      0.282282
  H       2.066967      1.609314     -1.097766
  H       3.745649     -0.682011      0.667091
  H       3.063334     -0.389481     -0.945831
  H       2.734422     -2.828875      0.474207
  H       0.506327     -3.252583     -0.323694
  H      -2.204245     -3.020119     -0.324571
  H      -3.784103     -4.406765     -1.629742
  H      -3.862344     -4.213113     -4.110985
  H      -2.341659     -2.625811     -5.281491
  H      -0.736045     -1.235670     -3.955929
  H      -1.050316     -1.757090      1.574038
  H      -2.558625     -0.623073      3.182892
  H      -3.499305      1.617638      2.643587
  H      -2.919951      2.721092      0.487602
  H      -1.416464      1.568097     -1.136147
  H       1.377993     -0.603141      2.315524
  H       2.795055      0.428318      2.535488
  H      -0.022978      1.555383      2.069111
  H       1.401553      2.449396      2.589963
  H       1.477113      1.064760      4.705569
  H       0.016825      0.227964      4.185098
  H      -1.252020      2.418627      4.205616
  H       0.214786      3.260605      4.737165
  H      -0.554192      2.066121      5.800205
>
58
-1366.66744983; 31P isotropic shielding: 265.890716 ppm
  C       4.336310     -1.565619      2.945338
  C       3.071610     -2.066202      2.225700
  C       2.721164     -1.289776      0.943096
  C       2.371816      0.180689      1.206032
  N       1.676116      0.840571      0.088696
  C       1.363790      2.237727      0.411549
  C       0.184167      2.349864      1.354856
  C      -0.971171      1.686635      1.201297
  P      -1.365593      0.667163     -0.252659
  O      -0.888878      1.180230     -1.581907
  C      -0.870496     -1.044512      0.125362
  C      -0.798224     -1.540178      1.435561
  C      -0.473737     -2.879977      1.663924
  C      -0.213482     -3.731928      0.585109
  C      -0.278507     -3.239170     -0.723769
  C      -0.609758     -1.901347     -0.954447
  C      -3.199172      0.616363     -0.202019
  C      -3.895374      1.170548     -1.285924
  C      -5.294195      1.170243     -1.297766
  C      -6.004690      0.616484     -0.227841
  C      -5.314136      0.058195      0.855098
  C      -3.917038      0.056757      0.866872
  C       2.282991      0.668195     -1.241799
  C       3.692669      1.262512     -1.438547
  C       4.232582      1.009803     -2.855712
  C       5.633318      1.598641     -3.085824
  H       5.204151     -1.578403      2.270319
  H       4.217360     -0.537564      3.311081
  H       4.576632     -2.198077      3.810296
  H       3.201167     -3.126916      1.964579
  H       2.214582     -2.025642      2.915401
  H       3.569733     -1.357575      0.245572
  H       1.870656     -1.773146      0.451914
  H       1.698238      0.234427      2.075543
  H       3.286689      0.740965      1.490822
  H       1.100820      2.747987     -0.525662
  H       2.231234      2.774386      0.844698
  H       0.287240      3.038839      2.197120
  H      -1.782764      1.847673      1.911562
  H      -0.972653     -0.876564      2.280301
  H      -0.411684     -3.256986      2.683418
  H       0.046068     -4.773983      0.764063
  H      -0.067593     -3.897623     -1.565069
  H      -0.651733     -1.505003     -1.967050
  H      -3.325762      1.594176     -2.110543
  H      -5.828858      1.601938     -2.142587
  H      -7.093606      0.615356     -0.237445
  H      -5.864611     -0.380188      1.686206
  H      -3.390565     -0.395142      1.705860
  H       2.309311     -0.407247     -1.461037
  H       1.579377      1.108682     -1.958974
  H       4.391721      0.833606     -0.703522
  H       3.670255      2.346902     -1.248286
  H       3.529528      1.432476     -3.590404
  H       4.254526     -0.075315     -3.045264
  H       5.633523      2.687683     -2.937011
  H       5.991309      1.400816     -4.105086
  H       6.363430      1.168655     -2.385488
>
58
-1366.66701616; 31P isotropic shielding: 265.883296 ppm
  C       3.818969      0.920494     -3.408640
  C       3.366264      1.592938     -2.103000
  C       2.846754      0.585096     -1.065315
  C       2.419766      1.266792      0.240576
  N       1.602921      0.396482      1.102412
  C       1.070787      1.091128      2.281659
  C      -0.226591      0.460520      2.744953
  C      -1.260369      0.202442      1.929891
  P      -1.342129      0.761590      0.199465
  O      -0.720733      2.098684     -0.094055
  C      -0.762752     -0.591004     -0.872348
  C      -0.527544     -1.891679     -0.409185
  C      -0.090740     -2.884231     -1.291750
  C       0.109547     -2.582338     -2.643288
  C      -0.130742     -1.284827     -3.111374
  C      -0.567696     -0.293150     -2.230765
  C      -3.149473      0.801269     -0.101811
  C      -3.936402     -0.361056     -0.095130
  C      -5.313712     -0.279316     -0.314942
  C      -5.912540      0.965308     -0.547499
  C      -5.130752      2.125157     -0.562379
  C      -3.751947      2.044539     -0.340055
  C       2.183494     -0.916899      1.420332
  C       3.537843     -0.920591      2.161221
  C       4.024147     -2.346377      2.466675
  C       5.384599     -2.384231      3.180256
  H       4.642497      0.215011     -3.227673
  H       2.994216      0.355595     -3.865420
  H       4.167232      1.659280     -4.142732
  H       4.203557      2.166767     -1.674789
  H       2.571716      2.322854     -2.320081
  H       1.986905      0.046169     -1.481816
  H       3.628788     -0.165767     -0.873683
  H       3.319416      1.651565      0.765993
  H       1.785612      2.129205      0.000042
  H       0.861601      2.127110      1.982883
  H       1.788425      1.136201      3.122924
  H      -0.317538      0.216568      3.806386
  H      -2.171148     -0.241087      2.333374
  H      -0.660114     -2.122943      0.645485
  H       0.101143     -3.890781     -0.923024
  H       0.453921     -3.354616     -3.329188
  H       0.028185     -1.045608     -4.161660
  H      -0.737155      0.722009     -2.585066
  H      -3.473844     -1.334039      0.066364
  H      -5.919307     -1.184382     -0.311614
  H      -6.985605      1.028135     -0.721809
  H      -5.594231      3.092925     -0.748341
  H      -3.126925      2.935244     -0.353332
  H       1.442847     -1.461806      2.023998
  H       2.285088     -1.482591      0.484895
  H       3.457491     -0.355804      3.102709
  H       4.294553     -0.401582      1.553955
  H       4.087790     -2.916042      1.525706
  H       3.271000     -2.862080      3.083852
  H       5.704515     -3.415000      3.383262
  H       5.343131     -1.851576      4.140821
  H       6.163668     -1.905974      2.570175
>
58
-1366.66748297; 31P isotropic shielding: 259.646783 ppm
  C       2.673519      0.750957      4.575568
  C       2.966133      0.012807      3.260187
  C       2.308645      0.681019      2.042325
  C       2.643082     -0.057363      0.740410
  N       1.856812      0.349602     -0.434906
  C       1.811981      1.794274     -0.681886
  C       0.692343      2.488033      0.067056
  C      -0.552073      2.013809      0.229226
  P      -1.206827      0.510745     -0.556369
  O      -0.850670      0.313396     -2.003225
  C      -0.805661     -0.922529      0.499822
  C      -0.780702     -0.852872      1.900074
  C      -0.467223     -1.983531      2.658296
  C      -0.186525     -3.197935      2.021444
  C      -0.224309     -3.275624      0.624687
  C      -0.535285     -2.143675     -0.134090
  C      -3.018861      0.725182     -0.363044
  C      -3.639379      0.963504      0.873701
  C      -5.026479      1.110773      0.951333
  C      -5.806253      1.019286     -0.208240
  C      -5.194116      0.780433     -1.442741
  C      -3.805195      0.633849     -1.520782
  C       2.171299     -0.454378     -1.630771
  C       3.568775     -0.256050     -2.255046
  C       3.767272     -1.130542     -3.504381
  C       5.142779     -0.942695     -4.163449
  H       1.592012      0.805417      4.764587
  H       3.138041      0.246173      5.432927
  H       3.056045      1.780930      4.546434
  H       4.055141     -0.049502      3.106617
  H       2.605139     -1.024770      3.332599
  H       1.224696      0.706024      2.186640
  H       2.642130      1.728511      1.980886
  H       3.733412      0.051117      0.559177
  H       2.452820     -1.131357      0.882112
  H       1.629768      1.946818     -1.755757
  H       2.771637      2.297369     -0.455483
  H       0.928321      3.474247      0.476421
  H      -1.284380      2.626346      0.755963
  H      -0.981970      0.089674      2.404765
  H      -0.438722     -1.916980      3.744784
  H       0.059506     -4.079154      2.611703
  H      -0.009054     -4.219095      0.125087
  H      -0.556023     -2.189301     -1.220628
  H      -3.047107      1.028593      1.784680
  H      -5.499867      1.295329      1.914534
  H      -6.887384      1.134142     -0.147323
  H      -5.797660      0.709567     -2.346422
  H      -3.311522      0.451657     -2.473149
  H       2.050766     -1.510108     -1.345951
  H       1.392501     -0.237763     -2.371440
  H       4.356649     -0.490256     -1.523240
  H       3.704859      0.801524     -2.531702
  H       2.974308     -0.903062     -4.233764
  H       3.633464     -2.188947     -3.229431
  H       5.254089     -1.578897     -5.051696
  H       5.954119     -1.196309     -3.466440
  H       5.290882      0.099891     -4.478594
>
58
-1366.66586991; 31P isotropic shielding: 268.367838 ppm
  C       1.414096      4.433016     -1.270549
  C       2.529288      3.444356     -1.652292
  C       2.238143      1.971507     -1.297560
  C       2.155330      1.730695      0.214020
  N       1.816051      0.351355      0.598720
  C       1.702538      0.232771      2.058411
  C       0.391893      0.796969      2.567394
  C      -0.806782      0.509031      2.039667
  P      -1.058682     -0.736966      0.739056
  O      -0.203336     -1.969845      0.818843
  C      -2.829501     -1.168633      0.952522
  C      -3.138988     -2.505142      1.243592
  C      -4.469852     -2.896160      1.424414
  C      -5.498571     -1.954938      1.315700
  C      -5.195211     -0.619611      1.022281
  C      -3.866320     -0.228798      0.840121
  C      -1.002341      0.116021     -0.869896
  C      -0.603589     -0.630380     -1.988643
  C      -0.609633     -0.047678     -3.258565
  C      -1.026107      1.278864     -3.421351
  C      -1.422528      2.026223     -2.306695
  C      -1.403921      1.449729     -1.033937
  C       2.628094     -0.712574     -0.015560
  C       4.135703     -0.702940      0.309679
  C       4.881364     -1.863865     -0.368193
  C       6.385324     -1.885734     -0.052418
  H       0.465381      4.155883     -1.747640
  H       1.244609      4.463431     -0.186604
  H       1.667268      5.452307     -1.591435
  H       2.706535      3.509900     -2.735950
  H       3.471362      3.752406     -1.171003
  H       1.305010      1.648230     -1.772576
  H       3.039849      1.354546     -1.725626
  H       3.111631      2.055352      0.680931
  H       1.374408      2.372728      0.644375
  H       2.542536      0.725309      2.586914
  H       1.738436     -0.835014      2.314779
  H       0.439701      1.462009      3.433440
  H      -1.707516      0.935028      2.482632
  H      -2.325779     -3.223600      1.323267
  H      -4.703002     -3.935746      1.649865
  H      -6.534700     -2.259201      1.455836
  H      -5.994312      0.114608      0.931411
  H      -3.644716      0.808891      0.597210
  H      -0.280327     -1.659876     -1.848998
  H      -0.291164     -0.628861     -4.122651
  H      -1.035185      1.730954     -4.411737
  H      -1.736604      3.061452     -2.428443
  H      -1.680860      2.047665     -0.167975
  H       2.176562     -1.661486      0.298317
  H       2.489744     -0.654763     -1.103353
  H       4.280868     -0.767179      1.399413
  H       4.587297      0.250514     -0.006590
  H       4.735722     -1.799546     -1.458350
  H       4.425719     -2.816693     -0.056380
  H       6.560149     -1.983712      1.028308
  H       6.873196     -0.958149     -0.384013
  H       6.889518     -2.725061     -0.549833
>
58
-1366.66663728; 31P isotropic shielding: 267.053777 ppm
  C       3.686719      3.085560     -2.501902
  C       3.195634      2.916640     -1.055695
  C       2.772891      1.473780     -0.737531
  C       2.317618      1.324120      0.717149
  N       1.605505      0.060368      0.994081
  C       1.130757      0.002907      2.372840
  C      -0.101900      0.834594      2.626653
  C      -1.051692      1.189553      1.747829
  P      -1.155903      0.850675     -0.036721
  O      -0.357524      1.734876     -0.952359
  C      -0.904284     -0.935076     -0.298689
  C      -0.404385     -1.342013     -1.544466
  C      -0.230637     -2.699934     -1.823306
  C      -0.558672     -3.663528     -0.862891
  C      -1.060574     -3.261842      0.380368
  C      -1.235722     -1.903586      0.660634
  C      -2.950985      1.077869     -0.343053
  C      -3.334018      1.971572     -1.353247
  C      -4.689031      2.181031     -1.631738
  C      -5.668603      1.499489     -0.902538
  C      -5.291674      0.604925      0.107099
  C      -3.938775      0.394325      0.384081
  C       2.304126     -1.162113      0.565416
  C       3.671781     -1.444265      1.220631
  C       4.294414     -2.754821      0.712513
  C       5.665909     -3.055774      1.337119
  H       4.559817      2.447962     -2.702585
  H       2.899441      2.807431     -3.216089
  H       3.976635      4.124199     -2.710156
  H       3.987472      3.236401     -0.358586
  H       2.335789      3.579679     -0.880276
  H       1.937686      1.194507     -1.390092
  H       3.614143      0.795999     -0.949931
  H       3.186791      1.445473      1.398416
  H       1.619921      2.138609      0.947214
  H       1.908831      0.302825      3.106951
  H       0.886815     -1.044939      2.614804
  H      -0.225894      1.158209      3.664472
  H      -1.882024      1.795859      2.113042
  H      -0.140793     -0.585811     -2.281140
  H       0.163542     -3.007084     -2.790866
  H      -0.421166     -4.721491     -1.079951
  H      -1.313051     -4.006840      1.133649
  H      -1.613883     -1.599119      1.634539
  H      -2.558290      2.495590     -1.907904
  H      -4.979267      2.877178     -2.417307
  H      -6.723294      1.662607     -1.118979
  H      -6.052107      0.071307      0.675389
  H      -3.657076     -0.309174      1.165719
  H       1.627539     -2.005122      0.759575
  H       2.426418     -1.115857     -0.523482
  H       3.561548     -1.495454      2.315329
  H       4.363088     -0.612650      1.017537
  H       4.392129     -2.706334     -0.383596
  H       3.604487     -3.588292      0.919390
  H       6.085229     -3.996322      0.955607
  H       5.592406     -3.141742      2.430503
  H       6.385141     -2.254739      1.115928
>
58
-1366.66884798; 31P isotropic shielding: 266.416095 ppm
  C       4.336066     -1.688997      2.871772
  C       3.069232     -2.152277      2.131403
  C       2.719806     -1.316634      0.886060
  C       2.371821      0.140371      1.217206
  N       1.674438      0.851359      0.132639
  C       1.363963      2.232244      0.521289
  C       0.182651      2.302088      1.466533
  C      -0.972704      1.647319      1.281171
  P      -1.366534      0.695456     -0.218204
  O      -0.888079      1.267513     -1.522520
  C      -0.873715     -1.032196      0.082772
  C      -0.799897     -1.584551      1.369927
  C      -0.478377     -2.933803      1.539100
  C      -0.222618     -3.738511      0.423552
  C      -0.288895     -3.188949     -0.862428
  C      -0.617517     -1.841611     -1.034010
  C      -3.200104      0.645043     -0.171039
  C      -3.919212      0.044843      0.874672
  C      -5.316268      0.049503      0.862779
  C      -6.005400      0.651794     -0.197273
  C      -5.293581      1.246071     -1.244341
  C      -3.894771      1.243132     -1.232296
  C       2.280486      0.741099     -1.204910
  C       3.689276      1.345595     -1.375879
  C       4.234600      1.141672     -2.798804
  C       5.629698      1.751288     -3.007838
  H       4.574049     -2.360249      3.707611
  H       5.203560     -1.675512      2.196332
  H       4.221443     -0.677693      3.282781
  H       3.195195     -3.200341      1.821967
  H       2.212912     -2.140553      2.822996
  H       3.568430     -1.352953      0.186279
  H       1.868859     -1.775483      0.372675
  H       1.699770      0.153603      2.089456
  H       3.287243      0.687048      1.525214
  H       1.105145      2.788031     -0.390809
  H       2.231474      2.745201      0.982051
  H       0.284836      2.952110      2.339308
  H      -1.785663      1.775397      1.996499
  H      -0.970454     -0.957492      2.242891
  H      -0.414779     -3.354903      2.541068
  H       0.034422     -4.788066      0.556200
  H      -0.081208     -3.810610     -1.732036
  H      -0.660815     -1.401629     -2.028369
  H      -3.393470     -0.440878      1.695026
  H      -5.867860     -0.420349      1.675731
  H      -7.094298      0.653445     -0.207002
  H      -5.827267      1.712222     -2.071266
  H      -3.323938      1.698183     -2.039100
  H       2.308361     -0.323075     -1.473429
  H       1.575755      1.212826     -1.900708
  H       4.386736      0.893768     -0.653202
  H       3.662954      2.422799     -1.149059
  H       3.528765      1.579195     -3.522063
  H       4.267580      0.062999     -3.020525
  H       5.617612      2.835611     -2.828521
  H       5.992635      1.585838     -4.031077
  H       6.362250      1.309547     -2.317452
>
58
-1366.66702719; 31P isotropic shielding: 265.802190 ppm
  C       5.378575      4.635154      1.737908
  C       4.993843      3.190874      1.382588
  C       4.458808      3.043423     -0.050370
  C       4.020247      1.609742     -0.394682
  N       2.871325      1.158877      0.410540
  C       1.587380      1.678830     -0.096871
  C       0.545812      1.636526      0.989061
  C      -0.644739      1.016957      0.962517
  P      -1.317140      0.046421     -0.414061
  O      -0.771615      0.334257     -1.783594
  C      -1.100598     -1.700814      0.072371
  C      -0.716166     -2.106217      1.358115
  C      -0.555982     -3.465325      1.649616
  C      -0.775436     -4.424434      0.656903
  C      -1.161899     -4.024902     -0.628125
  C      -1.324121     -2.670204     -0.920240
  C      -3.117103      0.336919     -0.304300
  C      -3.886206     -0.099368      0.785919
  C      -5.257227      0.165580      0.827519
  C      -5.867476      0.863735     -0.222130
  C      -5.105280      1.292887     -1.313822
  C      -3.732131      1.030871     -1.356446
  C       2.850832     -0.294039      0.663631
  C       2.657001     -1.225025     -0.553442
  C       2.757027     -2.706391     -0.154265
  C       2.501914     -3.671115     -1.322551
  H       4.511943      5.306764      1.656272
  H       5.760530      4.707971      2.765042
  H       6.158054      5.019513      1.064381
  H       5.870865      2.534797      1.505125
  H       4.232456      2.819740      2.082164
  H       3.616267      3.736867     -0.200271
  H       5.232923      3.350481     -0.771707
  H       3.817328      1.535882     -1.481713
  H       4.856972      0.927789     -0.185877
  H       1.237430      1.171599     -1.007780
  H       1.738625      2.736412     -0.359195
  H       0.830891      2.170578      1.900493
  H      -1.299697      1.097703      1.832715
  H      -0.517226     -1.363215      2.127211
  H      -0.245619     -3.772074      2.647136
  H      -0.633994     -5.480691      0.877468
  H      -1.323525     -4.770163     -1.405076
  H      -1.600874     -2.352905     -1.923939
  H      -3.421477     -0.660928      1.595298
  H      -5.851214     -0.177026      1.673350
  H      -6.936692      1.067178     -0.190088
  H      -5.579987      1.830264     -2.133290
  H      -3.125460      1.351098     -2.201335
  H       3.799244     -0.545269      1.161987
  H       2.055434     -0.496563      1.395426
  H       3.417544     -1.001192     -1.317430
  H       1.681905     -1.038868     -1.023832
  H       2.035662     -2.913664      0.649087
  H       3.755360     -2.900202      0.270835
  H       3.222381     -3.508634     -2.136791
  H       1.493671     -3.531637     -1.731394
  H       2.588839     -4.718425     -1.002459
>
58
-1366.66645607; 31P isotropic shielding: 258.456394 ppm
  C       0.506617      4.637806     -0.717324
  C       1.067847      3.818105      0.454528
  C       1.716633      2.495624      0.014510
  C       2.217754      1.674068      1.221984
  N       2.980563      0.444917      0.934967
  C       2.184472     -0.580017      0.235471
  C       1.117866     -1.125899      1.145284
  C      -0.196302     -1.236924      0.896377
  P      -1.036134     -0.747506     -0.636548
  O      -0.212673     -0.753051     -1.892338
  C      -2.459667     -1.889161     -0.726516
  C      -2.487322     -2.816596     -1.778251
  C      -3.549070     -3.720636     -1.886061
  C      -4.584704     -3.701326     -0.945715
  C      -4.562918     -2.772509      0.102456
  C      -3.504588     -1.866978      0.210746
  C      -1.781209      0.883674     -0.287738
  C      -1.871311      1.432221      0.999166
  C      -2.464521      2.684820      1.191274
  C      -2.969098      3.395129      0.098505
  C      -2.879537      2.852730     -1.189589
  C      -2.288225      1.603627     -1.383427
  C       4.277671      0.691910      0.280820
  C       5.323532     -0.391265      0.595850
  C       5.694137     -0.475654      2.084680
  C       6.704189     -1.592526      2.390399
  H       1.299012      4.896503     -1.433985
  H      -0.263837      4.073724     -1.257297
  H       0.051278      5.575036     -0.369384
  H       1.810742      4.419412      1.003212
  H       0.257770      3.604886      1.167631
  H       0.990693      1.911475     -0.567508
  H       2.556373      2.711619     -0.663743
  H       2.859723      2.310436      1.849409
  H       1.354467      1.396689      1.844885
  H       2.859650     -1.414450     -0.007299
  H       1.759283     -0.235714     -0.719449
  H       1.492492     -1.457478      2.118496
  H      -0.841294     -1.682813      1.656332
  H      -1.677521     -2.811150     -2.505249
  H      -3.568760     -4.438349     -2.704684
  H      -5.411651     -4.404540     -1.031121
  H      -5.373479     -2.750349      0.829176
  H      -3.502879     -1.131994      1.014515
  H      -1.460284      0.893351      1.850028
  H      -2.521998      3.109188      2.192328
  H      -3.418961      4.375250      0.245572
  H      -3.262569      3.409519     -2.043206
  H      -2.196544      1.186273     -2.384457
  H       4.174146      0.793592     -0.818098
  H       4.652646      1.657568      0.649650
  H       6.224925     -0.179087     -0.001077
  H       4.962558     -1.373107      0.251449
  H       4.776637     -0.625424      2.669787
  H       6.108306      0.493932      2.405667
  H       6.301070     -2.576779      2.111994
  H       6.955248     -1.625824      3.459041
  H       7.640358     -1.449475      1.831875
>
58
-1366.66796110; 31P isotropic shielding: 258.574889 ppm
  C       3.534281      4.053747     -1.513858
  C       3.358016      4.042146      0.014910
  C       3.225947      2.631484      0.622473
  C       1.927765      1.913892      0.196442
  N       1.709479      0.569379      0.757118
  C       2.659688     -0.432178      0.261044
  C       2.049199     -1.816964      0.203793
  C       0.837654     -2.090051     -0.301593
  P      -0.210926     -0.864938     -1.143606
  O       0.488758      0.126045     -2.030021
  C      -1.330625     -1.930086     -2.133459
  C      -2.195939     -2.872486     -1.555561
  C      -3.019392     -3.661796     -2.362358
  C      -2.986761     -3.512369     -3.754451
  C      -2.130582     -2.571022     -4.334906
  C      -1.304606     -1.781692     -3.527702
  C      -1.308106     -0.130665      0.111376
  C      -1.660968     -0.803614      1.290427
  C      -2.556824     -0.221967      2.191276
  C      -3.102391      1.037952      1.922120
  C      -2.748276      1.714890      0.748829
  C      -1.857225      1.132125     -0.156276
  C       1.569000      0.487895      2.220658
  C       0.587206      1.506802      2.812223
  C       0.171487      1.175370      4.257711
  C       1.316180      1.259257      5.282571
  H       2.663684      3.632396     -2.031277
  H       3.677529      5.076934     -1.886022
  H       4.414019      3.465005     -1.811202
  H       4.216094      4.551372      0.478909
  H       2.469157      4.634692      0.286257
  H       4.099111      2.027827      0.328413
  H       3.259656      2.711577      1.719181
  H       1.065551      2.536822      0.470639
  H       1.882092      1.793181     -0.890738
  H       3.587947     -0.467700      0.865383
  H       2.950479     -0.146950     -0.759799
  H       2.661092     -2.642042      0.577558
  H       0.489225     -3.122826     -0.333948
  H      -2.242723     -2.985585     -0.473672
  H      -3.690003     -4.388927     -1.906862
  H      -3.630346     -4.126152     -4.382825
  H      -2.105625     -2.450327     -5.416927
  H      -0.634041     -1.042781     -3.961562
  H      -1.218822     -1.771423      1.518612
  H      -2.820373     -0.745128      3.108991
  H      -3.795318      1.493804      2.627295
  H      -3.164877      2.699286      0.540872
  H      -1.566792      1.654712     -1.065534
  H       1.204989     -0.526155      2.449118
  H       2.556054      0.579113      2.719781
  H      -0.306131      1.546616      2.181493
  H       1.031894      2.513156      2.794464
  H      -0.273284      0.168734      4.282336
  H      -0.629001      1.868276      4.556209
  H       2.105613      0.524873      5.076651
  H       0.950243      1.072807      6.301085
  H       1.780068      2.256056      5.271938
>
58
-1366.66604554; 31P isotropic shielding: 265.910378 ppm
  C       2.744254      0.957231      4.466695
  C       3.020933      0.169748      3.176832
  C       2.348481      0.791372      1.942641
  C       2.656605     -0.003841      0.667900
  N       1.850784      0.355587     -0.509705
  C       1.804113      1.788384     -0.816272
  C       0.697027      2.515041     -0.080501
  C      -0.543424      2.048354      0.127342
  P      -1.213170      0.509088     -0.571087
  O      -0.890425      0.244319     -2.014955
  C      -0.784791     -0.874292      0.540043
  C      -0.736569     -0.744024      1.935400
  C      -0.403875     -1.839196      2.736275
  C      -0.126326     -3.078456      2.147666
  C      -0.187367     -3.216723      0.756426
  C      -0.518113     -2.120387     -0.044981
  C      -3.020432      0.730238     -0.344617
  C      -3.610227      1.037337      0.892033
  C      -4.995556      1.184005      0.997068
  C      -5.804354      1.023065     -0.134688
  C      -5.222905      0.716041     -1.368973
  C      -3.835745      0.570049     -1.474492
  C       2.142218     -0.498898     -1.675805
  C       3.529321     -0.331672     -2.331488
  C       3.703337     -1.256413     -3.547750
  C       5.069973     -1.104262     -4.233923
  H       3.219347      0.485147      5.336796
  H       3.125627      1.985564      4.394589
  H       1.665048      1.018494      4.666513
  H       4.107909      0.100460      3.012384
  H       2.660187     -0.863863      3.293150
  H       1.267205      0.830491      2.103274
  H       2.687796      1.833020      1.832223
  H       3.743797      0.091483      0.462292
  H       2.464779     -1.069800      0.859455
  H       1.605763      1.897261     -1.892757
  H       2.767676      2.299047     -0.626244
  H       0.938205      3.520058      0.276812
  H      -1.265962      2.686449      0.636948
  H      -0.936006      0.218190      2.402349
  H      -0.357629     -1.725527      3.818233
  H       0.134983     -3.931974      2.771119
  H       0.024981     -4.179801      0.294423
  H      -0.557580     -2.212887     -1.127992
  H      -2.994919      1.157723      1.781877
  H      -5.444839      1.422388      1.959992
  H      -6.884128      1.137435     -0.052512
  H      -5.849152      0.591512     -2.251138
  H      -3.365828      0.335973     -2.427537
  H       2.023974     -1.541331     -1.344716
  H       1.351029     -0.311535     -2.411364
  H       4.328671     -0.539308     -1.604142
  H       3.664173      0.713341     -2.652946
  H       2.900924     -1.052459     -4.273742
  H       3.566936     -2.302195     -3.229197
  H       5.163284     -1.773911     -5.099383
  H       5.889932     -1.338081     -3.540098
  H       5.220952     -0.075362     -4.590041
>
58
-1366.66588483; 31P isotropic shielding: 268.507313 ppm
  C       6.071442      1.296081      2.756686
  C       4.653908      0.727246      2.587374
  C       3.948248      1.223624      1.315027
  C       2.531476      0.627753      1.169753
  N       1.752015      1.043737     -0.005670
  C       1.268520      2.427668      0.081215
  C       0.099586      2.539979      1.038509
  C      -0.976652      1.740015      0.999222
  P      -1.297589      0.533521     -0.325332
  O      -0.855332      0.929135     -1.706848
  C      -0.699807     -1.093818      0.230856
  C      -0.208922     -1.329569      1.521194
  C       0.233598     -2.605148      1.883616
  C       0.184953     -3.653036      0.957658
  C      -0.312777     -3.423441     -0.330780
  C      -0.757489     -2.150240     -0.692157
  C      -3.120753      0.363628     -0.249894
  C      -3.773347     -0.206295      0.854427
  C      -5.167124     -0.300360      0.875869
  C      -5.917058      0.171051     -0.209146
  C      -5.269963      0.732639     -1.314888
  C      -3.874566      0.829223     -1.336301
  C       2.342454      0.718442     -1.313456
  C       2.699327     -0.768099     -1.465625
  C       2.849703     -1.172038     -2.947807
  C       1.501866     -1.322652     -3.676468
  H       6.052880      2.393495      2.814745
  H       6.549584      0.920955      3.671412
  H       6.711540      1.020344      1.906932
  H       4.699621     -0.373336      2.568869
  H       4.044563      0.991514      3.466578
  H       3.898075      2.322947      1.334135
  H       4.554422      0.957264      0.436229
  H       2.602985     -0.467828      1.160783
  H       1.940470      0.886747      2.060695
  H       0.920535      2.714800     -0.920147
  H       2.057700      3.148348      0.367386
  H       0.139833      3.331018      1.791681
  H      -1.787804      1.891257      1.712287
  H      -0.150037     -0.510030      2.233536
  H       0.623885     -2.779300      2.885209
  H       0.534491     -4.645304      1.238331
  H      -0.350076     -4.236325     -1.054276
  H      -1.130895     -1.963936     -1.697029
  H      -3.193880     -0.592988      1.691973
  H      -5.668753     -0.746512      1.733305
  H      -7.003223      0.094759     -0.193367
  H      -5.851491      1.094295     -2.161632
  H      -3.353457      1.256710     -2.190642
  H       1.581682      0.986943     -2.054414
  H       3.245202      1.327834     -1.531823
  H       1.915287     -1.378733     -0.999662
  H       3.634841     -0.989158     -0.931277
  H       3.401614     -2.121626     -3.009799
  H       3.473201     -0.424849     -3.465221
  H       1.648846     -1.500350     -4.750298
  H       0.870854     -0.433034     -3.559699
  H       0.939989     -2.174066     -3.269634
