52
-1548.98820031; 31P isotropic shielding: 241.238828 ppm
  C       3.251965     -0.086901     -2.880020
  C       3.879910      0.458708     -1.603123
  O       3.480041     -0.307268     -0.415383
  P       2.003585     -0.118918      0.204740
  O       1.414356      1.232954     -0.000026
  C       1.022394     -1.572415     -0.396988
  C      -0.437188     -1.569310      0.142004
  N      -1.075996     -0.264912     -0.070379
  C      -1.233797      0.362333     -1.323736
  O      -0.954109     -0.135192     -2.405211
  C      -1.777427      1.719946     -1.032005
  C      -1.860378      1.872715      0.355855
  C      -1.376092      0.616456      0.993217
  O      -1.241555      0.355002      2.179179
  C      -2.312304      3.053045      0.930751
  C      -2.686683      4.093068      0.064639
  C      -2.602628      3.940122     -1.327937
  C      -2.141548      2.742381     -1.897847
  C      -1.266184     -2.717302     -0.462777
  C      -2.709736     -2.820196      0.073187
  C      -3.466010     -3.929271     -0.681905
  C      -2.758225     -3.058614      1.594387
  O       1.691606     -2.795037     -0.048241
  O       2.207588     -0.593853      1.733066
  C       2.282735      0.391207      2.822030
  C       3.635282      1.088868      2.858291
  H       3.454629     -1.159569     -2.987601
  H       3.679178      0.433687     -3.748192
  H       2.167266      0.075023     -2.895878
  H       4.971051      0.364452     -1.622521
  H       3.612695      1.510286     -1.443999
  H       1.006073     -1.532858     -1.491429
  H      -0.385492     -1.678136      1.231906
  H      -2.367422      3.163376      2.011595
  H      -3.044801      5.034510      0.477353
  H      -2.896907      4.765235     -1.974096
  H      -2.065738      2.615320     -2.975614
  H      -1.288932     -2.594321     -1.553384
  H      -0.729597     -3.653242     -0.255976
  H      -3.220127     -1.866415     -0.137373
  H      -4.512316     -3.988349     -0.353658
  H      -3.003123     -4.910650     -0.501928
  H      -3.460268     -3.749487     -1.765334
  H      -2.318177     -2.228367      2.159391
  H      -3.795671     -3.175148      1.935174
  H      -2.215940     -3.978498      1.860420
  H       1.901781     -2.753759      0.904613
  H       1.457879      1.101503      2.698222
  H       2.105457     -0.199648      3.726668
  H       4.452135      0.360027      2.925102
  H       3.682667      1.747070      3.736928
  H       3.784493      1.703942      1.963244
>
52
-1548.98597944; 31P isotropic shielding: 246.642236 ppm
  C       3.226726     -0.124292     -3.100858
  C       3.875567      0.483571     -1.863344
  O       3.499253     -0.229898     -0.635753
  P       2.031722     -0.019480      0.001349
  O       1.428030      1.311001     -0.284638
  C       1.048457     -1.516702     -0.474602
  C      -0.379045     -1.514681      0.145819
  N      -1.044556     -0.222197     -0.056788
  C      -1.327636      0.666393      1.003870
  O      -1.155088      0.422852      2.189207
  C      -1.854609      1.905636      0.366970
  C      -1.821349      1.733924     -1.020721
  C      -1.268337      0.380674     -1.313564
  O      -1.032684     -0.134182     -2.396729
  C      -2.235220      2.737296     -1.886437
  C      -2.693943      3.935824     -1.316380
  C      -2.728098      4.107898      0.076105
  C      -2.304501      3.086830      0.941994
  C      -1.226963     -2.684019     -0.388557
  C      -2.637661     -2.791508      0.227143
  C      -3.426391     -3.913020     -0.474612
  C      -2.600974     -3.015438      1.750992
  O       1.756308     -2.713853     -0.115268
  O       2.260221     -0.397519      1.550228
  C       2.655009      0.625167      2.529685
  C       1.974549      0.305533      3.850024
  H       3.435963     -1.199285     -3.163709
  H       3.630487      0.359344     -4.001021
  H       2.140544      0.028953     -3.099016
  H       4.966789      0.393462     -1.897804
  H       3.604680      1.539697     -1.747494
  H       0.969832     -1.522416     -1.567144
  H      -0.263281     -1.599192      1.232783
  H      -2.198152      2.595379     -2.964353
  H      -3.025674      4.746630     -1.962513
  H      -3.085839      5.049505      0.488795
  H      -2.321361      3.211855      2.022524
  H      -1.310925     -2.583225     -1.478543
  H      -0.669333     -3.610159     -0.193134
  H      -3.166158     -1.843397      0.036458
  H      -2.946750     -4.889387     -0.312025
  H      -3.482483     -3.743364     -1.558244
  H      -4.452226     -3.976486     -0.087738
  H      -3.617723     -3.132782      2.149124
  H      -2.041448     -3.930955      1.995588
  H      -2.134485     -2.178049      2.283332
  H       2.014835     -2.632890      0.822842
  H       3.749590      0.595198      2.608597
  H       2.349211      1.606254      2.146804
  H       2.266095     -0.689476      4.210093
  H       0.885241      0.338684      3.737374
  H       2.274983      1.044295      4.605689
>
52
-1548.98671888; 31P isotropic shielding: 248.356595 ppm
  C       3.207877     -0.176917     -2.913030
  C       3.856982      0.413225     -1.666951
  O       3.475333     -0.308665     -0.446084
  P       2.007761     -0.098538      0.188101
  O       1.407874      1.238398     -0.075023
  C       1.031603     -1.588212     -0.327593
  C      -0.425456     -1.580623      0.226308
  N      -1.066773     -0.284569     -0.026693
  C      -1.327627      0.649611      1.001552
  O      -1.161015      0.442073      2.194171
  C      -1.828393      1.875510      0.321090
  C      -1.786821      1.657318     -1.059571
  C      -1.251970      0.286964     -1.302748
  O      -0.997175     -0.257572     -2.367787
  C      -2.175413      2.638449     -1.961658
  C      -2.618713      3.862731     -1.435508
  C      -2.661478      4.081248     -0.049816
  C      -2.262233      3.082405      0.852900
  C      -1.238014     -2.767855     -0.329826
  C      -2.443931     -3.214456      0.525943
  C      -3.528675     -2.131123      0.686009
  C      -3.049243     -4.497799     -0.075571
  O       1.722281     -2.783257      0.070483
  O       2.238188     -0.495585      1.734432
  C       2.313964      0.541997      2.773829
  C       3.651019      1.269372      2.749141
  H       3.619006      0.314003     -3.805909
  H       2.122843     -0.016377     -2.915052
  H       3.410139     -1.252470     -2.987426
  H       4.947569      0.316460     -1.700096
  H       3.593204      1.470224     -1.541913
  H       1.000712     -1.601418     -1.422601
  H      -0.363302     -1.654239      1.320551
  H      -2.131570      2.460319     -3.033942
  H      -2.931478      4.657070     -2.110881
  H      -3.006726      5.041752      0.328496
  H      -2.285373      3.243518      1.928518
  H      -1.566442     -2.527253     -1.349808
  H      -0.543640     -3.613886     -0.409744
  H      -2.063525     -3.460661      1.532058
  H      -3.177403     -1.278458      1.275386
  H      -4.406968     -2.543621      1.200801
  H      -3.860099     -1.759291     -0.294219
  H      -3.452084     -4.304024     -1.080428
  H      -2.296785     -5.292916     -0.164001
  H      -3.871478     -4.875843      0.546429
  H       1.944145     -2.693178      1.017355
  H       1.470959      1.227316      2.634400
  H       2.168198     -0.009136      3.708647
  H       3.701547      1.966522      3.597065
  H       3.767379      1.847957      1.825345
  H       4.485521      0.562299      2.830267
>
52
-1548.98381791; 31P isotropic shielding: 246.489502 ppm
  C       3.295759     -0.133358     -2.990144
  C       3.929856      0.422511     -1.721146
  O       3.517064     -0.326062     -0.526244
  P       2.040281     -0.107379      0.089503
  O       1.471861      1.242506     -0.176453
  C       1.037360     -1.570205     -0.446947
  C      -0.409660     -1.556200      0.127473
  N      -1.043687     -0.246339     -0.062378
  C      -1.383815      0.600979      1.016188
  O      -1.290810      0.304703      2.197690
  C      -1.852267      1.874027      0.400320
  C      -1.738915      1.757422     -0.988864
  C      -1.190757      0.407160     -1.304359
  O      -0.907165     -0.070363     -2.393322
  C      -2.084942      2.801873     -1.835473
  C      -2.557895      3.984749     -1.244697
  C      -2.672514      4.101582      0.149198
  C      -2.317692      3.038996      0.995889
  C      -1.259816     -2.693261     -0.469232
  C      -2.687603     -2.801485      0.105967
  C      -3.475696     -3.880724     -0.659919
  C      -2.693530     -3.086588      1.619866
  O       1.708858     -2.792222     -0.103862
  O       2.242592     -0.539833      1.628300
  C       2.885253      0.371011      2.588682
  C       1.875224      1.343869      3.181151
  H       2.212089      0.036187     -3.002717
  H       3.490837     -1.208550     -3.086017
  H       3.723168      0.374687     -3.865639
  H       5.019999      0.315148     -1.736987
  H       3.672942      1.478305     -1.575054
  H       0.991694     -1.541323     -1.541081
  H      -0.333591     -1.672889      1.215001
  H      -1.986034      2.702614     -2.914264
  H      -2.837783      4.826623     -1.875473
  H      -3.039570      5.032150      0.578428
  H      -2.397871      3.120445      2.077735
  H      -1.313077     -2.551692     -1.556801
  H      -0.720832     -3.634237     -0.293381
  H      -3.196216     -1.837782     -0.059302
  H      -3.500745     -3.667835     -1.737087
  H      -4.512149     -3.941677     -0.302079
  H      -3.016305     -4.870788     -0.523876
  H      -2.228374     -2.278031      2.195815
  H      -3.721906     -3.202643      1.987364
  H      -2.154721     -4.020262      1.841174
  H       1.957557     -2.736192      0.838682
  H       3.310567     -0.291223      3.350974
  H       3.709977      0.890918      2.083543
  H       1.030573      0.804856      3.624344
  H       1.488941      2.018274      2.410155
  H       2.363487      1.941742      3.963656
>
52
-1548.98630352; 31P isotropic shielding: 246.279286 ppm
  C       3.279355      0.010410     -2.886739
  C       3.887225      0.514294     -1.583192
  O       3.485302     -0.301928     -0.430156
  P       2.000593     -0.154054      0.181762
  O       1.402140      1.200574      0.029422
  C       1.045714     -1.594380     -0.492085
  C      -0.424386     -1.638521      0.022498
  N      -1.064445     -0.326322     -0.122485
  C      -1.384722      0.487758      0.986299
  O      -1.263548      0.156319      2.156420
  C      -1.881913      1.771368      0.418390
  C      -1.787101      1.698702     -0.975124
  C      -1.221063      0.368024     -1.338689
  O      -0.928157     -0.063818     -2.444847
  C      -2.163085      2.762206     -1.784443
  C      -2.648638      3.917738     -1.151180
  C      -2.744816      3.990189      0.247094
  C      -2.358367      2.909219      1.055814
  C      -1.214342     -2.768039     -0.665531
  C      -2.581022     -3.144086     -0.039606
  C      -2.459906     -3.557330      1.440006
  C      -3.674141     -2.070924     -0.225341
  O       1.732308     -2.818098     -0.182533
  O       2.192528     -0.692865      1.690410
  C       2.261889      0.245162      2.820133
  C       3.621115      0.925518      2.903156
  H       3.496786     -1.054810     -3.032707
  H       3.709142      0.568847     -3.729763
  H       2.192929      0.159576     -2.908518
  H       4.979646      0.434495     -1.594880
  H       3.605077      1.555578     -1.386570
  H       1.045125     -1.510762     -1.584285
  H      -0.385694     -1.810774      1.104672
  H      -2.078581      2.697505     -2.867113
  H      -2.953177      4.772955     -1.751870
  H      -3.122325      4.900417      0.709569
  H      -2.423525      2.956554      2.140694
  H      -1.352739     -2.504322     -1.721907
  H      -0.566816     -3.654035     -0.639867
  H      -2.910316     -4.033011     -0.602251
  H      -1.691027     -4.330297      1.578164
  H      -3.411935     -3.963247      1.807360
  H      -2.202068     -2.701845      2.078499
  H      -3.703405     -1.702333     -1.259193
  H      -4.661774     -2.489489      0.011128
  H      -3.521096     -1.211482      0.437620
  H       1.929052     -2.810242      0.774088
  H       1.446512      0.969214      2.714157
  H       2.064976     -0.380257      3.697006
  H       3.789164      1.574895      2.036075
  H       4.429014      0.185221      2.949951
  H       3.664235      1.546332      3.808786
>
52
-1548.98375969; 31P isotropic shielding: 246.447625 ppm
  C       3.160631     -0.232930     -3.146355
  C       3.833762      0.432392     -1.952159
  O       3.489202     -0.227285     -0.685649
  P       2.033666      0.002045     -0.027978
  O       1.412611      1.311887     -0.366615
  C       1.057986     -1.526636     -0.410514
  C      -0.363406     -1.517487      0.230888
  N      -1.036228     -0.236527     -0.017769
  C      -1.272601      0.714220      0.999865
  O      -1.060686      0.534669      2.190200
  C      -1.820774      1.917211      0.315115
  C      -1.836425      1.668983     -1.060953
  C      -1.292911      0.301201     -1.297585
  O      -1.085844     -0.268184     -2.359359
  C      -2.280732      2.623511     -1.965776
  C      -2.720002      3.852299     -1.446946
  C      -2.705453      4.101001     -0.065804
  C      -2.250862      3.128763      0.839679
  C      -1.190626     -2.729862     -0.243885
  C      -2.337211     -3.170480      0.692432
  C      -3.428406     -2.099690      0.886430
  C      -2.954720     -4.478426      0.160173
  O       1.790796     -2.693763     -0.004909
  O       2.297530     -0.298696      1.531952
  C       2.694410      0.775455      2.454168
  C       2.067925      0.492063      3.808894
  H       2.073688     -0.086610     -3.125030
  H       3.376331     -1.308256     -3.167574
  H       3.539362      0.213839     -4.075968
  H       4.924434      0.345858     -2.007214
  H       3.559600      1.491358     -1.877355
  H       0.960576     -1.587846     -1.500073
  H      -0.232748     -1.558824      1.320525
  H      -2.281608      2.422134     -3.034835
  H      -3.074906      4.626588     -2.124809
  H      -3.049316      5.064321      0.306632
  H      -2.230007      3.312945      1.911644
  H      -1.581896     -2.520556     -1.248493
  H      -0.489918     -3.568708     -0.342950
  H      -1.894825     -3.383985      1.680528
  H      -4.267497     -2.510584      1.464184
  H      -3.824451     -1.762698     -0.082490
  H      -3.057564     -1.225057      1.429726
  H      -3.735673     -4.851188      0.836282
  H      -3.414873     -4.318000     -0.825808
  H      -2.195905     -5.264986      0.051374
  H       2.069417     -2.559048      0.921235
  H       3.791466      0.780556      2.496249
  H       2.346472      1.730004      2.041469
  H       2.366640      1.273060      4.521539
  H       2.404594     -0.475958      4.201651
  H       0.975276      0.485307      3.729921
>
52
-1548.98470937; 31P isotropic shielding: 248.399643 ppm
  C       2.408970     -1.957964      2.417348
  C       3.003464     -0.638991      1.944916
  O       2.133318      0.019723      0.957903
  P       2.281123     -0.273763     -0.621635
  O       3.652266     -0.683390     -1.043300
  C       1.053782     -1.561914     -1.136134
  C      -0.239374     -1.643482     -0.295419
  N      -0.825929     -0.308013     -0.118086
  C      -1.261754      0.535334     -1.165199
  O      -1.279086      0.248506     -2.350779
  C      -1.680806      1.808283     -0.507502
  C      -1.502690      1.672844      0.872977
  C      -0.973022      0.305285      1.147338
  O      -0.720846     -0.214318      2.222074
  C      -1.785715      2.714404      1.747208
  C      -2.255053      3.915755      1.192357
  C      -2.436270      4.050875     -0.193211
  C      -2.151562      2.989123     -1.067045
  C      -1.242471     -2.644281     -0.900782
  C      -2.547588     -2.821790     -0.096548
  C      -3.515323     -3.734625     -0.873069
  C      -2.295657     -3.367286      1.321954
  O       1.709340     -2.840117     -1.019397
  O       1.661011      1.055693     -1.270980
  C       2.384392      2.333694     -1.187288
  C       1.799246      3.211929     -0.089829
  H       1.406330     -1.803171      2.831335
  H       3.050215     -2.384404      3.201430
  H       2.349232     -2.680575      1.594130
  H       3.076490      0.084100      2.764825
  H       3.993400     -0.772958      1.493485
  H       0.797590     -1.343193     -2.184853
  H       0.042710     -1.962179      0.712087
  H      -1.641446      2.598708      2.819228
  H      -2.482626      4.756919      1.844597
  H      -2.802704      4.994296     -0.593803
  H      -2.286060      3.082267     -2.142578
  H      -1.482070     -2.322251     -1.922350
  H      -0.726892     -3.611128     -0.978968
  H      -3.028423     -1.834416     -0.001456
  H      -4.471017     -3.839072     -0.342342
  H      -3.089164     -4.741055     -0.995626
  H      -3.724862     -3.334629     -1.874181
  H      -1.779832     -4.337982      1.277072
  H      -1.686875     -2.684584      1.925724
  H      -3.245076     -3.519142      1.852710
  H       2.632608     -2.708985     -1.319262
  H       3.450824      2.130079     -1.027954
  H       2.265124      2.788763     -2.176900
  H       2.334147      4.171510     -0.065844
  H       1.899158      2.732021      0.889598
  H       0.738653      3.414347     -0.274376
>
52
-1548.98799105; 31P isotropic shielding: 238.601349 ppm
  C       3.255744     -0.027479     -3.112604
  C       3.884938      0.542922     -1.847333
  O       3.505855     -0.219271     -0.650405
  P       2.030022     -0.048758     -0.020169
  O       1.417485      1.287183     -0.257409
  C       1.070453     -1.538150     -0.566142
  C      -0.366978     -1.582905      0.035610
  N      -1.033792     -0.284281     -0.111099
  C      -1.335001      0.546944      0.988605
  O      -1.176364      0.242417      2.162103
  C      -1.872768      1.809263      0.410025
  C      -1.829535      1.705104     -0.984033
  C      -1.256632      0.375149     -1.337983
  O      -1.008931     -0.083733     -2.443632
  C      -2.254153      2.742723     -1.802734
  C      -2.734322      3.905191     -1.178204
  C      -2.778726      4.009355      0.220683
  C      -2.344218      2.954107      1.038824
  C      -1.180495     -2.743110     -0.569540
  C      -2.506439     -3.110326      0.143051
  C      -2.301493     -3.459793      1.629916
  C      -3.624951     -2.061116     -0.028912
  O       1.794639     -2.736524     -0.245573
  O       2.247767     -0.487550      1.514251
  C       2.630722      0.496406      2.536956
  C       1.938815      0.123620      3.837247
  H       2.167958      0.113912     -3.117295
  H       3.477585     -1.097245     -3.211199
  H       3.663449      0.492174     -3.990655
  H       4.977493      0.467526     -1.874204
  H       3.599670      1.590759     -1.696047
  H       1.004680     -1.501577     -1.659010
  H      -0.261547     -1.720625      1.118148
  H      -2.209852      2.653557     -2.886030
  H      -3.075471      4.740989     -1.786507
  H      -3.153545      4.924253      0.676090
  H      -2.369688      3.025831      2.124031
  H      -1.379362     -2.516864     -1.624935
  H      -0.522347     -3.621500     -0.549495
  H      -2.850957     -4.026197     -0.364626
  H      -1.515789     -4.217391      1.758269
  H      -3.227079     -3.860901      2.063995
  H      -2.021558     -2.575211      2.217335
  H      -3.453553     -1.173308      0.590593
  H      -3.713375     -1.735859     -1.073909
  H      -4.592110     -2.484352      0.274488
  H       2.041141     -2.687779      0.698033
  H       3.724599      0.465442      2.624916
  H       2.326475      1.491376      2.190260
  H       2.229545     -0.884120      4.160757
  H       0.850500      0.158296      3.715952
  H       2.230493      0.832828      4.624045
>
52
-1548.98440471; 31P isotropic shielding: 248.110082 ppm
  C       2.089842     -1.668736      3.010900
  C       2.706586     -0.359313      2.541548
  O       1.938616      0.226303      1.431168
  P       2.313944     -0.061578     -0.100750
  O       3.737728     -0.404493     -0.388784
  C       1.237399     -1.446585     -0.701115
  C      -0.164401     -1.550904     -0.064838
  N      -0.809722     -0.231704     -0.000137
  C      -1.117008      0.583793     -1.108352
  O      -0.931208      0.292075     -2.280593
  C      -1.701659      1.834134     -0.541712
  C      -1.738221      1.713427      0.851506
  C      -1.184127      0.379178      1.221824
  O      -1.076487     -0.125775      2.326672
  C      -2.234107      2.731370      1.656044
  C      -2.695698      3.893959      1.017959
  C      -2.658981      4.015204     -0.380009
  C      -2.159097      2.977641     -1.183550
  C      -1.038811     -2.589916     -0.794101
  C      -2.451346     -2.782499     -0.203349
  C      -3.270274     -3.719725     -1.110939
  C      -2.416003     -3.310603      1.243455
  O       1.920295     -2.683945     -0.410690
  O       1.734556      1.275894     -0.778419
  C       2.444520      1.939527     -1.882967
  C       2.254181      1.212394     -3.206897
  H       2.648097     -2.039713      3.881950
  H       2.136648     -2.430166      2.222920
  H       1.044197     -1.520253      3.303063
  H       2.672268      0.405411      3.325189
  H       3.744633     -0.487138      2.212388
  H       1.136379     -1.305082     -1.789197
  H      -0.026189     -1.844419      0.979959
  H      -2.258672      2.626120      2.738507
  H      -3.089015      4.715010      1.614560
  H      -3.025414      4.928108     -0.846030
  H      -2.129042      3.059689     -2.267983
  H      -1.120276     -2.295913     -1.848695
  H      -0.496993     -3.545326     -0.765587
  H      -2.955971     -1.802496     -0.198591
  H      -3.327356     -3.332183     -2.136961
  H      -4.295216     -3.837435     -0.734772
  H      -2.813210     -4.719147     -1.154019
  H      -1.882218     -4.271375      1.289194
  H      -1.921244     -2.611880      1.927648
  H      -3.434050     -3.476414      1.620584
  H       2.867545     -2.527284     -0.603321
  H       2.005978      2.942847     -1.907722
  H       3.504243      2.018056     -1.614108
  H       2.705678      1.806394     -4.013750
  H       1.190618      1.069747     -3.427361
  H       2.752466      0.235422     -3.192137
>
52
-1548.98702530; 31P isotropic shielding: 240.302532 ppm
  C       3.281095     -0.198703     -2.993738
  C       3.912551      0.404823     -1.745426
  O       3.511310     -0.309832     -0.526190
  P       2.036026     -0.082636      0.090763
  O       1.451243      1.247879     -0.230615
  C       1.050213     -1.579684     -0.378714
  C      -0.398189     -1.573947      0.200799
  N      -1.039077     -0.272824     -0.023041
  C      -1.220924      0.328377     -1.286371
  O      -0.965804     -0.192908     -2.362509
  C      -1.760521      1.690971     -1.012716
  C      -1.822210      1.870782      0.372711
  C      -1.331548      0.626598      1.027243
  O      -1.199226      0.381337      2.216565
  C      -2.267487      3.061354      0.931612
  C      -2.655917      4.084083      0.051248
  C      -2.593080      3.903903     -1.339179
  C      -2.139720      2.695516     -1.892648
  C      -1.217979     -2.751621     -0.365108
  C      -2.430875     -3.199732      0.479867
  C      -3.520613     -2.119649      0.628581
  C      -3.027141     -4.484626     -0.127928
  O       1.748580     -2.774363      0.004111
  O       2.253858     -0.448721      1.644175
  C       2.927787      0.490316      2.554608
  C       1.950968      1.519998      3.105084
  H       2.195275     -0.043351     -3.006490
  H       3.489420     -1.273836     -3.056795
  H       3.698238      0.287093     -3.886637
  H       5.003836      0.309480     -1.761173
  H       3.643733      1.461722     -1.632769
  H       0.995959     -1.592064     -1.473153
  H      -0.319693     -1.664710      1.292511
  H      -2.307466      3.192119      2.010869
  H      -3.008919      5.033025      0.451068
  H      -2.898550      4.715834     -1.996793
  H      -2.080998      2.546934     -2.968710
  H      -1.540303     -2.501290     -1.384989
  H      -0.527888     -3.600964     -0.448449
  H      -2.059987     -3.445192      1.489625
  H      -3.834732     -1.740537     -0.354555
  H      -3.182370     -1.271673      1.231806
  H      -4.407392     -2.538278      1.123513
  H      -3.855244     -4.863927      0.485452
  H      -3.419749     -4.291937     -1.137088
  H      -2.272265     -5.278358     -0.208113
  H       2.006015     -2.676212      0.940886
  H       3.339575     -0.145462      3.346281
  H       3.763464      0.959807      2.019000
  H       2.464544      2.143723      3.850403
  H       1.097051      1.028606      3.584415
  H       1.574229      2.164257      2.304101
>
52
-1548.98419058; 31P isotropic shielding: 246.356539 ppm
  C       3.324917     -0.041747     -3.001580
  C       3.941142      0.475968     -1.707751
  O       3.527257     -0.319752     -0.544221
  P       2.042562     -0.140195      0.065544
  O       1.464556      1.214392     -0.150195
  C       1.064501     -1.593546     -0.540097
  C      -0.392880     -1.627622      0.013168
  N      -1.028535     -0.311536     -0.111834
  C      -1.381495      0.473635      1.007132
  O      -1.296932      0.112674      2.171540
  C      -1.864356      1.770670      0.457350
  C      -1.747336      1.726831     -0.935690
  C      -1.180433      0.402062     -1.318302
  O      -0.890201     -0.015977     -2.429947
  C      -2.108462      2.807555     -1.728605
  C      -2.600385      3.951369     -1.079215
  C      -2.718758      3.995150      0.318566
  C      -2.348837      2.896255      1.110669
  C      -1.204532     -2.750187     -0.661593
  C      -2.567132     -3.112187     -0.018649
  C      -2.434895     -3.510016      1.464222
  C      -3.657469     -2.036443     -0.207163
  O       1.754102     -2.816222     -0.237216
  O       2.235494     -0.633105      1.587246
  C       2.864505      0.243100      2.587943
  C       1.842436      1.182403      3.212916
  H       3.533487     -1.110607     -3.133197
  H       3.754232      0.501585     -3.854643
  H       2.239510      0.115849     -3.018449
  H       5.032602      0.382121     -1.717757
  H       3.670298      1.522784     -1.526436
  H       1.032152     -1.521512     -1.632878
  H      -0.328966     -1.804341      1.093280
  H      -2.007388      2.764590     -2.810904
  H      -2.892701      4.819872     -1.666783
  H      -3.101003      4.896766      0.793856
  H      -2.432579      2.920582      2.195038
  H      -1.354117     -2.485979     -1.716604
  H      -0.565617     -3.642688     -0.643375
  H      -2.905472     -4.005344     -0.569152
  H      -1.670266     -4.287054      1.603489
  H      -3.386323     -3.905451      1.844387
  H      -2.165102     -2.649150      2.090195
  H      -4.645434     -2.450706      0.035375
  H      -3.500479     -1.173554      0.450104
  H      -3.689399     -1.674399     -1.243263
  H       1.991980     -2.791991      0.709485
  H       3.290722     -0.446055      3.325481
  H       3.687951      0.789742      2.109658
  H       2.320451      1.752070      4.022331
  H       0.999896      0.618223      3.627917
  H       1.455133      1.884621      2.467603
>
52
-1548.98397405; 31P isotropic shielding: 246.153949 ppm
  C       3.008112     -0.326786     -2.854092
  C       3.714827      0.164519     -1.596300
  O       3.245060     -0.525859     -0.387037
  P       1.796905     -0.167054      0.225086
  O       1.355522      1.232271     -0.026318
  C       0.686130     -1.552201     -0.324775
  C      -0.782635     -1.387936      0.162230
  N      -1.252322     -0.014412     -0.074633
  C      -1.277031      0.626363     -1.331460
  O      -0.999532      0.101030     -2.400342
  C      -1.677330      2.036619     -1.058681
  C      -1.802399      2.200191      0.324768
  C      -1.488518      0.898922      0.979044
  O      -1.421330      0.628617      2.168488
  C      -2.139546      3.425725      0.883537
  C      -2.355056      4.500336      0.005615
  C      -2.229075      4.336323     -1.382484
  C      -1.883623      3.092728     -1.935816
  C      -1.773509     -2.390703     -0.473801
  C      -1.622694     -3.879508     -0.088983
  C      -1.722875     -4.106637      1.430058
  C      -2.692174     -4.703397     -0.831718
  O       1.253097     -2.799466      0.111219
  O       1.948834     -0.602910      1.771668
  C       2.132174      0.410733      2.820915
  C       3.559707      0.938590      2.847838
  H       3.473950      0.133045     -3.736615
  H       1.947195     -0.048064     -2.854629
  H       3.092167     -1.416434     -2.949401
  H       4.786972     -0.057649     -1.626405
  H       3.574295      1.242897     -1.455894
  H       0.704557     -1.573206     -1.419705
  H      -0.790212     -1.491612      1.253999
  H      -2.227296      3.543561      1.961466
  H      -2.620409      5.477281      0.405741
  H      -2.398429      5.188671     -2.038054
  H      -1.775294      2.956406     -3.009653
  H      -2.782640     -2.059411     -0.181009
  H      -1.715782     -2.286950     -1.565265
  H      -0.634773     -4.224808     -0.418671
  H      -0.918627     -3.600813      1.977986
  H      -1.657803     -5.176848      1.667411
  H      -2.681224     -3.735195      1.822918
  H      -2.614939     -4.569264     -1.919176
  H      -2.584141     -5.774643     -0.615512
  H      -3.705419     -4.400907     -0.527610
  H       1.462406     -2.711481      1.060765
  H       1.402350      1.210559      2.653991
  H       1.874070     -0.114744      3.746076
  H       3.680354      1.622026      3.699739
  H       3.791381      1.492222      1.930493
  H       4.279771      0.118261      2.955088
>
52
-1548.98216052; 31P isotropic shielding: 247.122088 ppm
  C       2.618710     -2.358429      1.750064
  C       3.153051     -0.957781      1.489155
  O       2.196127     -0.151691      0.714591
  P       2.204254     -0.153006     -0.898269
  O       3.535786     -0.445715     -1.504368
  C       0.948678     -1.358928     -1.530838
  C      -0.269739     -1.624358     -0.616120
  N      -0.836559     -0.353455     -0.145649
  C      -0.869654      0.013235      1.218290
  O      -0.526285     -0.694432      2.151495
  C      -1.428906      1.395503      1.250934
  C      -1.736454      1.776933     -0.058759
  C      -1.372279      0.656630     -0.974938
  O      -1.500230      0.591413     -2.186488
  C      -2.266307      3.028091     -0.345872
  C      -2.476810      3.904376      0.731048
  C      -2.166632      3.522136      2.045889
  C      -1.638386      2.251405      2.324664
  C      -1.299829     -2.528308     -1.323600
  C      -2.461855     -3.080689     -0.460479
  C      -1.965659     -3.854424      0.776650
  C      -3.516470     -2.024206     -0.069255
  O       1.628876     -2.618266     -1.702653
  O       1.518554      1.256150     -1.241412
  C       2.235194      2.515823     -0.990762
  C       1.756773      3.159814      0.303414
  H       1.651074     -2.313648      2.262301
  H       3.328180     -2.903242      2.388663
  H       2.503305     -2.917880      0.813609
  H       3.281807     -0.397809      2.422007
  H       4.104744     -0.975509      0.945283
  H       0.602381     -0.962868     -2.498829
  H       0.100035     -2.118745      0.286667
  H      -2.501078      3.313085     -1.369207
  H      -2.886159      4.895884      0.546255
  H      -2.339187      4.223583      2.860089
  H      -1.394609      1.944520      3.339465
  H      -1.705954     -1.987235     -2.187628
  H      -0.730346     -3.379533     -1.718270
  H      -2.972319     -3.804695     -1.116487
  H      -1.505155     -3.184196      1.514104
  H      -1.223936     -4.615994      0.499304
  H      -2.801567     -4.364802      1.273517
  H      -3.807519     -1.408247     -0.930449
  H      -4.421585     -2.515810      0.312327
  H      -3.158696     -1.356557      0.723094
  H       2.519559     -2.408312     -2.052313
  H       3.314055      2.315632     -0.978151
  H       2.011514      3.142567     -1.861254
  H       0.681311      3.364127      0.264993
  H       2.283076      4.112744      0.453238
  H       1.959419      2.510120      1.161437
>
52
-1548.98566477; 31P isotropic shielding: 238.386956 ppm
  C       2.492448     -1.854614      2.441822
  C       3.057808     -0.539386      1.925558
  O       2.160756      0.080450      0.937345
  P       2.278528     -0.257255     -0.635162
  O       3.647146     -0.656263     -1.075340
  C       1.066441     -1.583961     -1.084938
  C      -0.216153     -1.667780     -0.224155
  N      -0.812797     -0.332936     -0.079089
  C      -1.279558      0.469831     -1.144067
  O      -1.323383      0.142206     -2.318532
  C      -1.692733      1.762120     -0.521761
  C      -1.471428      1.680700      0.856465
  C      -0.923301      0.328682      1.165526
  O      -0.642526     -0.151969      2.251146
  C      -1.740551      2.750954      1.699863
  C      -2.240571      3.925564      1.115483
  C      -2.465085      4.006561     -0.267990
  C      -2.194108      2.915970     -1.110124
  C      -1.192186     -2.720267     -0.790343
  C      -2.274379     -3.237388      0.183301
  C      -3.322521     -2.175139      0.570646
  C      -2.966900     -4.467776     -0.436065
  O       1.753984     -2.842542     -0.939610
  O       1.622957      1.042124     -1.309947
  C       2.335150      2.329380     -1.288089
  C       1.759286      3.243090     -0.215069
  H       3.151483     -2.248735      3.228096
  H       2.433632     -2.600145      1.639265
  H       1.492921     -1.704954      2.865203
  H       3.133056      0.205796      2.725166
  H       4.041899     -0.669689      1.460430
  H       0.789049     -1.404350     -2.135925
  H       0.081612     -1.956084      0.789847
  H      -1.563373      2.676583      2.770620
  H      -2.458629      4.788039      1.742652
  H      -2.854983      4.930165     -0.691953
  H      -2.362702      2.967090     -2.183670
  H      -1.661101     -2.322347     -1.700307
  H      -0.573369     -3.572455     -1.098740
  H      -1.766150     -3.564970      1.105564
  H      -4.137725     -2.634644      1.145821
  H      -3.765008     -1.716388     -0.325443
  H      -2.899991     -1.379943      1.191856
  H      -3.712199     -4.889325      0.251467
  H      -3.486452     -4.196275     -1.366771
  H      -2.241417     -5.256543     -0.675824
  H       2.667845     -2.700227     -1.262615
  H       3.405963      2.142087     -1.138796
  H       2.195336      2.745082     -2.292218
  H       0.695008      3.432198     -0.391982
  H       2.288267      4.206085     -0.232911
  H       1.876006      2.799295      0.779393
>
52
-1548.98598221; 31P isotropic shielding: 238.534576 ppm
  C       2.968198     -0.419905     -3.114623
  C       3.702616      0.148625     -1.906619
  O       3.266916     -0.476710     -0.650626
  P       1.838894     -0.082989     -0.010823
  O       1.385229      1.295552     -0.341681
  C       0.707523     -1.500421     -0.415979
  C      -0.718982     -1.333854      0.186010
  N      -1.213706      0.034108     -0.029861
  C      -1.342271      0.656442     -1.291367
  O      -1.149852      0.114490     -2.369738
  C      -1.732836      2.067016     -1.007579
  C      -1.764482      2.245787      0.379303
  C      -1.397353      0.954606      1.025938
  O      -1.260796      0.697481      2.212998
  C      -2.073534      3.475278      0.946030
  C      -2.356720      4.537858      0.072810
  C      -2.324090      4.358476     -1.318708
  C      -2.007594      3.110982     -1.880348
  C      -1.751084     -2.350565     -0.355181
  C      -1.560461     -3.831917      0.039377
  C      -1.555736     -4.035612      1.565124
  C      -2.669716     -4.676391     -0.616860
  O       1.320767     -2.727971      0.012956
  O       2.041451     -0.423115      1.551150
  C       2.526131      0.595484      2.493791
  C       1.864640      0.347299      3.838782
  H       1.905375     -0.148870     -3.100456
  H       3.058987     -1.512648     -3.148323
  H       3.405208     -0.008791     -4.035091
  H       4.775638     -0.067435     -1.951232
  H       3.556159      1.232018     -1.823444
  H       0.635671     -1.558246     -1.507537
  H      -0.634632     -1.423170      1.275469
  H      -2.089654      3.604920      2.026065
  H      -2.602013      5.517514      0.479094
  H      -2.544223      5.201904     -1.970746
  H      -1.971698      2.962469     -2.957408
  H      -2.736706     -2.020270      0.009915
  H      -1.779272     -2.263042     -1.449182
  H      -0.593804     -4.173815     -0.351606
  H      -0.719977     -3.516380      2.049780
  H      -1.467856     -5.101482      1.814333
  H      -2.487867     -3.662734      2.015448
  H      -2.538397     -5.742945     -0.390492
  H      -3.663315     -4.376553     -0.251445
  H      -2.665778     -4.560318     -1.709146
  H       1.602973     -2.608708      0.939781
  H       3.618774      0.500781      2.544476
  H       2.269444      1.583747      2.094045
  H       2.228270      1.084466      4.567716
  H       2.107439     -0.654489      4.215653
  H       0.776602      0.442943      3.752954
>
52
-1548.98307738; 31P isotropic shielding: 248.812580 ppm
  C       4.210843      1.282892     -2.123788
  C       3.610627     -0.113096     -2.034338
  O       3.395428     -0.495694     -0.631658
  P       1.945542     -0.242591      0.024495
  O       1.352204      1.096846     -0.239083
  C       0.921934     -1.707645     -0.469561
  C      -0.511353     -1.667471      0.137004
  N      -1.152919     -0.369131     -0.099077
  C      -1.382227      0.199253     -1.370177
  O      -1.174365     -0.353162     -2.440556
  C      -1.898132      1.574460     -1.111406
  C      -1.900140      1.791839      0.270283
  C      -1.388268      0.562118      0.936722
  O      -1.188781      0.354734      2.124709
  C      -2.309871      3.001826      0.814435
  C      -2.725424      4.004600     -0.076436
  C      -2.722493      3.786875     -1.462907
  C      -2.304023      2.559422     -2.001772
  C      -1.375422     -2.834104     -0.376762
  C      -2.794198     -2.899172      0.226561
  C      -3.591212     -4.034653     -0.442535
  C      -2.777138     -3.067152      1.757863
  O       1.594115     -2.923115     -0.101571
  O       2.226988     -0.622897      1.564275
  C       2.261513      0.419642      2.602958
  C       3.583579      1.172885      2.592136
  H       5.146819      1.336624     -1.553980
  H       3.509261      2.026256     -1.729632
  H       4.429916      1.525852     -3.172905
  H       2.661271     -0.169316     -2.584467
  H       4.286783     -0.878019     -2.432395
  H       0.849409     -1.715630     -1.563690
  H      -0.406321     -1.730696      1.226825
  H      -2.302236      3.162295      1.890375
  H      -3.052095      4.967649      0.311795
  H      -3.046836      4.584353     -2.129058
  H      -2.291149      2.381937     -3.074978
  H      -1.447021     -2.760250     -1.469594
  H      -0.837117     -3.764660     -0.151409
  H      -3.307058     -1.951669     -0.005277
  H      -4.622314     -4.068670     -0.066095
  H      -3.128071     -5.011092     -0.237983
  H      -3.632134     -3.904689     -1.532291
  H      -3.799409     -3.159085      2.148335
  H      -2.230051     -3.978756      2.042004
  H      -2.306847     -2.216110      2.264818
  H       1.855722     -2.843962      0.836045
  H       1.406757      1.086478      2.449273
  H       2.113500     -0.132355      3.536856
  H       3.606382      1.880453      3.432696
  H       3.703193      1.742323      1.663176
  H       4.430444      0.483532      2.695343
>
52
-1548.98597030; 31P isotropic shielding: 245.832858 ppm
  C       2.022503     -2.273825      2.584492
  C       2.605651     -0.876190      2.436501
  O       1.863820     -0.090093      1.438169
  P       2.301719     -0.051548     -0.103698
  O       3.739351     -0.323888     -0.399597
  C       1.266154     -1.285456     -1.023354
  C      -0.152880     -1.540737     -0.469029
  N      -0.809830     -0.271084     -0.127953
  C      -1.214633      0.050682      1.189755
  O      -1.135511     -0.692413      2.153924
  C      -1.771819      1.431190      1.114378
  C      -1.709268      1.858440     -0.216076
  C      -1.100332      0.769020     -1.033092
  O      -0.888225      0.746809     -2.236689
  C      -2.167213      3.112665     -0.598128
  C      -2.694113      3.942557      0.404641
  C      -2.756697      3.513758      1.739791
  C      -2.295052      2.241541      2.113875
  C      -0.976800     -2.408627     -1.441560
  C      -2.307986     -2.995123     -0.908442
  C      -2.115234     -3.835136      0.369173
  C      -3.426837     -1.948846     -0.719099
  O       1.964283     -2.547383     -0.985619
  O       1.737486      1.397527     -0.510746
  C       2.476552      2.267090     -1.439279
  C       2.293269      1.843566     -2.889822
  H       2.555894     -2.805535      3.385046
  H       2.134976     -2.847623      1.656628
  H       0.959717     -2.222846      2.846238
  H       2.505756     -0.298302      3.361702
  H       3.661286     -0.899390      2.141013
  H       1.193762     -0.912469     -2.057887
  H      -0.036159     -2.061668      0.485795
  H      -2.117313      3.432969     -1.636657
  H      -3.061973      4.933577      0.144924
  H      -3.170904      4.179292      2.494989
  H      -2.340718      1.898065      3.145062
  H      -1.168178     -1.827331     -2.352876
  H      -0.324112     -3.243992     -1.727741
  H      -2.647123     -3.679431     -1.703379
  H      -3.041277     -4.367634      0.624157
  H      -1.851709     -3.204967      1.228505
  H      -1.321656     -4.583937      0.239973
  H      -4.396420     -2.449234     -0.592773
  H      -3.266435     -1.335036      0.174390
  H      -3.504863     -1.280964     -1.587212
  H       2.915046     -2.338987     -1.094900
  H       2.057373      3.261972     -1.254384
  H       3.533097      2.262984     -1.147664
  H       2.767517      0.872712     -3.078748
  H       2.773179      2.583543     -3.545510
  H       1.230982      1.779037     -3.149807
>
52
-1548.98463546; 31P isotropic shielding: 239.476615 ppm
  C       3.788226     -0.027765     -2.491546
  C       2.269857     -0.044007     -2.376552
  O       1.835740     -0.842637     -1.222846
  P       1.677925     -0.175489      0.229685
  O       1.291413      1.263397      0.273627
  C       0.468933     -1.335702      1.017261
  C      -0.956095     -1.316122      0.390045
  N      -1.383378      0.054863      0.018586
  C      -1.328983      0.671061     -1.263782
  O      -0.997081      0.141041     -2.309177
  C      -1.755007      2.084720     -1.047967
  C      -1.977954      2.280177      0.316987
  C      -1.685343      1.003428      1.012992
  O      -1.669443      0.781756      2.222059
  C      -2.358958      3.515626      0.824641
  C      -2.521931      4.566334     -0.092091
  C      -2.299779      4.370197     -1.464121
  C      -1.907928      3.117314     -1.963071
  C      -1.137083     -2.333649     -0.751834
  C      -1.203318     -3.800140     -0.263659
  C      -2.482523     -4.096039      0.542056
  C      -1.090681     -4.749316     -1.471653
  O       0.453180     -1.066055      2.429352
  O       3.092391     -0.514935      0.923486
  C       3.575835      0.246240      2.085555
  C       3.690896     -0.673041      3.291648
  H       4.081913      0.507123     -3.405542
  H       4.187489     -1.048091     -2.543352
  H       4.244483      0.480080     -1.633759
  H       1.857127      0.965960     -2.274775
  H       1.797062     -0.528603     -3.236491
  H       0.882663     -2.345344      0.904016
  H      -1.626706     -1.593590      1.213797
  H      -2.518009      3.658469      1.891099
  H      -2.819573      5.550464      0.265046
  H      -2.428907      5.205701     -2.149788
  H      -1.724632      2.956677     -3.023219
  H      -2.066029     -2.102649     -1.290304
  H      -0.324609     -2.219769     -1.475341
  H      -0.338574     -3.994862      0.391207
  H      -3.376526     -3.927083     -0.076081
  H      -2.569116     -3.467355      1.437355
  H      -2.500009     -5.141801      0.875837
  H      -1.122047     -5.800042     -1.154474
  H      -1.920748     -4.586393     -2.174446
  H      -0.152760     -4.586727     -2.018760
  H      -0.232187     -0.376858      2.588721
  H       4.552512      0.648784      1.788406
  H       2.895581      1.085773      2.268097
  H       2.706047     -1.063058      3.569535
  H       4.103722     -0.112788      4.142472
  H       4.362221     -1.514374      3.077464
>
52
-1548.98395644; 31P isotropic shielding: 247.160882 ppm
  C       2.158726     -1.522907      3.049964
  C       2.754165     -0.226784      2.520676
  O       1.958976      0.311526      1.405163
  P       2.303140     -0.030820     -0.122576
  O       3.726158     -0.359577     -0.430881
  C       1.242039     -1.459747     -0.642595
  C      -0.151074     -1.569497      0.017525
  N      -0.810827     -0.256054      0.037987
  C      -1.142599      0.508834     -1.098456
  O      -0.985379      0.164725     -2.260845
  C      -1.709049      1.786065     -0.576139
  C      -1.701512      1.734794      0.821519
  C      -1.141328      0.417876      1.239436
  O      -1.008119     -0.037072      2.362940
  C      -2.169125      2.793540      1.589495
  C      -2.647421      3.924958      0.909063
  C      -2.655106      3.976244     -0.493681
  C      -2.183838      2.897757     -1.259707
  C      -0.993769     -2.670778     -0.658448
  C      -2.193068     -3.211905      0.152034
  C      -3.320646     -2.180446      0.359402
  C      -2.746167     -4.472944     -0.540902
  O       1.958846     -2.667720     -0.311236
  O       1.683608      1.266748     -0.840461
  C       2.363888      1.906027     -1.977784
  C       2.155743      1.136883     -3.274847
  H       2.736355     -1.855770      3.923852
  H       2.198494     -2.312794      2.290211
  H       1.117156     -1.372512      3.355456
  H       2.728133      0.566095      3.276122
  H       3.786589     -0.357504      2.175279
  H       1.121062     -1.367891     -1.734147
  H       0.004468     -1.821828      1.072372
  H      -2.159683      2.742551      2.676110
  H      -3.019046      4.776552      1.476045
  H      -3.033812      4.866323     -0.992921
  H      -2.188257      2.924903     -2.347330
  H      -1.333082     -2.310517     -1.639344
  H      -0.305344     -3.504560     -0.847672
  H      -1.818006     -3.509210      1.145523
  H      -3.024396     -1.370723      1.032601
  H      -4.202324     -2.662534      0.802870
  H      -3.629564     -1.739136     -0.599224
  H      -3.137019     -4.229213     -1.539764
  H      -1.967313     -5.237454     -0.662797
  H      -3.567069     -4.913500      0.040227
  H       2.897795     -2.500042     -0.533261
  H       1.912603      2.902961     -2.023420
  H       3.427643      2.004730     -1.732757
  H       2.666875      0.166969     -3.241637
  H       2.582305      1.711756     -4.108688
  H       1.089876      0.973621     -3.468252
>
52
-1548.98486072; 31P isotropic shielding: 240.312202 ppm
  C       2.163993     -1.864713      2.860965
  C       2.732945     -0.512998      2.455249
  O       1.962354      0.082000      1.351454
  P       2.340903     -0.203815     -0.177799
  O       3.741841     -0.631413     -0.462077
  C       1.195531     -1.508343     -0.830910
  C      -0.191514     -1.591640     -0.158224
  N      -0.779233     -0.254346      0.010720
  C      -1.049076      0.657143     -1.029005
  O      -0.871158      0.451797     -2.221724
  C      -1.577523      1.885141     -0.367029
  C      -1.606018      1.664740      1.013935
  C      -1.109174      0.283700      1.279073
  O      -1.009568     -0.303269      2.343352
  C      -2.047276      2.642386      1.896485
  C      -2.462897      3.867452      1.350266
  C      -2.436319      4.087877     -0.035707
  C      -1.991259      3.090706     -0.918556
  C      -1.132066     -2.543041     -0.922868
  C      -2.522243     -2.740734     -0.282568
  C      -3.410388     -3.580430     -1.220007
  C      -2.439917     -3.380409      1.116196
  O       1.829972     -2.789188     -0.641715
  O       1.860062      1.198867     -0.802447
  C       2.186081      1.526038     -2.198882
  C       1.970993      3.018328     -2.381132
  H       1.110159     -1.771275      3.146271
  H       2.727365     -2.250753      3.722031
  H       2.249397     -2.590146      2.042588
  H       2.648815      0.219777      3.264831
  H       3.781418     -0.585460      2.143507
  H       1.066828     -1.299585     -1.906002
  H      -0.034180     -1.957580      0.860681
  H      -2.065535      2.459779      2.968715
  H      -2.812485      4.659566      2.009858
  H      -2.766994      5.047097     -0.429807
  H      -1.970942      3.249840     -1.994578
  H      -1.251052     -2.163700     -1.946536
  H      -0.621339     -3.513177     -0.996057
  H      -2.994359     -1.750003     -0.178119
  H      -3.504844     -3.110296     -2.208119
  H      -4.419371     -3.702156     -0.804121
  H      -2.985065     -4.584211     -1.365237
  H      -1.894375     -2.750355      1.827832
  H      -3.445439     -3.545481      1.525850
  H      -1.935630     -4.356807      1.065457
  H       2.787115     -2.645180     -0.794164
  H       3.226650      1.235976     -2.388612
  H       1.518012      0.947856     -2.849216
  H       2.630220      3.591664     -1.718215
  H       0.931325      3.289959     -2.164486
  H       2.191761      3.297421     -3.420098
