51
-1950.38953111; 31P isotropic shielding: 241.589411 ppm
  C      -5.460304      0.219635      0.606136
  C      -4.236559     -0.685519      0.655286
  O      -3.314738     -0.411292     -0.454238
  P      -2.212933      0.748406     -0.332278
  O      -1.591963      0.922078      1.013117
  C      -1.030611      0.264109     -1.681662
  N       0.283652     -0.064377     -1.139256
  C       1.048052      0.995115     -0.714084
  O       0.674054      2.163911     -0.888085
  C       2.329561      0.698191      0.014575
  C       3.537992      0.647013     -0.686728
  C       4.739002      0.484691      0.001315
  Cl      6.259094      0.417294     -0.892652
  C       4.745030      0.381683      1.395095
  C       3.542050      0.434431      2.094356
  C       2.307710      0.593921      1.427652
  N       1.114695      0.584004      2.132555
  C       0.663632     -1.487799     -1.015293
  C      -0.389135     -2.325165     -0.315179
  C      -1.202133     -3.197217     -1.051584
  C      -2.199760     -3.948434     -0.422337
  C      -2.390107     -3.833499      0.957582
  C      -1.579640     -2.966624      1.700289
  C      -0.584717     -2.216976      1.069942
  O      -3.011957      2.035420     -0.881968
  C      -2.428325      3.382200     -0.697197
  C      -2.918987      4.003785      0.602006
  H      -5.970524      0.133187     -0.360968
  H      -6.163697     -0.075473      1.397308
  H      -5.186424      1.269034      0.760495
  H      -4.503875     -1.738719      0.525842
  H      -3.684019     -0.578994      1.596250
  H      -0.949432      1.108148     -2.373782
  H      -1.445353     -0.599637     -2.206682
  H       3.539296      0.746050     -1.769680
  H       5.684914      0.261205      1.927866
  H       3.550691      0.349644      3.180904
  H       1.171763      0.794459      3.121409
  H       0.245890      0.891924      1.687839
  H       1.612631     -1.518752     -0.473283
  H       0.842814     -1.891786     -2.023439
  H      -1.053291     -3.290341     -2.127658
  H      -2.823483     -4.621871     -1.007855
  H      -3.163165     -4.419224      1.452869
  H      -1.722895     -2.874593      2.775874
  H       0.032160     -1.532682      1.648648
  H      -1.335342      3.306735     -0.724787
  H      -2.770895      3.946181     -1.572166
  H      -2.571133      3.420124      1.461254
  H      -4.015046      4.056333      0.623778
  H      -2.523639      5.025362      0.690798
>
51
-1950.38905902; 31P isotropic shielding: 239.309159 ppm
  C      -5.457332      0.223437      0.613371
  C      -4.235645     -0.684718      0.659255
  O      -3.314776     -0.411201     -0.451094
  P      -2.212121      0.747929     -0.330686
  O      -1.590161      0.922210      1.014199
  C      -1.030950      0.261420     -1.680250
  N       0.283462     -0.066630     -1.137888
  C       1.048964      0.993422     -0.716028
  O       0.675617      2.162040     -0.892790
  C       2.330764      0.697396      0.012472
  C       3.539230      0.649610     -0.689084
  C       4.740572      0.488040     -0.001525
  Cl      6.260685      0.424767     -0.895787
  C       4.746993      0.382735      1.392091
  C       3.544090      0.432551      2.091662
  C       2.309323      0.591139      1.425437
  N       1.116439      0.578370      2.130562
  C       0.663680     -1.489963     -1.012795
  C      -0.389853     -2.327233     -0.313753
  C      -1.202804     -3.198505     -1.051160
  C      -2.201201     -3.949592     -0.422988
  C      -2.392408     -3.835355      0.956876
  C      -1.582004     -2.969279      1.700584
  C      -0.586281     -2.219794      1.071305
  O      -3.010552      2.035174     -0.880684
  C      -2.425948      3.381649     -0.697018
  C      -2.916362      4.004906      0.601489
  H      -6.160420     -0.071623      1.404819
  H      -5.180924      1.271928      0.769358
  H      -5.968900      0.139966     -0.353284
  H      -4.505856     -1.737033      0.528613
  H      -3.681451     -0.580974      1.599559
  H      -0.949754      1.104401     -2.373633
  H      -1.446324     -0.602949     -2.203719
  H       3.540149      0.750655     -1.771841
  H       5.687176      0.262902      1.924477
  H       3.553059      0.346208      3.178083
  H       1.173879      0.789136      3.119406
  H       0.247712      0.887749      1.686579
  H       1.611971     -1.520421     -0.469537
  H       0.844293     -1.894440     -2.020495
  H      -1.053343     -3.291146     -2.127189
  H      -2.824847     -4.622405     -1.009299
  H      -3.165843     -4.421248      1.451369
  H      -1.725850     -2.877871      2.776141
  H       0.030832     -1.536253      1.650649
  H      -1.333003      3.305423     -0.724439
  H      -2.767891      3.945091     -1.572583
  H      -4.012351      4.059008      0.622725
  H      -2.519632      5.025977      0.689760
  H      -2.569703      3.421396      1.461307
>
51
-1950.38905296; 31P isotropic shielding: 239.276118 ppm
  C      -5.403787      0.267963      0.891313
  C      -4.253046     -0.722524      0.769157
  O      -3.348382     -0.378880     -0.333820
  P      -2.206554      0.733448     -0.137870
  O      -1.566279      0.773336      1.208867
  C      -1.071552      0.298863     -1.544988
  N       0.263210     -0.033661     -1.056407
  C       1.000182      1.013992     -0.562902
  O       0.574904      2.176751     -0.631495
  C       2.310068      0.707451      0.107890
  C       3.497889      0.731706     -0.628969
  C       4.722116      0.554451      0.012991
  Cl      6.216449      0.583616     -0.925209
  C       4.771243      0.359700      1.396117
  C       3.588576      0.335302      2.130682
  C       2.331584      0.507508      1.510916
  N       1.160086      0.417386      2.244511
  C       0.671760     -1.455175     -1.016911
  C      -0.370823     -2.345521     -0.369319
  C      -0.568220     -2.322195      1.019593
  C      -1.565458     -3.107353      1.601238
  C      -2.376528     -3.925489      0.805879
  C      -2.182102     -3.958743     -0.577894
  C      -1.181979     -3.172457     -1.158428
  O      -2.968664      2.086654     -0.561540
  C      -2.423976      3.409227     -0.197739
  C      -2.011720      4.163788     -1.450822
  H      -6.102739     -0.079331      1.665012
  H      -5.044473      1.263785      1.173878
  H      -5.949350      0.352391     -0.056423
  H      -4.608085     -1.727193      0.518429
  H      -3.663569     -0.780501      1.691671
  H      -1.025302      1.159223     -2.219207
  H      -1.496842     -0.556804     -2.073635
  H       3.464508      0.900825     -1.702677
  H       5.728875      0.227683      1.893367
  H       3.631250      0.177897      3.208298
  H       1.239612      0.554849      3.244527
  H       0.270720      0.730984      1.846025
  H       1.619498     -1.499625     -0.473797
  H       0.860098     -1.796786     -2.046015
  H       0.048232     -1.675060      1.639884
  H      -1.710699     -3.080560      2.680130
  H      -3.152721     -4.537304      1.263171
  H      -2.805037     -4.595077     -1.204291
  H      -1.031218     -3.200109     -2.237922
  H      -3.238762      3.917458      0.332152
  H      -1.580593      3.273322      0.486559
  H      -2.844257      4.225554     -2.162983
  H      -1.153220      3.679577     -1.928388
  H      -1.713320      5.185759     -1.178805
>
51
-1950.38880540; 31P isotropic shielding: 240.398305 ppm
  C      -4.586664     -0.759436      1.419431
  C      -4.666582      0.009964      0.108029
  O      -3.443504     -0.166890     -0.686173
  P      -2.196764      0.825794     -0.474922
  O      -1.632068      0.911459      0.903665
  C      -1.040691      0.145040     -1.758809
  N       0.266992     -0.160428     -1.186868
  C       1.014021      0.914719     -0.779046
  O       0.618484      2.073057     -0.980897
  C       2.291598      0.655243     -0.031342
  C       3.504726      0.568116     -0.720782
  C       4.700807      0.440567     -0.016939
  Cl      6.227129      0.328620     -0.895604
  C       4.696637      0.407087      1.380300
  C       3.488770      0.494152      2.067627
  C       2.259108      0.620695      1.385163
  N       1.061140      0.644689      2.079754
  C       0.651965     -1.577267     -1.015522
  C      -0.392022     -2.396450     -0.281749
  C      -1.187882     -3.314882     -0.980135
  C      -2.162167     -4.067268     -0.315997
  C      -2.346069     -3.906006      1.060133
  C      -1.555118     -2.989982      1.763970
  C      -0.584958     -2.238216      1.099056
  O      -2.786840      2.211704     -1.044196
  C      -2.245697      3.505815     -0.584617
  C      -3.008648      4.001247      0.634823
  H      -3.776111     -0.374037      2.047012
  H      -5.536617     -0.655131      1.962527
  H      -4.405129     -1.823491      1.232339
  H      -4.833334      1.082533      0.272015
  H      -5.469319     -0.367647     -0.535352
  H      -0.948029      0.895010     -2.551763
  H      -1.483977     -0.766162     -2.166211
  H       3.513706      0.611926     -1.807363
  H       5.632599      0.312790      1.925110
  H       3.489645      0.462120      3.157031
  H       1.108260      0.894927      3.059613
  H       0.192880      0.921044      1.613757
  H       1.603358     -1.585521     -0.476658
  H       0.830081     -2.014383     -2.009781
  H      -1.040153     -3.447394     -2.052303
  H      -2.771809     -4.778207     -0.871258
  H      -3.100048     -4.492816      1.582656
  H      -1.697148     -2.858808      2.835489
  H       0.016640     -1.516751      1.647931
  H      -1.175576      3.392774     -0.386995
  H      -2.377584      4.172037     -1.444584
  H      -2.642715      4.998581      0.916479
  H      -2.857924      3.324891      1.483835
  H      -4.083098      4.078373      0.423319
>
51
-1950.38878474; 31P isotropic shielding: 238.886985 ppm
  C      -6.058548      1.588840     -1.141356
  C      -5.165916      0.689336     -0.299324
  O      -3.915962      0.402774     -1.017465
  P      -2.540554      1.090486     -0.531423
  O      -2.084052      0.734292      0.844378
  C      -1.435502      0.488498     -1.900823
  N      -0.177608     -0.048227     -1.384411
  C       0.636097      0.861639     -0.754653
  O       0.318876      2.060343     -0.714348
  C       1.849219      0.336941     -0.052028
  C       2.993900     -0.021805     -0.766344
  C       4.099077     -0.538117     -0.094721
  Cl      5.530043     -1.024774     -1.008085
  C       4.073176     -0.689404      1.294270
  C       2.939434     -0.314223      2.007311
  C       1.800309      0.211036      1.360135
  N       0.690073      0.598516      2.084550
  C       0.133426     -1.493618     -1.523822
  C       0.387403     -2.246175     -0.230280
  C       1.546040     -3.024129     -0.099095
  C       1.796771     -3.735118      1.075980
  C       0.883825     -3.679352      2.134161
  C      -0.281413     -2.915304      2.003733
  C      -0.531657     -2.203505      0.827860
  O      -2.858326      2.649349     -0.760488
  C      -2.214934      3.692979      0.063709
  C      -3.046269      3.980549      1.304428
  H      -5.580645      2.559910     -1.310579
  H      -6.267837      1.125739     -2.113598
  H      -7.014436      1.752179     -0.624592
  H      -5.627913     -0.288485     -0.119589
  H      -4.932699      1.140921      0.673183
  H      -1.258030      1.334227     -2.576057
  H      -1.969766     -0.296419     -2.441109
  H       3.016106      0.085780     -1.848387
  H       4.935066     -1.102573      1.812115
  H       2.922372     -0.438886      3.089426
  H       0.604529      0.200355      3.011738
  H      -0.206722      0.720972      1.611489
  H       0.998743     -1.616431     -2.188158
  H      -0.725529     -1.935563     -2.042511
  H       2.272967     -3.045730     -0.909129
  H       2.711827     -4.316890      1.171191
  H       1.079559     -4.227007      3.054781
  H      -0.997923     -2.868107      2.822729
  H      -1.420626     -1.581884      0.754212
  H      -1.198320      3.374268      0.307750
  H      -2.160411      4.561362     -0.601965
  H      -2.590607      4.808294      1.865597
  H      -3.080674      3.101078      1.957645
  H      -4.070759      4.270964      1.037868
>
51
-1950.38639657; 31P isotropic shielding: 237.566774 ppm
  C      -6.029084      1.530348     -1.342213
  C      -5.183188      0.606151     -0.478784
  O      -3.902280      0.327590     -1.142098
  P      -2.545674      0.989936     -0.574665
  O      -2.154222      0.588965      0.808908
  C      -1.390316      0.416014     -1.911921
  N      -0.126835     -0.077105     -1.365213
  C       0.614610      0.848652     -0.672639
  O       0.232610      2.026584     -0.602607
  C       1.823911      0.358931      0.060717
  C       3.009605      0.071944     -0.618540
  C       4.110232     -0.417191      0.080180
  Cl      5.595438     -0.811619     -0.790197
  C       4.038534     -0.613484      1.461957
  C       2.863439     -0.309444      2.140777
  C       1.727652      0.187032      1.465522
  N       0.575495      0.503483      2.158575
  C       0.258420     -1.500903     -1.532471
  C       0.483432     -2.278592     -0.248537
  C      -0.481529     -2.294514      0.768544
  C      -0.257677     -3.026842      1.937071
  C       0.927658     -3.752505      2.100951
  C       1.887516     -3.748961      1.083563
  C       1.663034     -3.017717     -0.084459
  O      -2.855554      2.554269     -0.769066
  C      -2.213949      3.587463      0.062374
  C      -3.297441      4.501287      0.611108
  H      -5.538415      2.501868     -1.465488
  H      -6.193001      1.090562     -2.333851
  H      -7.008285      1.688216     -0.869232
  H      -5.659043     -0.372266     -0.343603
  H      -4.994238      1.034054      0.514011
  H      -1.228637      1.261650     -2.592251
  H      -1.886565     -0.390701     -2.456329
  H       3.068741      0.214627     -1.695136
  H       4.897682     -1.005126      2.000679
  H       2.811057     -0.467921      3.217353
  H       0.470920      0.066133      3.066022
  H      -0.307175      0.607918      1.655370
  H       1.159172     -1.564836     -2.156780
  H      -0.552380     -1.965400     -2.106249
  H      -1.388409     -1.702672      0.670248
  H      -1.010712     -3.025362      2.724000
  H       1.102831     -4.316272      3.015971
  H       2.818075     -4.300312      1.205965
  H       2.424994     -2.993598     -0.861727
  H      -1.644747      3.101505      0.859503
  H      -1.511665      4.117015     -0.588878
  H      -3.977258      3.951429      1.274251
  H      -3.884531      4.951244     -0.199460
  H      -2.834950      5.312076      1.190569
>
51
-1950.38647597; 31P isotropic shielding: 240.180612 ppm
  C      -4.979336     -0.860805      0.430069
  C      -4.901056      0.259797     -0.598487
  O      -3.632816      0.202739     -1.338454
  P      -2.364358      1.044502     -0.801039
  O      -1.964316      0.782482      0.611345
  C      -1.119459      0.549241     -2.091652
  N       0.125168      0.064395     -1.500345
  C       0.842255      0.993350     -0.782794
  O       0.493127      2.182588     -0.769709
  C       2.005010      0.500412      0.026035
  C       3.245785      0.275526     -0.575802
  C       4.322274     -0.174768      0.186294
  Cl      5.883074     -0.467139     -0.584957
  C       4.168194     -0.395254      1.558506
  C       2.935789     -0.161599      2.160176
  C       1.820785      0.288661      1.417215
  N       0.611199      0.521814      2.031804
  C       0.441207     -1.387040     -1.528087
  C       0.055340     -2.149013     -0.274242
  C      -1.290918     -2.341625      0.068348
  C      -1.634942     -3.002249      1.248670
  C      -0.633549     -3.488639      2.097683
  C       0.710856     -3.320658      1.751885
  C       1.051408     -2.656275      0.570004
  O      -2.821156      2.553839     -1.110780
  C      -2.291664      3.680952     -0.314025
  C      -3.189297      3.955606      0.882498
  H      -5.954658     -0.829628      0.935225
  H      -4.876381     -1.839589     -0.055036
  H      -4.189629     -0.752144      1.181222
  H      -5.000111      1.247344     -0.130139
  H      -5.677592      0.164024     -1.365757
  H      -0.931812      1.433120     -2.711857
  H      -1.559900     -0.236960     -2.709410
  H       3.370022      0.449178     -1.642429
  H       5.010033     -0.746177      2.150309
  H       2.820660     -0.337444      3.229365
  H       0.466732      0.084972      2.933202
  H      -0.241995      0.641377      1.481129
  H       1.513677     -1.500461     -1.708972
  H      -0.080407     -1.796536     -2.401588
  H      -2.077929     -1.968740     -0.583248
  H      -2.683643     -3.137510      1.507338
  H      -0.901402     -4.003041      3.019367
  H       1.496264     -3.701640      2.402560
  H       2.098764     -2.514212      0.311833
  H      -1.263838      3.452612     -0.018326
  H      -2.279494      4.521297     -1.016841
  H      -2.821104      4.840629      1.419912
  H      -3.180551      3.104933      1.573456
  H      -4.221810      4.152457      0.565726
>
51
-1950.38688771; 31P isotropic shielding: 239.379514 ppm
  C      -5.562705      0.166684      0.343653
  C      -4.283387     -0.614025      0.613669
  O      -3.304673     -0.417338     -0.463487
  P      -2.203718      0.744840     -0.362523
  O      -1.588129      0.951390      0.980629
  C      -1.017848      0.223631     -1.694312
  N       0.293598     -0.093859     -1.138864
  C       1.057009      0.974314     -0.734342
  O       0.684702      2.139039     -0.937024
  C       2.334944      0.692697      0.006441
  C       3.545372      0.617725     -0.689252
  C       4.743436      0.469030      0.006894
  Cl      6.266160      0.371600     -0.879820
  C       4.744458      0.403156      1.402929
  C       3.539513      0.479405      2.096553
  C       2.307945      0.626274      1.421759
  N       1.112524      0.639690      2.122319
  C       0.667277     -1.515098     -0.974035
  C      -0.394785     -2.328059     -0.259483
  C      -0.603262     -2.177968      1.119743
  C      -1.609784     -2.901869      1.761576
  C      -2.418628     -3.784824      1.036280
  C      -2.214842     -3.942207     -0.337589
  C      -1.205957     -3.216266     -0.978349
  O      -2.999618      2.020897     -0.942959
  C      -2.419402      3.371577     -0.775317
  C      -2.919166      4.012948      0.510650
  H      -6.301323     -0.059478      1.125376
  H      -5.376921      1.246346      0.342322
  H      -5.990078     -0.113095     -0.627040
  H      -4.460078     -1.693983      0.624993
  H      -3.817186     -0.327822      1.564230
  H      -0.932414      1.049022     -2.408077
  H      -1.432795     -0.652718     -2.197892
  H       3.550517      0.687680     -1.774461
  H       5.682102      0.292955      1.941840
  H       3.544237      0.423266      3.184975
  H       1.166557      0.875674      3.105546
  H       0.246512      0.938066      1.665922
  H       1.612585     -1.535715     -0.425114
  H       0.851632     -1.946503     -1.969779
  H       0.012536     -1.481071      1.684335
  H      -1.763899     -2.776441      2.832232
  H      -3.200715     -4.350499      1.540660
  H      -2.837282     -4.628521     -0.909360
  H      -1.047085     -3.341686     -2.049705
  H      -1.326199      3.297045     -0.794946
  H      -2.757138      3.920849     -1.661455
  H      -2.527356      5.037015      0.585030
  H      -2.574733      3.444053      1.381060
  H      -4.015511      4.062376      0.525471
>
51
-1950.38907608; 31P isotropic shielding: 238.842256 ppm
  C      -5.464333      0.255806      0.545708
  C      -4.246283     -0.656056      0.610645
  O      -3.317055     -0.399639     -0.496913
  P      -2.212939      0.759010     -0.383477
  O      -1.604991      0.953158      0.964921
  C      -1.018448      0.249671     -1.712889
  N       0.289432     -0.073730     -1.152328
  C       1.051462      0.989990     -0.733909
  O       0.681668      2.156939     -0.928073
  C       2.324812      0.701021      0.012050
  C       3.539521      0.631716     -0.676823
  C       4.733329      0.477429      0.025368
  Cl      6.261399      0.387502     -0.852942
  C       4.726015      0.400269      1.420818
  C       3.516841      0.470874      2.107654
  C       2.289444      0.623162      1.426549
  N       1.089873      0.631148      2.120154
  C       0.663336     -1.496187     -1.001891
  C      -0.397743     -2.318480     -0.296685
  C      -1.206493     -3.201002     -1.025227
  C      -2.211232     -3.939168     -0.391925
  C      -2.412983     -3.800471      0.984192
  C      -1.606895     -2.922929      1.719067
  C      -0.604937     -2.186188      1.084619
  O      -3.003619      2.038351     -0.963395
  C      -2.419169      3.386799     -0.794784
  C      -2.919376      4.029674      0.490402
  H      -5.971117      0.161461     -0.422444
  H      -6.172723     -0.025696      1.337354
  H      -5.184484      1.305178      0.689211
  H      -4.519252     -1.708988      0.491244
  H      -3.698184     -0.542475      1.553335
  H      -0.928142      1.081937     -2.418023
  H      -1.430337     -0.621529     -2.227836
  H       3.551424      0.710496     -1.761375
  H       5.660424      0.285848      1.964430
  H       3.514842      0.406002      3.195594
  H       1.138378      0.859556      3.105462
  H       0.226545      0.933584      1.661428
  H       1.608189     -1.521656     -0.452342
  H       0.848794     -1.917049     -2.001943
  H      -1.048685     -3.312710     -2.098242
  H      -2.831702     -4.620949     -0.971199
  H      -3.191572     -4.376116      1.482611
  H      -1.759057     -2.812412      2.791676
  H       0.008354     -1.493259      1.656844
  H      -1.326125      3.309370     -0.812455
  H      -2.753457      3.937584     -1.681317
  H      -2.523325      5.051982      0.566288
  H      -2.579519      3.459086      1.361557
  H      -4.015502      4.083984      0.502361
>
51
-1950.38905168; 31P isotropic shielding: 239.332453 ppm
  C      -4.589413     -1.000994      1.463882
  C      -4.693672     -0.052923      0.277412
  O      -3.497669     -0.141459     -0.570578
  P      -2.238964      0.817459     -0.283932
  O      -1.667719      0.773320      1.093541
  C      -1.105908      0.225620     -1.631226
  N       0.218969     -0.094224     -1.107110
  C       0.939536      0.961079     -0.612768
  O       0.501970      2.119037     -0.701392
  C       2.235885      0.677901      0.091524
  C       3.437835      0.663720     -0.622405
  C       4.648633      0.513091      0.051028
  Cl      6.160977      0.494551     -0.858075
  C       4.669850      0.382679      1.442476
  C       3.473087      0.395472      2.154089
  C       2.228817      0.542693      1.502609
  N       1.043585      0.490122      2.216119
  C       0.636496     -1.511317     -1.050981
  C      -0.377239     -2.404350     -0.362108
  C      -0.554231     -2.345154      1.028659
  C      -1.500075     -3.160612      1.652062
  C      -2.281864     -4.043252      0.897179
  C      -2.112865     -4.107092     -0.488792
  C      -1.163485     -3.290237     -1.111809
  O      -2.822194      2.250550     -0.724804
  C      -2.263222      3.510894     -0.202536
  C      -1.793490      4.373370     -1.361195
  H      -4.433082     -2.030127      1.121782
  H      -3.751666     -0.720038      2.110884
  H      -5.519551     -0.961822      2.048185
  H      -4.831391      0.988611      0.596356
  H      -5.524123     -0.320963     -0.385673
  H      -1.043955      1.016358     -2.386627
  H      -1.547130     -0.669496     -2.074680
  H       3.426285      0.782451     -1.703362
  H       5.617110      0.270866      1.963968
  H       3.494243      0.286939      3.238333
  H       1.101654      0.666779      3.211204
  H       0.159337      0.773513      1.785166
  H       1.597573     -1.538204     -0.530271
  H       0.804319     -1.868793     -2.078144
  H       0.039863     -1.651018      1.619271
  H      -1.630422     -3.105486      2.731640
  H      -3.017210     -4.679356      1.387527
  H      -2.715044     -4.791496     -1.084090
  H      -1.028250     -3.345569     -2.192372
  H      -3.080906      3.986107      0.354113
  H      -1.445475      3.280304      0.486325
  H      -1.454265      5.345675     -0.977541
  H      -2.607683      4.550413     -2.075506
  H      -0.951760      3.897210     -1.874654
>
51
-1950.38882798; 31P isotropic shielding: 240.875732 ppm
  C      -4.607428     -0.677466      1.353727
  C      -4.669396      0.018893      0.000920
  O      -3.425498     -0.173255     -0.756471
  P      -2.181528      0.821680     -0.538235
  O      -1.633274      0.921602      0.845907
  C      -1.008063      0.127031     -1.799062
  N       0.290245     -0.175478     -1.204404
  C       1.034094      0.902055     -0.797473
  O       0.645100      2.059249     -1.018063
  C       2.300616      0.647894     -0.029332
  C       3.521505      0.540863     -0.702090
  C       4.708193      0.419563      0.018589
  Cl      6.244310      0.282569     -0.839208
  C       4.686871      0.411991      1.416021
  C       3.471259      0.518264      2.086766
  C       2.250754      0.639106      1.387056
  N       1.044571      0.681251      2.066610
  C       0.664404     -1.591614     -1.004907
  C      -0.393195     -2.391796     -0.269308
  C      -1.189881     -3.313747     -0.962050
  C      -2.177747     -4.047308     -0.296982
  C      -2.374490     -3.863459      1.074542
  C      -1.582669     -2.943897      1.772779
  C      -0.598881     -2.210989      1.106811
  O      -2.763126      2.201999     -1.129593
  C      -2.225741      3.499884     -0.676131
  C      -3.001404      4.007496      0.530255
  H      -4.394581     -1.744830      1.228769
  H      -3.825066     -0.238580      1.981889
  H      -5.574841     -0.569506      1.864371
  H      -4.860551      1.095129      0.102128
  H      -5.448084     -0.409948     -0.639780
  H      -0.901532      0.870021     -2.596767
  H      -1.446557     -0.786855     -2.205509
  H       3.544224      0.564725     -1.789101
  H       5.615591      0.322472      1.973886
  H       3.458621      0.505850      3.176484
  H       1.080670      0.952109      3.041445
  H       0.183424      0.950862      1.584043
  H       1.609686     -1.597075     -0.455397
  H       0.850575     -2.046376     -1.989692
  H      -1.032377     -3.463597     -2.030533
  H      -2.788073     -4.761110     -0.847800
  H      -3.139168     -4.435513      1.597906
  H      -1.734619     -2.795136      2.840633
  H       0.003012     -1.486435      1.651233
  H      -1.157931      3.387524     -0.465770
  H      -2.347690      4.158223     -1.543576
  H      -2.636995      5.006941      0.806449
  H      -2.861311      3.338886      1.387137
  H      -4.073326      4.084334      0.306180
>
51
-1950.38877934; 31P isotropic shielding: 239.032752 ppm
  C      -4.612999     -0.689628      1.320751
  C      -4.667804     -0.000825     -0.036164
  O      -3.417504     -0.192385     -0.783373
  P      -2.179986      0.809427     -0.562200
  O      -1.641804      0.919692      0.825117
  C      -0.993687      0.114989     -1.810780
  N       0.300830     -0.181418     -1.204517
  C       1.037415      0.899758     -0.794178
  O       0.646237      2.055068     -1.020416
  C       2.298756      0.652211     -0.015370
  C       3.524299      0.538492     -0.678572
  C       4.705907      0.424333      0.051524
  Cl      6.247997      0.279189     -0.794163
  C       4.674922      0.430250      1.448817
  C       3.454567      0.542579      2.109923
  C       2.238991      0.656658      1.400608
  N       1.027964      0.704114      2.071449
  C       0.676258     -1.595714     -0.995279
  C      -0.382677     -2.393426     -0.259012
  C      -0.595563     -2.203270      1.114732
  C      -1.579927     -2.934852      1.781343
  C      -2.365186     -3.862277      1.086130
  C      -2.161485     -4.055170     -0.283168
  C      -1.173103     -3.322930     -0.948846
  O      -2.764463      2.183485     -1.165263
  C      -2.235479      3.486457     -0.717323
  C      -3.018856      3.998074      0.482422
  H      -3.837570     -0.243538      1.952445
  H      -5.584711     -0.583847      1.823624
  H      -4.394052     -1.756563      1.203150
  H      -4.863635      1.075209      0.057795
  H      -5.440214     -0.435856     -0.680277
  H      -0.882797      0.856499     -2.609257
  H      -1.425317     -0.801549     -2.218701
  H       3.554692      0.551792     -1.765582
  H       5.599672      0.346171      2.014049
  H       3.434216      0.540169      3.199594
  H       1.056779      0.986801      3.043184
  H       0.170063      0.966992      1.579592
  H       1.619661     -1.596838     -0.442531
  H       0.866756     -2.055448     -1.976915
  H       0.000867     -1.472736      1.657155
  H      -1.737533     -2.778791      2.847332
  H      -3.130297     -4.433224      1.610063
  H      -2.766769     -4.775010     -0.831690
  H      -1.010171     -3.479772     -2.015504
  H      -1.168114      3.380452     -0.501326
  H      -2.356639      4.139107     -1.589204
  H      -2.660387      5.001020      0.753582
  H      -2.879353      3.335617      1.344171
  H      -4.090170      4.068263      0.253257
>
51
-1950.38877769; 31P isotropic shielding: 239.148949 ppm
  C      -5.454403      0.162556      0.919669
  C      -4.218737     -0.727903      0.914423
  O      -3.322450     -0.397366     -0.200711
  P      -2.200766      0.737936     -0.035282
  O      -1.509513      0.791093      1.285123
  C      -1.102773      0.357598     -1.485712
  N       0.243143      0.002709     -1.047822
  C       1.027548      1.036567     -0.597090
  O       0.639780      2.211780     -0.668429
  C       2.351407      0.697916      0.030528
  C       3.515589      0.713746     -0.743558
  C       4.756243      0.505395     -0.144195
  Cl      6.219961      0.521756     -1.129731
  C       4.846137      0.289546      1.233741
  C       3.687293      0.275831      2.005634
  C       2.414335      0.478572      1.429204
  N       1.265686      0.399420      2.200366
  C       0.634712     -1.424025     -1.038313
  C      -0.389980     -2.314016     -0.362654
  C      -0.531530     -2.310203      1.033186
  C      -1.506424     -3.101852      1.643140
  C      -2.350253     -3.907346      0.869232
  C      -2.212448     -3.919995     -0.521695
  C      -1.234743     -3.127037     -1.130500
  O      -3.005380      2.079841     -0.423303
  C      -2.416827      3.392345     -0.082016
  C      -3.120657      4.443319     -0.922261
  H      -5.981082      0.102359     -0.040559
  H      -6.139738     -0.167611      1.712793
  H      -5.189648      1.209638      1.104077
  H      -4.475055     -1.779019      0.749971
  H      -3.650853     -0.649525      1.849175
  H      -1.066545      1.247327     -2.122058
  H      -1.546012     -0.471035     -2.042720
  H       3.450545      0.900016     -1.812955
  H       5.816599      0.133093      1.697937
  H       3.761862      0.102834      3.079137
  H       1.380730      0.529599      3.197999
  H       0.370097      0.734410      1.835501
  H       1.601507     -1.485065     -0.531927
  H       0.780914     -1.755590     -2.077738
  H       0.111391     -1.673278      1.636967
  H      -1.608324     -3.090338      2.727252
  H      -3.107868     -4.525544      1.348684
  H      -2.861783     -4.545813     -1.131689
  H      -1.127541     -3.139245     -2.215451
  H      -2.573973      3.552101      0.991642
  H      -1.339293      3.361476     -0.278919
  H      -4.202194      4.439900     -0.737180
  H      -2.949158      4.268756     -1.991670
  H      -2.728726      5.437672     -0.669344
>
51
-1950.38900395; 31P isotropic shielding: 240.287400 ppm
  C      -5.452573      0.276254      0.533417
  C      -4.240463     -0.642555      0.609682
  O      -3.309570     -0.406865     -0.500998
  P      -2.202033      0.750071     -0.405644
  O      -1.595837      0.965534      0.940333
  C      -1.007424      0.214127     -1.724290
  N       0.298804     -0.103903     -1.156835
  C       1.063349      0.964161     -0.754244
  O       0.697372      2.128894     -0.967737
  C       2.334611      0.683712     -0.001493
  C       3.550044      0.596840     -0.686976
  C       4.742250      0.451444      0.019918
  Cl      6.271185      0.339238     -0.854132
  C       4.732464      0.400634      1.416541
  C       3.522421      0.488333      2.099918
  C       2.296716      0.632315      1.414137
  N       1.095873      0.656456      2.105886
  C       0.667764     -1.524797     -0.981964
  C      -0.396552     -2.331104     -0.263296
  C      -1.207618     -3.223608     -0.976824
  C      -2.215009     -3.947412     -0.331201
  C      -2.417028     -3.783913      1.042133
  C      -1.608666     -2.896055      1.761999
  C      -0.604074     -2.173684      1.115321
  O      -2.988465      2.021381     -1.008692
  C      -2.398952      3.370702     -0.867128
  C      -2.894577      4.040444      0.406101
  H      -5.959861      0.173835     -0.433656
  H      -6.162788      0.008401      1.328161
  H      -5.166195      1.325477      0.664720
  H      -4.520327     -1.695169      0.504069
  H      -3.691530     -0.520344      1.550804
  H      -0.913323      1.033869     -2.443518
  H      -1.421539     -0.664476     -2.224729
  H       3.564042      0.655239     -1.772796
  H       5.665574      0.293057      1.963772
  H       3.518493      0.443632      3.188865
  H       1.143811      0.907972      3.085669
  H       0.234990      0.954139      1.639414
  H       1.612323     -1.544516     -0.431675
  H       0.852372     -1.963143     -1.974635
  H      -1.049515     -3.354491     -2.047612
  H      -2.837382     -4.637286     -0.898740
  H      -3.197720     -4.348137      1.550209
  H      -1.761177     -2.766200      2.832388
  H       0.011029     -1.472755      1.675793
  H      -1.306228      3.289206     -0.884692
  H      -2.732784      3.905408     -1.763632
  H      -2.553517      3.486934      1.287743
  H      -3.990560      4.097023      0.419673
  H      -2.496399      5.063282      0.460072
>
51
-1950.38903685; 31P isotropic shielding: 239.393393 ppm
  C      -5.463005      0.279060      0.578721
  C      -4.246537     -0.635403      0.635649
  O      -3.319943     -0.374723     -0.473082
  P      -2.208695      0.776353     -0.354453
  O      -1.589203      0.951057      0.991490
  C      -1.027951      0.275210     -1.699105
  N       0.282607     -0.061126     -1.152687
  C       1.054086      0.994164     -0.729849
  O       0.689192      2.165023     -0.909096
  C       2.331786      0.690133      0.002637
  C       3.540996      0.624946     -0.696131
  C       4.739254      0.455307     -0.005066
  Cl      6.260324      0.370389     -0.895788
  C       4.741736      0.358671      1.389190
  C       3.537968      0.425257      2.085865
  C       2.306307      0.592689      1.416147
  N       1.111934      0.596453      2.118852
  C       0.651028     -1.486981     -1.021401
  C      -0.409912     -2.312352     -0.319570
  C      -0.607566     -2.195550      1.064540
  C      -1.610082     -2.933701      1.696430
  C      -2.426139     -3.797484      0.956236
  C      -2.233670     -3.921039     -0.422642
  C      -1.228431     -3.181342     -1.053414
  O      -2.996089      2.067289     -0.911748
  C      -2.402634      3.410406     -0.731792
  C      -2.889484      4.040984      0.564525
  H      -5.181105      1.327191      0.727176
  H      -5.972279      0.190744     -0.388702
  H      -6.169974     -0.005643      1.370502
  H      -4.522002     -1.687136      0.511341
  H      -3.695531     -0.528040      1.577412
  H      -0.938844      1.114538     -2.395964
  H      -1.448864     -0.588172     -2.219849
  H       3.545142      0.718782     -1.779538
  H       5.679497      0.232269      1.924316
  H       3.543739      0.345211      3.172791
  H       1.168874      0.811725      3.106697
  H       0.246600      0.909466      1.670878
  H       1.598600     -1.522912     -0.477228
  H       0.829247     -1.896991     -2.027266
  H       0.013746     -1.513456      1.641100
  H      -1.754906     -2.835100      2.771215
  H      -3.205215     -4.374111      1.452749
  H      -2.861766     -4.592151     -1.006145
  H      -1.077956     -3.281191     -2.128655
  H      -1.310240      3.326800     -0.758291
  H      -2.740334      3.973347     -1.609323
  H      -2.486555      5.059887      0.649518
  H      -2.546615      3.458122      1.426314
  H      -3.985137      4.101828      0.585291
>
51
-1950.38907847; 31P isotropic shielding: 239.310228 ppm
  C      -5.960045      1.084379     -0.893418
  C      -4.937897      0.226066     -0.162506
  O      -3.701832      0.121654     -0.952119
  P      -2.399326      0.965407     -0.509216
  O      -1.882590      0.685202      0.860394
  C      -1.262390      0.490549     -1.902935
  N       0.030575      0.010502     -1.422612
  C       0.802447      0.937260     -0.762256
  O       0.449736      2.124327     -0.708130
  C       2.033428      0.441319     -0.063587
  C       3.226855      0.265501     -0.768893
  C       4.367211     -0.193045     -0.111943
  Cl      5.867393     -0.423826     -1.013877
  C       4.325150     -0.470673      1.257841
  C       3.140611     -0.284389      1.962533
  C       1.963199      0.172612      1.327848
  N       0.803872      0.359111      2.046531
  C       0.366668     -1.433129     -1.515394
  C       0.129411     -2.229830     -0.246420
  C       1.217680     -2.771961      0.449375
  C       1.020944     -3.474184      1.641811
  C      -0.271109     -3.643033      2.148883
  C      -1.365348     -3.118957      1.450156
  C      -1.165251     -2.421216      0.257814
  O      -2.885496      2.479296     -0.753165
  C      -2.276828      3.594913      0.003563
  C      -3.073721      3.872899      1.268393
  H      -5.593091      2.109580     -1.010907
  H      -6.172203      0.671162     -1.887178
  H      -6.898489      1.109300     -0.322335
  H      -5.288197     -0.805522     -0.040458
  H      -4.699306      0.626680      0.830861
  H      -1.135335      1.379193     -2.532017
  H      -1.748472     -0.295772     -2.485297
  H       3.264179      0.482476     -1.834189
  H       5.216475     -0.828476      1.767357
  H       3.112309     -0.504464      3.029276
  H       0.737580     -0.119368      2.935732
  H      -0.092354      0.494607      1.573925
  H       1.415906     -1.523516     -1.810941
  H      -0.236309     -1.834394     -2.339006
  H       2.226152     -2.626479      0.067112
  H       1.877369     -3.882271      2.175932
  H      -0.426824     -4.186233      3.079780
  H      -2.374572     -3.251999      1.836043
  H      -2.024568     -2.018330     -0.273580
  H      -1.232537      3.350319      0.216199
  H      -2.307220      4.439147     -0.694044
  H      -2.650591      4.747307      1.782286
  H      -3.023619      3.016286      1.950234
  H      -4.124931      4.087212      1.036342
>
51
-1950.38704699; 31P isotropic shielding: 238.330728 ppm
  C      -5.340780     -0.184332      0.496420
  C      -5.119423      0.843019     -0.606459
  O      -3.852543      0.598765     -1.308391
  P      -2.485769      1.257387     -0.760059
  O      -2.106807      0.904637      0.640984
  C      -1.328373      0.618261     -2.068668
  N      -0.120682      0.038218     -1.483646
  C       0.687877      0.920158     -0.808375
  O       0.411487      2.129240     -0.784663
  C       1.841082      0.352806     -0.041138
  C       3.004752     -0.058924     -0.693732
  C       4.052135     -0.614412      0.036636
  Cl      5.506609     -1.166084     -0.799428
  C       3.949664     -0.752774      1.423459
  C       2.797690     -0.325688      2.075288
  C       1.715474      0.239902      1.367397
  N       0.586251      0.677561      2.031080
  C       0.140310     -1.419447     -1.594735
  C       0.280608     -2.171334     -0.283152
  C       1.396435     -2.993356     -0.073038
  C       1.542005     -3.704555      1.119557
  C       0.565893     -3.604201      2.116325
  C      -0.556392     -2.794969      1.906977
  C      -0.701401     -2.083365      0.713469
  O      -2.750002      2.819516     -1.022742
  C      -2.131325      3.855584     -0.170782
  C      -3.016049      4.160900      1.028303
  H      -4.567889     -0.098563      1.267804
  H      -6.323382     -0.020740      0.960460
  H      -5.318614     -1.201886      0.087041
  H      -5.119462      1.868344     -0.215113
  H      -5.885936      0.772968     -1.386425
  H      -1.083112      1.458314     -2.729431
  H      -1.857301     -0.146399     -2.642174
  H       3.087536      0.039617     -1.773719
  H       4.766767     -1.195777      1.987237
  H       2.721024     -0.439865      3.156001
  H       0.435327      0.289209      2.954125
  H      -0.277842      0.834450      1.509841
  H       1.040588     -1.582909     -2.200842
  H      -0.700829     -1.831046     -2.165057
  H       2.172870     -3.050186     -0.833896
  H       2.424893     -4.321593      1.276550
  H       0.680063     -4.152039      3.050442
  H      -1.321275     -2.712926      2.678088
  H      -1.557100     -1.426654      0.579645
  H      -1.132722      3.521143      0.122569
  H      -2.032280      4.720768     -0.835402
  H      -3.095792      3.284324      1.681236
  H      -4.021618      4.466846      0.711471
  H      -2.574443      4.983687      1.607663
>
51
-1950.38656291; 31P isotropic shielding: 238.350423 ppm
  C      -3.472249      2.200419     -3.296573
  C      -2.335784      2.798238     -2.481611
  O      -2.701055      2.857146     -1.051780
  P      -2.379757      1.636620     -0.058670
  O      -2.254533      0.300527     -0.714567
  C      -0.946525      2.113031      1.027375
  N       0.164186      1.171148      0.899598
  C       0.758731      1.127125     -0.338273
  O       0.393198      1.902317     -1.235110
  C       1.782471      0.061606     -0.576378
  C       3.076923      0.183592     -0.067172
  C       4.003435     -0.835462     -0.272076
  Cl      5.628066     -0.691172      0.405009
  C       3.647974     -1.977241     -0.995117
  C       2.364206     -2.089751     -1.518044
  C       1.398563     -1.077869     -1.328928
  N       0.134323     -1.195875     -1.872172
  C       0.546979      0.305489      2.043830
  C       0.493810     -1.190789      1.792541
  C       1.605914     -1.984749      2.105549
  C       1.577916     -3.364422      1.893680
  C       0.429956     -3.967607      1.369507
  C      -0.687991     -3.181916      1.067686
  C      -0.659485     -1.801408      1.279995
  O      -3.562088      1.781400      1.029063
  C      -4.956072      1.534410      0.637330
  C      -5.311363      0.059354      0.774964
  H      -4.402653      2.764986     -3.152698
  H      -3.213718      2.233353     -4.364175
  H      -3.639136      1.154181     -3.015631
  H      -2.144704      3.842693     -2.751110
  H      -1.406150      2.232858     -2.585944
  H      -1.296133      2.123184      2.062271
  H      -0.640822      3.126357      0.740682
  H       3.357016      1.066728      0.502469
  H       4.372771     -2.773638     -1.144146
  H       2.090532     -2.984120     -2.076623
  H      -0.160565     -2.135353     -2.108799
  H      -0.623596     -0.607124     -1.523382
  H      -0.140795      0.564778      2.857450
  H       1.554210      0.577439      2.385233
  H       2.512268     -1.515145      2.483908
  H       2.457444     -3.964175      2.120884
  H       0.407427     -5.042396      1.196101
  H      -1.586013     -3.644137      0.659900
  H      -1.519629     -1.197158      1.003129
  H      -5.548378      2.159493      1.314961
  H      -5.108869      1.896939     -0.387308
  H      -6.374754     -0.086636      0.539499
  H      -5.135161     -0.286743      1.800947
  H      -4.711444     -0.549725      0.090328
>
51
-1950.38660977; 31P isotropic shielding: 238.500190 ppm
  C      -5.982948      1.227491     -0.924592
  C      -5.017400      0.341103     -0.151716
  O      -3.773840      0.161725     -0.914041
  P      -2.428581      0.912913     -0.433236
  O      -1.936691      0.548548      0.925954
  C      -1.322015      0.416293     -1.841112
  N      -0.010986     -0.038683     -1.382883
  C       0.735787      0.893008     -0.702791
  O       0.339379      2.063534     -0.607684
  C       1.988096      0.418279     -0.028307
  C       3.180807      0.295738     -0.745887
  C       4.338036     -0.147640     -0.108506
  Cl      5.838047     -0.311239     -1.025487
  C       4.313510     -0.463745      1.253418
  C       3.129044     -0.331265      1.970317
  C       1.934876      0.108458      1.355307
  N       0.774553      0.239383      2.085290
  C       0.370071     -1.467490     -1.517531
  C       0.200553     -2.296327     -0.258280
  C       1.325419     -2.843350      0.372152
  C       1.192276     -3.577087      1.554404
  C      -0.072613     -3.771463      2.117626
  C      -1.203384     -3.239647      1.485844
  C      -1.066720     -2.510689      0.303316
  O      -2.840504      2.455430     -0.617043
  C      -2.187145      3.526862      0.157066
  C      -3.268149      4.421227      0.740871
  H      -6.193642      0.800273     -1.912839
  H      -6.931204      1.310824     -0.375668
  H      -5.565400      2.231244     -1.057660
  H      -5.419040     -0.669179     -0.009990
  H      -4.781268      0.756576      0.836230
  H      -1.226567      1.288279     -2.499811
  H      -1.813412     -0.392048     -2.387611
  H       3.204236      0.542681     -1.805030
  H       5.218280     -0.809515      1.747297
  H       3.114257     -0.582195      3.030454
  H       0.725351     -0.270725      2.957970
  H      -0.128005      0.364778      1.621932
  H       1.411505     -1.517505     -1.849156
  H      -0.245668     -1.872389     -2.329706
  H       2.313757     -2.674787     -0.051562
  H       2.077115     -3.987590      2.037901
  H      -0.179108     -4.338799      3.041055
  H      -2.191677     -3.389534      1.917044
  H      -1.953322     -2.097051     -0.171518
  H      -1.564240      3.074137      0.933621
  H      -1.535141      4.061410     -0.540972
  H      -2.801245      5.259282      1.276276
  H      -3.895353      3.868011      1.451348
  H      -3.910189      4.833553     -0.047779
>
51
-1950.38714663; 31P isotropic shielding: 240.629032 ppm
  C      -5.389800     -1.353333      0.205402
  C      -4.355648     -0.331117      0.643139
  O      -3.323903     -0.268529     -0.397700
  P      -2.167351      0.840449     -0.300282
  O      -1.523520      1.008118      1.034591
  C      -1.031927      0.266708     -1.653930
  N       0.284680     -0.073735     -1.124412
  C       1.069109      0.982172     -0.729136
  O       0.705703      2.152147     -0.918844
  C       2.358344      0.680975     -0.016656
  C       3.550675      0.580176     -0.739655
  C       4.761434      0.411570     -0.070400
  Cl      6.261453      0.282404     -0.991111
  C       4.792994      0.350593      1.325477
  C       3.605817      0.451311      2.046262
  C       2.362093      0.618768      1.399225
  N       1.182549      0.653960      2.125387
  C       0.631610     -1.501396     -0.953880
  C      -0.444580     -2.287411     -0.229706
  C      -1.260925     -3.182051     -0.934933
  C      -2.283328     -3.880935     -0.285913
  C      -2.499039     -3.686624      1.081427
  C      -1.684928     -2.797575      1.793106
  C      -0.661368     -2.104183      1.144170
  O      -2.922912      2.150554     -0.854499
  C      -2.338907      3.487862     -0.614885
  C      -2.869127      4.078877      0.682768
  H      -6.172786     -1.439103      0.970859
  H      -5.859441     -1.052444     -0.739035
  H      -4.924358     -2.336018      0.070382
  H      -3.868562     -0.617310      1.583061
  H      -4.799741      0.666550      0.760975
  H      -0.946120      1.077201     -2.384596
  H      -1.479498     -0.608642     -2.130376
  H       3.532033      0.645765     -1.824985
  H       5.740494      0.224854      1.843351
  H       3.634640      0.398233      3.134474
  H       1.262047      0.889080      3.107127
  H       0.313159      0.969723      1.686905
  H       1.578693     -1.537679     -0.408764
  H       0.803310     -1.942708     -1.947453
  H      -1.095181     -3.333448     -2.001875
  H      -2.908834     -4.573525     -0.846711
  H      -3.293603     -4.228950      1.591691
  H      -1.845221     -2.646298      2.859551
  H      -0.037825     -1.406004      1.698265
  H      -1.246502      3.404521     -0.611881
  H      -2.649848      4.075844     -1.485829
  H      -2.479044      5.098780      0.807301
  H      -2.546835      3.475756      1.538578
  H      -3.965577      4.128969      0.672075
