46
-1703.40784072; 31P isotropic shielding: 206.779230 ppm
  S      -1.062742     -0.542214      2.150388
  P      -1.205581      0.276487      0.376549
  C      -0.651291     -0.803936     -1.065615
  C       0.740871     -1.178264     -0.956746
  C       1.920586     -1.432287     -0.814567
  C       3.303988     -1.710072     -0.630212
  C       4.281195     -0.774776     -1.037382
  C       5.636426     -1.044514     -0.848105
  C       6.043331     -2.244947     -0.253066
  C       5.082481     -3.178096      0.155869
  C       3.724574     -2.917057     -0.028058
  C      -2.846842      0.875552     -0.181871
  C      -2.679220      2.182345     -0.548251
  C      -1.335410      2.726508     -0.420107
  C      -0.373377      1.878282      0.052869
  C       1.056309      2.123164      0.221157
  C       1.702533      3.145516     -0.510008
  C       3.070144      3.373415     -0.365931
  C       3.829840      2.583895      0.507437
  C       3.205740      1.563708      1.232270
  C       1.838019      1.332982      1.093247
  C      -4.046153      0.046241     -0.233316
  C      -4.024092     -1.292498      0.222141
  C      -5.162890     -2.096011      0.152510
  C      -6.355349     -1.588861     -0.371160
  C      -6.397545     -0.262238     -0.823466
  C      -5.263047      0.542399     -0.757086
  H      -0.856630     -0.233254     -1.983160
  H      -1.316235     -1.679370     -1.052899
  H       3.961891      0.159583     -1.491082
  H       6.379569     -0.314985     -1.166121
  H       7.102292     -2.452533     -0.109050
  H       5.393442     -4.112781      0.619805
  H       2.975258     -3.638411      0.290380
  H      -3.490746      2.808468     -0.915004
  H      -1.132331      3.763856     -0.681410
  H       1.131633      3.744372     -1.216998
  H       3.549099      4.161204     -0.945351
  H       4.899612      2.756460      0.612212
  H       3.788405      0.935802      1.903525
  H       1.362221      0.544703      1.668613
  H      -3.118867     -1.693416      0.670580
  H      -5.116996     -3.121844      0.514976
  H      -7.243344     -2.216068     -0.425774
  H      -7.321885      0.143395     -1.231556
  H      -5.317783      1.566594     -1.119578
>
46
-1703.40701441; 31P isotropic shielding: 221.258969 ppm
  S      -0.092152      0.036020      2.469778
  P      -0.240573      1.018214      0.781803
  C       1.176823      0.764497     -0.435674
  C       1.305525     -0.617783     -0.838871
  C       1.347157     -1.792265     -1.147739
  C       1.377029     -3.166693     -1.515265
  C       0.493762     -3.661148     -2.500783
  C       0.518609     -5.009501     -2.856441
  C       1.419398     -5.887706     -2.241649
  C       2.298374     -5.407977     -1.262578
  C       2.280132     -4.061416     -0.898746
  C      -1.736264      0.806284     -0.257579
  C      -2.237854      2.059333     -0.475115
  C      -1.507141      3.167340      0.121681
  C      -0.390479      2.845459      0.842521
  C       0.559605      3.721765      1.519208
  C       1.657422      3.189469      2.234387
  C       2.581111      4.025684      2.862795
  C       2.436758      5.414326      2.798100
  C       1.351463      5.960304      2.097794
  C       0.428420      5.129448      1.468121
  C      -2.215044     -0.470926     -0.778937
  C      -1.874061     -1.692092     -0.155646
  C      -2.323448     -2.906493     -0.671915
  C      -3.119742     -2.937339     -1.821132
  C      -3.462387     -1.735547     -2.455035
  C      -3.014712     -0.518680     -1.943426
  H       2.077726      1.128555      0.078649
  H       0.980602      1.430129     -1.289041
  H      -0.209299     -2.978534     -2.970330
  H      -0.167798     -5.377833     -3.617192
  H       1.437070     -6.939094     -2.523593
  H       3.000574     -6.086591     -0.780906
  H       2.960074     -3.685827     -0.137245
  H      -3.143413      2.241745     -1.051532
  H      -1.857609      4.189300     -0.012281
  H       1.765427      2.112492      2.332202
  H       3.414271      3.587149      3.409896
  H       3.157764      6.066058      3.288303
  H       1.228014      7.040711      2.043432
  H      -0.402961      5.575566      0.926668
  H      -1.264518     -1.680618      0.742763
  H      -2.040850     -3.834341     -0.178289
  H      -3.462407     -3.887959     -2.226233
  H      -4.070525     -1.749422     -3.358174
  H      -3.260672      0.404440     -2.464555
>
46
-1703.40692862; 31P isotropic shielding: 221.111043 ppm
  S      -1.045494     -0.528999      2.146799
  P      -1.192937      0.261760      0.360947
  C      -0.635764     -0.838756     -1.065306
  C       0.759159     -1.201952     -0.955068
  C       1.938083     -1.453536     -0.802006
  C       3.323497     -1.727906     -0.628381
  C       3.752377     -2.933129     -0.028592
  C       5.112495     -3.191404      0.142505
  C       6.067503     -2.256788     -0.276628
  C       5.652468     -1.057772     -0.869005
  C       4.295000     -0.790863     -1.045555
  C      -2.837102      0.845897     -0.204575
  C      -2.673953      2.146449     -0.594657
  C      -1.331828      2.697132     -0.477757
  C      -0.366547      1.860671      0.009433
  C       1.062360      2.113197      0.172420
  C       1.705644      3.122556     -0.579092
  C       3.072528      3.357494     -0.439364
  C       3.834456      2.587935      0.449809
  C       3.213296      1.580609      1.194838
  C       1.846292      1.343055      1.060373
  C      -4.034281      0.012642     -0.237086
  C      -4.004246     -1.321160      0.232219
  C      -5.141195     -2.128688      0.181143
  C      -6.339790     -1.630506     -0.337053
  C      -6.390063     -0.308678     -0.802468
  C      -5.257438      0.499893     -0.754600
  H      -0.848577     -0.284502     -1.991181
  H      -1.294308     -1.718561     -1.036017
  H       3.007664     -3.655778      0.297685
  H       5.429788     -4.124954      0.604440
  H       7.128223     -2.462127     -0.142632
  H       6.391155     -0.327244     -1.195058
  H       3.969351      0.142105     -1.497550
  H      -3.487774      2.763156     -0.972192
  H      -1.132288      3.730280     -0.757844
  H       1.133054      3.705241     -1.298151
  H       3.549211      4.135021     -1.034320
  H       4.903699      2.765780      0.551191
  H       3.797789      0.967966      1.878533
  H       1.372620      0.565064      1.651305
  H      -3.094164     -1.714881      0.677089
  H      -5.088972     -3.150567      0.553802
  H      -7.226422     -2.260743     -0.377077
  H      -7.319436      0.090224     -1.205746
  H      -5.318933      1.520566     -1.125870
>
46
-1703.40698481; 31P isotropic shielding: 221.269817 ppm
  S      -0.698692     -0.011285      2.297545
  P      -0.206187      0.994062      0.690388
  C       1.435609      0.511039     -0.102497
  C       1.452307     -0.877914     -0.502870
  C       1.379812     -2.047121     -0.825949
  C       1.293696     -3.415037     -1.208377
  C       1.785625     -4.433588     -0.361571
  C       1.692146     -5.772827     -0.740431
  C       1.107075     -6.121980     -1.964036
  C       0.613281     -5.120221     -2.808568
  C       0.702754     -3.778265     -2.439037
  C      -1.364314      1.045974     -0.730402
  C      -1.579127      2.367454     -1.007436
  C      -0.876979      3.331311     -0.173450
  C      -0.071624      2.819622      0.806302
  C       0.781510      3.517173      1.762305
  C       0.901065      4.926746      1.751116
  C       1.735082      5.584003      2.651808
  C       2.478462      4.856732      3.592534
  C       2.370847      3.463519      3.621194
  C       1.535119      2.801089      2.721126
  C      -1.869925     -0.127983     -1.436244
  C      -1.910531     -1.396480     -0.815489
  C      -2.374295     -2.514691     -1.506899
  C      -2.807427     -2.399917     -2.831691
  C      -2.769846     -1.149805     -3.463633
  C      -2.305494     -0.029125     -2.777287
  H       2.205815      0.732115      0.650195
  H       1.585336      1.192318     -0.952717
  H       2.237035     -4.158658      0.589141
  H       2.076995     -6.547742     -0.079372
  H       1.037109     -7.168104     -2.257217
  H       0.156226     -5.387164     -3.760144
  H       0.312893     -2.998956     -3.088263
  H      -2.246056      2.704768     -1.799271
  H      -1.008431      4.398827     -0.341861
  H       0.338253      5.511282      1.026567
  H       1.809815      6.669840      2.622323
  H       3.130541      5.372911      4.294869
  H       2.935564      2.885991      4.351493
  H       1.434788      1.720891      2.787059
  H      -1.585945     -1.496406      0.215798
  H      -2.387846     -3.482758     -1.009827
  H      -3.161662     -3.276606     -3.371259
  H      -3.092781     -1.052227     -4.498957
  H      -2.250195      0.928594     -3.291108
>
46
-1703.40690899; 31P isotropic shielding: 221.096707 ppm
  S      -0.526689     -0.011711      2.396266
  P      -0.236784      0.995096      0.741009
  C       1.359323      0.603795     -0.183452
  C       1.421092     -0.775726     -0.610946
  C       1.401448     -1.942035     -0.951426
  C       1.366908     -3.302434     -1.367610
  C       2.054673     -4.299773     -0.640628
  C       2.011925     -5.631026     -1.055180
  C       1.283998     -5.993212     -2.195441
  C       0.596015     -5.012689     -2.920745
  C       0.633915     -3.678770     -2.515300
  C      -1.518822      0.954421     -0.569608
  C      -1.836714      2.256608     -0.840074
  C      -1.120812      3.273863     -0.085186
  C      -0.201889      2.827069      0.823717
  C       0.695366      3.589299      1.685509
  C       1.551239      2.935960      2.602448
  C       2.428165      3.660837      3.410464
  C       2.476283      5.055319      3.329326
  C       1.631981      5.720652      2.428930
  C       0.756876      5.001103      1.619312
  C      -2.026341     -0.259418     -1.202872
  C      -1.906840     -1.519518     -0.574809
  C      -2.379709     -2.674560     -1.195917
  C      -2.980831     -2.606328     -2.456575
  C      -3.102757     -1.365243     -3.096034
  C      -2.630111     -0.207883     -2.480053
  H       2.172171      0.855564      0.512772
  H       1.410044      1.303038     -1.031093
  H       2.617505     -4.014854      0.245560
  H       2.548212     -6.389612     -0.487276
  H       1.253712     -7.033016     -2.516563
  H       0.027375     -5.289541     -3.807084
  H       0.094951     -2.916352     -3.071122
  H      -2.593376      2.541725     -1.569230
  H      -1.330411      4.328871     -0.253257
  H       1.500100      1.855626      2.710517
  H       3.072771      3.131224      4.110366
  H       3.161024      5.620105      3.959463
  H       1.660787      6.806777      2.358346
  H       0.117363      5.537708      0.921823
  H      -1.452479     -1.584556      0.408989
  H      -2.268620     -3.634405     -0.695180
  H      -3.342337     -3.511131     -2.942204
  H      -3.557790     -1.302924     -4.083330
  H      -2.702710      0.744059     -3.002223
>
46
-1703.40687439; 31P isotropic shielding: 221.158003 ppm
  S      -0.651749      0.176352      2.321041
  P      -0.248847      1.054553      0.617196
  C       1.382701      0.562691     -0.190573
  C       1.438781     -0.851369     -0.485511
  C       1.407695     -2.045496     -0.708659
  C       1.358419     -3.441566     -0.980293
  C       1.937435     -4.371305     -0.087583
  C       1.879883     -5.738695     -0.357232
  C       1.244974     -6.204492     -1.515278
  C       0.665330     -5.291421     -2.404659
  C       0.718579     -3.922119     -2.144548
  C      -1.458067      0.947543     -0.757633
  C      -1.729143      2.233289     -1.135658
  C      -1.031196      3.286723     -0.414132
  C      -0.173443      2.886668      0.572983
  C       0.692853      3.689556      1.429563
  C       0.784997      5.092847      1.275831
  C       1.630992      5.849680      2.082391
  C       2.414752      5.231408      3.067129
  C       2.335671      3.846190      3.235358
  C       1.487661      3.084207      2.430599
  C      -1.954000     -0.298307     -1.335350
  C      -2.473983     -0.327248     -2.649579
  C      -2.931528     -1.517433     -3.212073
  C      -2.878093     -2.711594     -2.480452
  C      -2.360963     -2.700168     -1.181354
  C      -1.903611     -1.511900     -0.613573
  H       2.167206      0.866479      0.517282
  H       1.481954      1.181581     -1.094327
  H       2.427787     -4.005657      0.811913
  H       2.331582     -6.444457      0.338074
  H       1.202761     -7.272304     -1.723191
  H       0.169676     -5.649109     -3.305783
  H       0.263486     -3.211396     -2.829042
  H      -2.436616      2.481385     -1.925254
  H      -1.205903      4.331254     -0.666419
  H       0.192474      5.592968      0.512812
  H       1.684165      6.928302      1.943674
  H       3.076628      5.825256      3.694974
  H       2.933078      3.353107      4.000752
  H       1.410260      2.014229      2.605267
  H      -2.491531      0.585841     -3.241344
  H      -3.320777     -1.518114     -4.229036
  H      -3.228004     -3.642184     -2.924074
  H      -2.303668     -3.623146     -0.607663
  H      -1.514259     -1.513527      0.399836
>
46
-1703.40687212; 31P isotropic shielding: 220.881003 ppm
  S      -1.036579     -0.505655      2.137415
  P      -1.175736      0.235553      0.329727
  C      -0.611261     -0.903122     -1.063110
  C       0.783484     -1.262112     -0.937547
  C       1.961219     -1.511691     -0.772573
  C       3.344602     -1.788242     -0.586336
  C       4.322422     -0.862382     -1.013443
  C       5.677755     -1.132260     -0.825020
  C       6.084243     -2.323184     -0.210857
  C       5.122845     -3.246689      0.218265
  C       3.764829     -2.985330      0.035587
  C      -2.817579      0.802655     -0.259445
  C      -2.653773      2.092750     -0.682694
  C      -1.312782      2.647625     -0.573810
  C      -0.348962      1.825234     -0.060353
  C       1.078738      2.083848      0.103761
  C       1.859327      1.336018      1.013521
  C       3.225361      1.578518      1.149133
  C       3.848956      2.568725      0.383496
  C       3.090380      3.316180     -0.527172
  C       1.724503      3.076213     -0.668011
  C      -4.013505     -0.032861     -0.276328
  C      -3.984913     -1.353019      0.230169
  C      -5.120619     -2.163111      0.194342
  C      -6.316446     -1.681165     -0.345169
  C      -6.365249     -0.372926     -0.847660
  C      -5.233839      0.438117     -0.815177
  H      -0.821568     -0.375344     -2.004904
  H      -1.268772     -1.782716     -1.011998
  H       4.003437      0.064323     -1.482701
  H       6.421363     -0.410369     -1.159025
  H       7.143288     -2.530983     -0.067743
  H       5.433458     -4.173925      0.697142
  H       3.015103     -3.699254      0.369490
  H      -3.466284      2.698537     -1.080220
  H      -1.112808      3.673289     -0.879880
  H       1.383811      0.571594      1.620441
  H       3.807153      0.983156      1.850172
  H       4.917459      2.750413      0.485934
  H       3.568965      4.080180     -1.137912
  H       1.154734      3.641495     -1.403017
  H      -3.077233     -1.733026      0.691581
  H      -5.069721     -3.174127      0.595705
  H      -7.202053     -2.313476     -0.373326
  H      -7.292397      0.013277     -1.268047
  H      -5.294056      1.447868     -1.215406
>
46
-1703.40698385; 31P isotropic shielding: 221.231423 ppm
  S      -1.047253     -0.182736      2.178111
  P      -1.166366      0.263964      0.274879
  C      -0.595606     -1.082485     -0.915609
  C       0.795244     -1.425892     -0.722277
  C       1.970065     -1.653204     -0.510754
  C       3.350737     -1.906405     -0.276997
  C       4.335662     -1.062007     -0.836479
  C       5.688686     -1.307395     -0.603417
  C       6.085710     -2.392799      0.187190
  C       5.117283     -3.234601      0.748224
  C       3.761450     -2.996717      0.522187
  C      -2.799737      0.736830     -0.413045
  C      -2.625860      1.944931     -1.029791
  C      -1.283243      2.505441     -0.995168
  C      -0.328045      1.769486     -0.350845
  C       1.099540      2.045862     -0.217039
  C       1.872118      1.444248      0.801562
  C       3.238019      1.702210      0.907112
  C       3.869372      2.561783      0.002491
  C       3.118908      3.162283     -1.017115
  C       1.753246      2.906391     -1.128029
  C      -3.998246     -0.089255     -0.313805
  C      -5.208993      0.291432     -0.938647
  C      -6.342511     -0.513303     -0.858673
  C      -6.304971     -1.725206     -0.154173
  C      -5.118590     -2.116606      0.472444
  C      -3.980839     -1.312213      0.396166
  H      -0.794126     -0.708062     -1.930614
  H      -1.259475     -1.939893     -0.734398
  H       4.023404     -0.216141     -1.442831
  H       6.437783     -0.648951     -1.040343
  H       7.142958     -2.582228      0.364918
  H       5.420631     -4.079653      1.364234
  H       3.006144     -3.647139      0.957782
  H      -3.431347      2.484655     -1.524945
  H      -1.075901      3.470578     -1.454636
  H       1.391256      0.782724      1.515800
  H       3.813819      1.220820      1.695245
  H       4.937758      2.754852      0.083109
  H       3.603772      3.822351     -1.734692
  H       1.188916      3.351984     -1.944840
  H      -5.259502      1.224366     -1.495845
  H      -7.262205     -0.198026     -1.348837
  H      -7.192003     -2.353344     -0.094581
  H      -5.076614     -3.051349      1.029483
  H      -3.080647     -1.615083      0.924491
>
46
-1703.40690555; 31P isotropic shielding: 221.212545 ppm
  S      -1.026819     -0.227969      2.165963
  P      -1.161549      0.252004      0.271858
  C      -0.585578     -1.066363     -0.946983
  C       0.807612     -1.405317     -0.762838
  C       1.983054     -1.630807     -0.552861
  C       3.361505     -1.889854     -0.312500
  C       4.353000     -1.045375     -0.860035
  C       5.703712     -1.297237     -0.620079
  C       6.091665     -2.389346      0.165732
  C       5.116596     -3.231345      0.714916
  C       3.763106     -2.987119      0.481896
  C      -2.803441      0.723824     -0.396184
  C      -2.643821      1.944843     -0.991112
  C      -1.305764      2.515974     -0.955173
  C      -0.340024      1.776344     -0.331112
  C       1.086389      2.060712     -0.203038
  C       1.727571      2.940650     -1.104486
  C       3.092522      3.202798     -1.000346
  C       3.854964      2.589530      0.002727
  C       3.236015      1.711317      0.897949
  C       1.870747      1.447076      0.799207
  C      -3.994775     -0.113034     -0.302947
  C      -5.214847      0.272121     -0.906500
  C      -6.341571     -0.542670     -0.832395
  C      -6.287845     -1.769332     -0.155017
  C      -5.092086     -2.165361      0.450614
  C      -3.961102     -1.351004      0.379999
  H      -0.788706     -0.672542     -1.953696
  H      -1.243727     -1.931434     -0.781979
  H       4.047751     -0.194467     -1.462957
  H       6.457871     -0.638587     -1.047917
  H       7.147076     -2.583970      0.348742
  H       5.412987     -4.081636      1.327112
  H       3.002610     -3.637580      0.908322
  H      -3.457255      2.486855     -1.470559
  H      -1.109483      3.491041     -1.398301
  H       1.154102      3.396277     -1.909302
  H       3.567445      3.877933     -1.710542
  H       4.922816      2.787666      0.078090
  H       3.821171      1.220245      1.673111
  H       1.399758      0.771025      1.506361
  H      -5.278374      1.216968     -1.441906
  H      -7.268713     -0.223618     -1.305817
  H      -7.169645     -2.405202     -0.099834
  H      -5.037595     -3.111557      0.986852
  H      -3.053428     -1.658672      0.892464
>
46
-1703.40688230; 31P isotropic shielding: 221.043142 ppm
  S      -1.005261     -0.372087      2.159415
  P      -1.157361      0.231208      0.302258
  C      -0.591669     -1.004820     -1.004698
  C       0.803498     -1.353884     -0.858066
  C       1.981194     -1.597319     -0.683684
  C       3.364867     -1.868012     -0.489870
  C       4.343287     -0.963613     -0.959700
  C       5.698742     -1.229219     -0.765630
  C       6.104676     -2.394615     -0.103947
  C       5.142739     -3.296663      0.367405
  C       3.784676     -3.039185      0.179880
  C      -2.805810      0.739996     -0.320670
  C      -2.654596      1.997733     -0.835897
  C      -1.317985      2.569981     -0.772902
  C      -0.344991      1.794447     -0.206290
  C       1.080592      2.077059     -0.065139
  C       1.711708      3.029899     -0.896804
  C       3.075287      3.292779     -0.777427
  C       3.846523      2.608013      0.171337
  C       3.237680      1.657402      0.996698
  C       1.873893      1.392006      0.882415
  C      -3.993632     -0.106010     -0.275072
  C      -3.953631     -1.382485      0.332468
  C      -5.081365     -2.204044      0.356588
  C      -6.280041     -1.777253     -0.221686
  C      -6.339980     -0.512581     -0.824465
  C      -5.216489      0.309579     -0.852275
  H      -0.806006     -0.547907     -1.981960
  H      -1.247770     -1.879142     -0.887274
  H       4.024551     -0.056958     -1.466648
  H       6.443046     -0.524318     -1.132722
  H       7.163775     -2.599320      0.043132
  H       5.452968     -4.204083      0.883083
  H       3.034493     -3.736507      0.546211
  H      -3.473373      2.567000     -1.272694
  H      -1.128782      3.572917     -1.152245
  H       1.131946      3.545213     -1.660088
  H       3.542345      4.025323     -1.433884
  H       4.913182      2.807906      0.258096
  H       3.829204      1.110981      1.728773
  H       1.410649      0.659543      1.536360
  H      -3.043705     -1.716373      0.824157
  H      -5.021975     -3.180435      0.835078
  H      -7.159288     -2.418733     -0.203074
  H      -7.269308     -0.169546     -1.276301
  H      -5.284706      1.284127     -1.330842
>
46
-1703.40687360; 31P isotropic shielding: 220.970185 ppm
  S      -1.075083      0.230118      2.136486
  P      -0.204566      1.043196      0.581597
  C       1.495602      0.354589      0.143466
  C       1.450284     -1.057078     -0.164187
  C       1.332423     -2.239247     -0.419863
  C       1.190693     -3.618840     -0.738505
  C       0.747191     -4.013276     -2.020632
  C       0.601895     -5.365294     -2.331043
  C       0.894436     -6.346531     -1.375963
  C       1.332866     -5.966333     -0.101434
  C       1.479698     -4.616615      0.219178
  C      -1.084210      1.073301     -1.027617
  C      -1.107802      2.379554     -1.431145
  C      -0.465750      3.345883     -0.553036
  C       0.097052      2.852343      0.591403
  C       0.841416      3.551717      1.633299
  C       1.134752      4.931702      1.527866
  C       1.864179      5.588526      2.515473
  C       2.327313      4.889930      3.639709
  C       2.046278      3.526310      3.762051
  C       1.313651      2.864752      2.775699
  C      -1.589197     -0.106266     -1.724234
  C      -1.816154     -0.077803     -3.119292
  C      -2.282373     -1.205807     -3.791947
  C      -2.530236     -2.394273     -3.091835
  C      -2.304840     -2.439949     -1.712506
  C      -1.840037     -1.313763     -1.034783
  H       2.133153      0.565869      1.013809
  H       1.865514      0.952952     -0.702021
  H       0.513780     -3.248918     -2.756932
  H       0.258957     -5.655421     -3.322898
  H       0.781878     -7.400912     -1.622929
  H       1.561184     -6.725313      0.645185
  H       1.817506     -4.317933      1.209111
  H      -1.587452      2.705804     -2.352508
  H      -0.453487      4.401795     -0.817686
  H       0.792698      5.492038      0.660409
  H       2.077279      6.651088      2.410128
  H       2.899194      5.405354      4.409226
  H       2.393977      2.972022      4.632545
  H       1.070750      1.813948      2.910468
  H      -1.597970      0.828003     -3.681467
  H      -2.442892     -1.163553     -4.868097
  H      -2.886758     -3.277226     -3.619580
  H      -2.482655     -3.360404     -1.159780
  H      -1.679635     -1.358538      0.038012
>
46
-1703.40684636; 31P isotropic shielding: 220.620195 ppm
  S      -1.078158     -0.621693      2.150115
  P      -1.225818      0.269906      0.412385
  C      -0.668087     -0.746196     -1.075369
  C       0.724878     -1.121679     -0.983231
  C       1.900744     -1.391297     -0.837358
  C       3.283216     -1.684616     -0.671479
  C       4.263644     -0.735772     -1.038244
  C       5.618326     -1.021176     -0.869142
  C       6.021732     -2.250688     -0.334032
  C       5.057858     -3.197238      0.034999
  C       3.700469     -2.920784     -0.129211
  C      -2.870096      0.883600     -0.120401
  C      -2.708963      2.205449     -0.431671
  C      -1.368144      2.750419     -0.280844
  C      -0.401425      1.887813      0.155732
  C       1.026921      2.132695      0.333976
  C       1.815797      1.303421      1.162318
  C       3.182531      1.535041      1.309776
  C       3.798638      2.594908      0.636870
  C       3.031755      3.424074     -0.192466
  C       1.665218      3.195650     -0.344652
  C      -4.064739      0.050740     -0.207722
  C      -4.035611     -1.306064      0.190368
  C      -5.169869     -2.112143      0.085281
  C      -6.364729     -1.589783     -0.417582
  C      -6.413976     -0.245273     -0.812899
  C      -5.284036      0.562054     -0.711031
  H      -0.875758     -0.136440     -1.966912
  H      -1.330317     -1.623373     -1.101574
  H       3.946989      0.220654     -1.445471
  H       6.363767     -0.281137     -1.156002
  H       7.080266     -2.470437     -0.205701
  H       5.366059     -4.154573      0.452266
  H       2.948940     -3.652760      0.158370
  H      -3.523611      2.842317     -0.772110
  H      -1.170579      3.798776     -0.498742
  H       1.346229      0.484106      1.698099
  H       3.770671      0.877241      1.946776
  H       4.867611      2.768513      0.748098
  H       3.504367      4.243919     -0.731187
  H       1.088831      3.827100     -1.017979
  H      -3.128411     -1.720699      0.622041
  H      -5.118564     -3.152281      0.403616
  H      -7.249139     -2.219047     -0.499844
  H      -7.340270      0.172316     -1.204176
  H      -5.344255      1.600436     -1.029655
>
46
-1703.40696424; 31P isotropic shielding: 221.108553 ppm
  S      -2.000211      1.243837      2.403929
  P      -0.533503      0.921462      1.140291
  C       0.768900     -0.313702      1.766762
  C       1.186056     -1.219910      0.719532
  C       1.290857     -1.942822     -0.251625
  C       1.246720     -2.736800     -1.428920
  C       1.621161     -2.187961     -2.675133
  C       1.465708     -2.928172     -3.846339
  C       0.941936     -4.225805     -3.797007
  C       0.581757     -4.783237     -2.564374
  C       0.732231     -4.050256     -1.388516
  C      -0.969554      0.404403     -0.568579
  C      -0.447976      1.349469     -1.404239
  C       0.312429      2.424158     -0.781437
  C       0.425985      2.382323      0.578758
  C       1.137408      3.280826      1.480387
  C       1.905703      4.361947      0.988956
  C       2.600671      5.201646      1.855498
  C       2.554023      4.989364      3.240736
  C       1.798040      3.927650      3.745646
  C       1.099473      3.084808      2.880496
  C      -1.665758     -0.831369     -0.901173
  C      -2.210897     -1.653114      0.109495
  C      -2.796120     -2.879702     -0.202047
  C      -2.855406     -3.318098     -1.528721
  C      -2.327838     -2.511433     -2.544669
  C      -1.741870     -1.287256     -2.236593
  H       0.283552     -0.843271      2.597938
  H       1.591387      0.282990      2.183436
  H       2.014167     -1.174186     -2.707400
  H       1.749984     -2.490999     -4.802206
  H       0.817438     -4.799792     -4.713506
  H       0.173113     -5.791425     -2.521303
  H       0.432422     -4.471340     -0.432081
  H      -0.575409      1.322787     -2.484717
  H       0.752740      3.209519     -1.393466
  H       1.961215      4.541710     -0.082463
  H       3.184868      6.027005      1.451827
  H       3.099681      5.646282      3.915694
  H       1.746404      3.754528      4.819494
  H       0.486532      2.289952      3.297467
  H      -2.188054     -1.318432      1.143777
  H      -3.205672     -3.496864      0.596255
  H      -3.300888     -4.281745     -1.769351
  H      -2.353353     -2.850381     -3.578312
  H      -1.306154     -0.693096     -3.035699
>
46
-1703.40518054; 31P isotropic shielding: 206.817278 ppm
  S      -2.280541      1.542783      2.401716
  P      -1.209499      0.613316      1.044208
  C      -0.537291     -1.057701      1.598536
  C       0.495098     -1.504791      0.689319
  C       1.368600     -1.620691     -0.147632
  C       2.401536     -1.661716     -1.122138
  C       3.719541     -1.285853     -0.776969
  C       4.721170     -1.262130     -1.746905
  C       4.431756     -1.610441     -3.072278
  C       3.129678     -1.988329     -3.423144
  C       2.120761     -2.015801     -2.460352
  C      -1.981962      0.307326     -0.592146
  C      -1.179879      0.908392     -1.519697
  C       0.038039      1.532693     -1.020568
  C       0.247654      1.461231      0.324812
  C       1.437507      1.809711      1.090894
  C       2.692278      1.939718      0.453885
  C       3.843028      2.210682      1.191055
  C       3.776411      2.349588      2.584015
  C       2.542419      2.218126      3.229781
  C       1.386148      1.951891      2.495687
  C      -3.220448     -0.439105     -0.781415
  C      -3.709433     -0.735047     -2.075136
  C      -4.877468     -1.472771     -2.250233
  C      -5.594723     -1.941315     -1.140376
  C      -5.127901     -1.657265      0.146282
  C      -3.958198     -0.918092      0.325685
  H      -1.396704     -1.738684      1.659577
  H      -0.157933     -0.901801      2.618128
  H       3.935857     -1.004417      0.250541
  H       5.732283     -0.969010     -1.468888
  H       5.215883     -1.587874     -3.826845
  H       2.899676     -2.260269     -4.452005
  H       1.106317     -2.303351     -2.728049
  H      -1.410950      0.931879     -2.583117
  H       0.738544      2.005004     -1.706796
  H       2.768171      1.788157     -0.620076
  H       4.800875      2.297776      0.680529
  H       4.678565      2.551294      3.159021
  H       2.478285      2.324075      4.311735
  H       0.428365      1.873931      3.005492
  H      -3.162673     -0.390903     -2.950337
  H      -5.231991     -1.688501     -3.256850
  H      -6.506041     -2.520054     -1.279855
  H      -5.677692     -2.009204      1.017883
  H      -3.633918     -0.676055      1.334527
>
46
-1703.40807979; 31P isotropic shielding: 206.591236 ppm
  S      -2.249892      1.553520      2.424139
  P      -0.899822      0.836690      1.192427
  C       0.112143     -0.588298      1.895731
  C       0.824929     -1.263824      0.833667
  C       1.246374     -1.713942     -0.213432
  C       1.653937     -2.209929     -1.480768
  C       0.957207     -3.283452     -2.080632
  C       1.313615     -3.730160     -3.352627
  C       2.365476     -3.120480     -4.048141
  C       3.064695     -2.059106     -3.460138
  C       2.716233     -1.604951     -2.188150
  C      -1.430757      0.233247     -0.455094
  C      -0.750365      0.966492     -1.381791
  C       0.205231      1.936441     -0.864369
  C       0.328777      2.007287      0.493870
  C       1.225671      2.825894      1.301422
  C       2.228703      3.624889      0.704879
  C       3.101036      4.381957      1.482786
  C       3.002925      4.364809      2.881324
  C       2.016541      3.582549      3.488975
  C       1.140379      2.823119      2.712856
  C      -2.293237     -0.924812     -0.650298
  C      -3.138235     -1.389582      0.382567
  C      -3.910336     -2.539055      0.211687
  C      -3.861037     -3.253015     -0.990372
  C      -3.027420     -2.804463     -2.023899
  C      -2.250625     -1.660267     -1.856436
  H      -0.610885     -1.246815      2.397135
  H       0.768309     -0.160784      2.665608
  H       0.133734     -3.744608     -1.541122
  H       0.767486     -4.556540     -3.804718
  H       2.638780     -3.470675     -5.041823
  H       3.883519     -1.582626     -3.996691
  H       3.252398     -0.777473     -1.728565
  H      -0.880068      0.836559     -2.454615
  H       0.780209      2.557539     -1.548794
  H       2.330083      3.644782     -0.378025
  H       3.865657      4.987780      0.999221
  H       3.688088      4.955019      3.487191
  H       1.924296      3.563963      4.573856
  H       0.356284      2.252039      3.203407
  H      -3.202263     -0.829409      1.312841
  H      -4.554445     -2.877710      1.021861
  H      -4.459760     -4.152984     -1.119802
  H      -2.971068     -3.360636     -2.958317
  H      -1.574201     -1.351780     -2.649730
>
46
-1703.40617422; 31P isotropic shielding: 206.798566 ppm
  S      -2.250248      1.237739      2.602376
  P      -1.199007      0.483269      1.126022
  C      -0.513273     -1.238084      1.464773
  C       0.504974     -1.568033      0.491783
  C       1.366924     -1.586363     -0.364594
  C       2.389525     -1.508449     -1.347880
  C       3.704831     -1.148959     -0.975772
  C       4.696846     -1.008136     -1.945524
  C       4.400518     -1.222422     -3.297581
  C       3.101414     -1.583891     -3.675652
  C       2.101942     -1.727367     -2.713232
  C      -1.995963      0.372181     -0.523310
  C      -1.210433      1.084441     -1.383898
  C       0.012551      1.651675     -0.831605
  C       0.243834      1.419562      0.491867
  C       1.443606      1.682255      1.276255
  C       2.687082      1.899238      0.640877
  C       3.847325      2.090816      1.387942
  C       3.801998      2.061362      2.788381
  C       2.579563      1.841236      3.432106
  C       1.413853      1.653967      2.688745
  C      -3.233198     -0.354841     -0.783404
  C      -3.956319     -0.960214      0.270199
  C      -5.124191     -1.681754      0.020672
  C      -5.603623     -1.821878     -1.284914
  C      -4.900836     -1.226852     -2.342204
  C      -3.734559     -0.506384     -2.097190
  H      -1.368799     -1.926692      1.458786
  H      -0.116122     -1.202947      2.488926
  H       3.925825     -0.972188      0.073829
  H       5.705722     -0.728398     -1.646386
  H       5.177159     -1.109148     -4.051730
  H       2.866279     -1.752052     -4.725331
  H       1.089854     -2.002779     -3.001782
  H      -1.458066      1.233114     -2.433346
  H       0.699512      2.208708     -1.466080
  H       2.746915      1.877085     -0.444520
  H       4.796205      2.247324      0.877226
  H       4.711618      2.201697      3.369805
  H       2.532060      1.815852      4.519778
  H       0.464909      1.506655      3.199673
  H      -3.621582     -0.831314      1.296313
  H      -5.662414     -2.133696      0.852480
  H      -6.513200     -2.387289     -1.479488
  H      -5.264953     -1.330538     -3.363072
  H      -3.198654     -0.063407     -2.933819
>
46
-1703.40612491; 31P isotropic shielding: 206.672737 ppm
  S      -2.221100      1.623892      2.392525
  P      -0.878143      0.872870      1.173527
  C       0.147097     -0.523039      1.916178
  C       0.845605     -1.237551      0.870298
  C       1.253300     -1.725450     -0.165250
  C       1.636407     -2.264640     -1.422556
  C       2.678687     -1.678893     -2.174548
  C       3.001776     -2.175801     -3.437238
  C       2.296790     -3.261608     -3.971260
  C       1.264815     -3.852487     -3.231114
  C       0.933856     -3.363035     -1.968101
  C      -1.419681      0.212298     -0.448838
  C      -0.751189      0.918261     -1.404870
  C       0.202751      1.910314     -0.927888
  C       0.337043      2.027069      0.426181
  C       1.233570      2.879978      1.197982
  C       1.164478      2.918956      2.609741
  C       2.039381      3.712677      3.352277
  C       3.008313      4.488646      2.709653
  C       3.090306      4.464470      1.310136
  C       2.219193      3.673140      0.565751
  C      -2.278447     -0.955148     -0.598813
  C      -3.104681     -1.395520      0.459571
  C      -3.873269     -2.552915      0.332447
  C      -3.839165     -3.299123     -0.850425
  C      -3.024298     -2.875012     -1.908860
  C      -2.250902     -1.723079     -1.784949
  H      -0.567867     -1.162544      2.452440
  H       0.813354     -0.065172      2.659338
  H       3.219061     -0.832320     -1.756630
  H       3.805173     -1.713816     -4.008660
  H       2.550499     -3.645432     -4.957700
  H       0.714458     -4.697602     -3.641506
  H       0.125387     -3.809100     -1.394344
  H      -0.888830      0.752040     -2.471670
  H       0.768054      2.512047     -1.637212
  H       0.393476      2.353312      3.126573
  H       1.959747      3.725750      4.438237
  H       3.692486      5.105741      3.289281
  H       3.841367      5.065098      0.799597
  H       2.307741      3.661628     -0.518378
  H      -3.157355     -0.810202      1.374943
  H      -4.502660     -2.872656      1.161644
  H      -4.435299     -4.205041     -0.945890
  H      -2.979778     -3.456032     -2.828667
  H      -1.588708     -1.433369     -2.597052
>
46
-1703.40780683; 31P isotropic shielding: 206.737665 ppm
  S      -2.307628      1.505753      2.368141
  P      -1.234736      0.581331      1.008691
  C      -0.602651     -1.113062      1.539852
  C       0.459994     -1.543812      0.657717
  C       1.371083     -1.640610     -0.140590
  C       2.442569     -1.635799     -1.073317
  C       2.204831     -1.857791     -2.447870
  C       3.251903     -1.778420     -3.366023
  C       4.550057     -1.479584     -2.933784
  C       4.796808     -1.263186     -1.572163
  C       3.756805     -1.339706     -0.646561
  C      -1.990561      0.322279     -0.643754
  C      -1.166551      0.929184     -1.548051
  C       0.055209      1.522033     -1.020554
  C       0.246661      1.418300      0.325405
  C       1.432429      1.730515      1.112793
  C       1.367687      1.836181      2.520290
  C       2.519304      2.066537      3.273416
  C       3.762062      2.197761      2.644419
  C       3.841893      2.094752      1.249097
  C       2.695776      1.859628      0.492928
  C      -3.240095     -0.396548     -0.864671
  C      -3.716182     -0.659074     -2.170375
  C      -4.895568     -1.370487     -2.375429
  C      -5.637445     -1.845449     -1.284580
  C      -5.183488     -1.594540      0.013468
  C      -4.002498     -0.881629      0.222908
  H      -1.470390     -1.786191      1.548429
  H      -0.260458     -0.991901      2.577132
  H       1.193318     -2.083705     -2.778340
  H       3.054896     -1.947623     -4.423366
  H       5.364159     -1.416114     -3.653483
  H       5.804405     -1.031025     -1.231046
  H       3.940004     -1.157994      0.409432
  H      -1.384411      0.980101     -2.613318
  H       0.771874      1.997504     -1.687610
  H       0.403556      1.758391      3.018035
  H       2.444890      2.144344      4.357103
  H       4.660528      2.371677      3.234088
  H       4.806332      2.180753      0.751032
  H       2.782057      1.733989     -0.583491
  H      -3.150249     -0.310060     -3.031360
  H      -5.239849     -1.560573     -3.390726
  H      -6.557640     -2.403649     -1.447479
  H      -5.752018     -1.952190      0.870610
  H      -3.687871     -0.664591      1.240457
>
46
-1703.40597618; 31P isotropic shielding: 206.620221 ppm
  S      -2.292869      1.154124      2.600365
  P      -1.208455      0.450033      1.123411
  C      -0.540548     -1.287190      1.413652
  C       0.487204     -1.593979      0.443212
  C       1.357815     -1.592565     -0.404581
  C       2.389622     -1.493568     -1.376304
  C       2.116918     -1.691393     -2.747894
  C       3.125650     -1.528566     -3.697487
  C       4.419370     -1.168286     -3.300292
  C       4.700999     -0.974872     -1.941974
  C       3.699676     -1.135300     -0.984836
  C      -1.963250      0.409476     -0.548716
  C      -1.149581      1.146621     -1.360929
  C       0.062768      1.681724     -0.756098
  C       0.256976      1.398216      0.563361
  C       1.437850      1.620023      1.388132
  C       1.371151      1.538525      2.797244
  C       2.518684      1.687500      3.576860
  C       3.759083      1.921119      2.973719
  C       3.841146      2.003205      1.576996
  C       2.699219      1.850259      0.793689
  C      -3.200813     -0.292964     -0.867497
  C      -3.949204     -0.942412      0.141253
  C      -5.118292     -1.639715     -0.165019
  C      -5.573886     -1.711136     -1.484625
  C      -4.846040     -1.071434     -2.497998
  C      -3.678638     -0.374747     -2.196145
  H      -1.400970     -1.968491      1.375281
  H      -0.155914     -1.287437      2.443214
  H       1.108993     -1.966123     -3.051279
  H       2.901966     -1.680749     -4.752096
  H       5.203195     -1.039804     -4.044500
  H       5.705701     -0.696353     -1.627988
  H       3.909340     -0.975600      0.069828
  H      -1.368215      1.337146     -2.410069
  H       0.770975      2.255730     -1.350813
  H       0.408287      1.379885      3.277841
  H       2.442692      1.621575      4.661210
  H       4.654250      2.031502      3.583350
  H       4.804176      2.170754      1.097171
  H       2.786666      1.869652     -0.289903
  H      -3.633509     -0.867209      1.178648
  H      -5.676261     -2.126467      0.633464
  H      -6.484493     -2.257499     -1.723696
  H      -5.191739     -1.121014     -3.529277
  H      -3.124295      0.105204     -2.999686
>
46
-1703.40806529; 31P isotropic shielding: 206.755617 ppm
  S      -2.302926      1.833199      2.157025
  P      -1.218222      0.741509      0.938400
  C      -0.552682     -0.845516      1.705264
  C       0.486581     -1.406817      0.870481
  C       1.367368     -1.640249      0.066447
  C       2.414992     -1.819262     -0.876421
  C       3.702788     -1.301766     -0.608473
  C       4.720013     -1.421650     -1.554661
  C       4.476714     -2.056844     -2.779074
  C       3.205246     -2.576747     -3.051789
  C       2.180754     -2.461807     -2.112080
  C      -1.973797      0.229616     -0.653287
  C      -1.161267      0.707965     -1.641362
  C       0.049604      1.394694     -1.213297
  C       0.245540      1.496031      0.132552
  C       1.423081      1.951090      0.860253
  C       1.362693      2.231471      2.244015
  C       2.507586      2.602742      2.949654
  C       3.739888      2.705760      2.295784
  C       3.815620      2.432049      0.923278
  C       2.676408      2.055537      0.215411
  C      -3.209998     -0.536521     -0.759063
  C      -3.688456     -0.991185     -2.009992
  C      -4.855016     -1.746184     -2.101530
  C      -5.581459     -2.074379     -0.948050
  C      -5.125289     -1.632274      0.297146
  C      -3.957203     -0.875223      0.392726
  H      -1.413775     -1.512499      1.844572
  H      -0.181525     -0.561263      2.699911
  H       3.882151     -0.799571      0.338792
  H       5.707200     -1.016949     -1.337235
  H       5.272954     -2.146551     -3.515746
  H       3.011407     -3.071913     -4.001865
  H       1.189851     -2.859325     -2.320849
  H      -1.380093      0.593662     -2.701474
  H       0.755859      1.777456     -1.947713
  H       0.405429      2.179505      2.758040
  H       2.435820      2.813839      4.015586
  H       4.633356      2.990509      2.848738
  H       4.772203      2.498160      0.407227
  H       2.761988      1.804035     -0.838965
  H      -3.135303     -0.757251     -2.916985
  H      -5.201467     -2.085185     -3.076483
  H      -6.491513     -2.666971     -1.022151
  H      -5.682164     -1.873927      1.201210
  H      -3.641638     -0.508900      1.366233
