57
-1702.27183014; 31P isotropic shielding: 244.053619 ppm
  O       3.216384     -2.838905      0.177669
  C       2.421740     -1.946717     -0.032320
  N       2.753995     -0.550684     -0.161763
  C       4.040945     -0.008720      0.153002
  C       5.196402     -0.604761     -0.368281
  C       6.448213     -0.072764     -0.048687
  C       6.548661      1.054330      0.773848
  C       5.388871      1.646628      1.285480
  C       4.132736      1.115329      0.984057
  C       1.663808      0.240449     -0.652217
  O       1.654476      1.451170     -0.737702
  C       0.647027     -0.792321     -1.107373
  C       0.915626     -1.970024     -0.151292
  C      -0.011308     -3.069230     -0.653176
  C      -1.352408     -3.104115      0.040059
  C      -1.221288     -2.272708     -1.222138
  C      -0.893955     -0.746089     -1.212818
  P      -1.694951      0.180976      0.162833
  O      -1.085558     -0.107665      1.501354
  C      -1.644875      1.942155     -0.260027
  C      -0.895759      2.814512      0.541174
  C      -0.843512      4.175601      0.232554
  C      -1.532676      4.669124     -0.880192
  C      -2.281496      3.800921     -1.684371
  C      -2.339501      2.440617     -1.374045
  O      -3.218069     -0.284678     -0.090717
  C      -4.324140     -0.230993      0.913588
  C      -5.587824     -0.373781      0.060261
  C      -4.307926      1.105955      1.666704
  C      -4.146346     -1.421155      1.864686
  O      -2.169094     -4.258032      0.039519
  H       5.112638     -1.480784     -1.003770
  H       7.346558     -0.540224     -0.447917
  H       7.525845      1.468259      1.016204
  H       5.459982      2.522853      1.927474
  H       3.229017      1.567776      1.380235
  H       1.006405     -1.100869     -2.104850
  H       0.565343     -1.644001      0.842714
  H       0.382374     -3.950061     -1.157518
  H      -1.437653     -2.601415      0.999591
  H      -1.759374     -2.649515     -2.090587
  H      -1.222045     -0.288123     -2.152503
  H      -0.359683      2.416473      1.398869
  H      -0.259001      4.850376      0.855487
  H      -1.487293      5.729743     -1.122454
  H      -2.820641      4.185267     -2.548751
  H      -2.936920      1.768818     -1.988333
  H      -6.476609     -0.388859      0.703495
  H      -5.557879     -1.307312     -0.513774
  H      -5.678096      0.466470     -0.638699
  H      -5.165173      1.143082      2.350969
  H      -3.394376      1.215430      2.261517
  H      -4.384088      1.951622      0.974163
  H      -3.222997     -1.314180      2.442968
  H      -4.105305     -2.360746      1.301644
  H      -4.993897     -1.468903      2.560889
  H      -2.051231     -4.733501     -0.802433
>
57
-1702.28476224; 31P isotropic shielding: 235.621761 ppm
  O       3.225394     -2.806049      0.348770
  C       2.427529     -1.928979      0.091915
  N       2.758693     -0.540459     -0.110614
  C       4.045602      0.013416      0.174164
  C       4.648058      0.889367     -0.738231
  C       5.903341      1.429552     -0.450444
  C       6.563897      1.091454      0.735635
  C       5.958397      0.212092      1.639897
  C       4.698226     -0.324090      1.366993
  C       1.668641      0.218909     -0.649529
  O       1.653420      1.424535     -0.792187
  C       0.658356     -0.839503     -1.056941
  C       0.923304     -1.965134     -0.037898
  C       0.005872     -3.093110     -0.489721
  C      -1.342393     -3.097633      0.191086
  C      -1.201564     -2.332783     -1.111279
  C      -0.881214     -0.806129     -1.178087
  P      -1.699542      0.185460      0.141872
  O      -1.095505     -0.027386      1.496775
  C      -1.662544      1.921023     -0.376529
  C      -2.375165      2.355747     -1.505925
  C      -2.324988      3.696867     -1.891832
  C      -1.565215      4.609035     -1.148712
  C      -0.857064      4.178732     -0.021742
  C      -0.902040      2.836864      0.363242
  O      -3.215904     -0.311099     -0.095195
  C      -4.332490     -0.204478      0.892838
  C      -4.355059      1.190026      1.532380
  C      -4.137780     -1.307788      1.940808
  C      -5.583658     -0.450186      0.044736
  O      -2.153933     -4.254174      0.242315
  H       4.133093      1.153784     -1.657024
  H       6.367238      2.113758     -1.158708
  H       7.544312      1.510784      0.954235
  H       6.465158     -0.056047      2.565141
  H       4.226353     -1.006387      2.067977
  H       1.028819     -1.200313     -2.032877
  H       0.562303     -1.586698      0.933636
  H       0.407987     -3.997068     -0.943870
  H      -1.439016     -2.546272      1.122428
  H      -1.729865     -2.756028     -1.964245
  H      -1.203349     -0.398155     -2.142550
  H      -2.980802      1.650057     -2.072328
  H      -2.878773      4.032262     -2.767314
  H      -1.525977      5.654740     -1.449912
  H      -0.262873      4.886952      0.552943
  H      -0.349248      2.487443      1.231237
  H      -4.435158      1.973471      0.770754
  H      -3.452964      1.366716      2.128668
  H      -5.223277      1.267077      2.199257
  H      -4.073781     -2.289579      1.457504
  H      -3.222159     -1.134907      2.515405
  H      -4.990592     -1.315893      2.632281
  H      -5.689221      0.324327     -0.724667
  H      -6.477918     -0.433475      0.680283
  H      -5.524977     -1.428177     -0.447261
  H      -2.027986     -4.769270     -0.574755
>
57
-1702.28478568; 31P isotropic shielding: 235.720431 ppm
  O       3.186595     -2.872987      0.118402
  C       2.402880     -1.967476     -0.077288
  N       2.750481     -0.572690     -0.169012
  C       4.042121     -0.053749      0.164227
  C       5.192605     -0.648930     -0.368977
  C       6.449283     -0.140040     -0.031461
  C       6.559832      0.963625      0.821022
  C       5.405089      1.555458      1.344428
  C       4.143988      1.046848      1.025019
  C       1.669436      0.244347     -0.639129
  O       1.673939      1.457054     -0.688631
  C       0.643604     -0.764213     -1.126053
  C       0.897835     -1.973010     -0.206385
  C      -0.038537     -3.045648     -0.745032
  C      -1.388065     -3.073967     -0.053429
  C      -1.236095     -2.225019     -1.287779
  C      -0.897851     -0.702615     -1.231921
  P      -1.691375      0.199879      0.163640
  O      -1.088307     -0.120822      1.497949
  C      -1.627075      1.969563     -0.220822
  C      -0.874308      2.819407      0.600852
  C      -0.813317      4.186698      0.322637
  C      -1.497370      4.709027     -0.780075
  C      -2.249654      3.863385     -1.604773
  C      -2.316428      2.496900     -1.324815
  O      -3.218469     -0.245423     -0.102747
  C      -4.325777     -0.209577      0.899078
  C      -4.166327     -1.434362      1.808999
  C      -5.589178     -0.306341      0.038885
  C      -4.294247      1.100245      1.698083
  O      -2.240568     -4.191244     -0.235359
  H       5.101202     -1.506641     -1.027995
  H       7.343560     -0.606923     -0.440399
  H       7.540840      1.359832      1.077171
  H       5.483935      2.413634      2.009500
  H       3.244139      1.499300      1.429861
  H       1.001280     -1.046777     -2.131630
  H       0.546352     -1.672291      0.795742
  H       0.330128     -3.921849     -1.272171
  H      -1.462285     -2.588337      0.920528
  H      -1.782007     -2.584078     -2.156379
  H      -1.220296     -0.218008     -2.159985
  H      -0.341985      2.399508      1.450429
  H      -0.225888      4.843884      0.961457
  H      -1.445175      5.774488     -0.998585
  H      -2.784680      4.269974     -2.461490
  H      -2.916209      1.842395     -1.955219
  H      -3.244562     -1.357378      2.394847
  H      -4.132716     -2.352811      1.211314
  H      -5.017970     -1.497474      2.499013
  H      -5.570043     -1.219289     -0.567724
  H      -6.479909     -0.331226      0.679191
  H      -5.665756      0.558903     -0.630562
  H      -5.151029      1.123395      2.383615
  H      -4.361826      1.969870      1.034902
  H      -3.379229      1.179714      2.295372
  H      -1.925909     -4.905440      0.348562
>
57
-1702.28720757; 31P isotropic shielding: 235.167777 ppm
  O       3.196913     -2.852597     -0.005366
  C       2.407052     -1.943801     -0.157094
  N       2.752152     -0.545570     -0.205105
  C       4.050475     -0.042229      0.118721
  C       4.714860     -0.516016      1.257392
  C       5.986897     -0.029942      1.566736
  C       6.592645      0.933891      0.753277
  C       5.920532      1.407601     -0.378692
  C       4.653113      0.919014     -0.703179
  C       1.663553      0.283780     -0.635625
  O       1.662735      1.497798     -0.635349
  C       0.636011     -0.709682     -1.148520
  C       0.901637     -1.950955     -0.274991
  C      -0.030878     -3.007472     -0.849767
  C      -1.379701     -3.070580     -0.158940
  C      -1.234176     -2.174208     -1.360042
  C      -0.905646     -0.652509     -1.245775
  P      -1.703760      0.185102      0.187648
  O      -1.105359     -0.199687      1.507002
  C      -1.640191      1.970397     -0.113441
  C      -2.347101      2.550284     -1.179498
  C      -2.279736      3.928016     -1.397211
  C      -1.508810      4.731959     -0.548239
  C      -0.806521      4.156942      0.516119
  C      -0.868369      2.778471      0.732543
  O      -3.229791     -0.248240     -0.104725
  C      -4.338014     -0.267331      0.896821
  C      -4.171963     -1.532559      1.748382
  C      -5.599894     -0.332078      0.031510
  C      -4.315621      1.003831      1.756109
  O      -2.224261     -4.186341     -0.384180
  H       4.242658     -1.264675      1.886738
  H       6.503166     -0.403707      2.449134
  H       7.582455      1.313607      1.000120
  H       6.384827      2.157949     -1.016175
  H       4.128849      1.286470     -1.580359
  H       0.989712     -0.957490     -2.164895
  H       0.555181     -1.688126      0.739503
  H       0.341760     -3.860923     -1.410429
  H      -1.457965     -2.623372      0.832853
  H      -1.778103     -2.503216     -2.241677
  H      -1.235350     -0.133980     -2.152783
  H      -2.960675      1.927139     -1.828107
  H      -2.828951      4.375707     -2.223980
  H      -1.456306      5.806297     -0.718034
  H      -0.203666      4.781306      1.173168
  H      -0.320141      2.318924      1.550839
  H      -4.126456     -2.421249      1.108033
  H      -5.026740     -1.636599      2.429589
  H      -3.254386     -1.475537      2.343025
  H      -6.491078     -0.393023      0.668776
  H      -5.682101      0.562945     -0.596975
  H      -5.574050     -1.215364     -0.617393
  H      -5.171573      0.988671      2.443018
  H      -4.390896      1.903087      1.134506
  H      -3.400535      1.062682      2.355719
  H      -1.903020     -4.921011      0.169965
>
57
-1702.28720590; 31P isotropic shielding: 235.012530 ppm
  O       3.236285     -2.822146      0.219593
  C       2.433950     -1.940612     -0.003360
  N       2.754849     -0.542245     -0.146643
  C       4.036730      0.012809      0.165455
  C       4.118454      1.142909      0.989271
  C       5.369878      1.686693      1.288111
  C       6.534958      1.100795      0.781097
  C       6.444569     -0.032474     -0.034124
  C       5.197473     -0.577001     -0.351070
  C       1.659712      0.235129     -0.645463
  O       1.640448      1.445189     -0.742571
  C       0.652323     -0.810436     -1.092036
  C       0.928019     -1.977366     -0.125321
  C       0.008913     -3.086355     -0.619642
  C      -1.319704     -3.128823      0.078044
  C      -1.201262     -2.308780     -1.198029
  C      -0.890419     -0.781136     -1.199605
  P      -1.685080      0.173385      0.159882
  O      -1.053720     -0.050924      1.500063
  C      -1.676014      1.917073     -0.334285
  C      -2.391490      2.356796     -1.459712
  C      -2.363660      3.704507     -1.824452
  C      -1.623122      4.618238     -1.064134
  C      -0.911794      4.182771      0.058857
  C      -0.934673      2.834484      0.422395
  O      -3.209012     -0.332476     -0.038241
  C      -4.299073     -0.190957      0.972424
  C      -4.281555      1.204693      1.610882
  C      -4.103805     -1.289494      2.025954
  C      -5.576718     -0.411386      0.157368
  O      -2.018745     -4.356741     -0.008903
  H       3.210583      1.589936      1.382148
  H       5.433244      2.567598      1.924515
  H       7.508482      1.524436      1.021434
  H       7.347090     -0.495008     -0.429647
  H       5.121379     -1.457768     -0.980967
  H       1.013818     -1.125322     -2.086502
  H       0.575504     -1.644564      0.865588
  H       0.393697     -3.979114     -1.105430
  H      -1.406057     -2.611977      1.035104
  H      -1.733536     -2.710393     -2.056773
  H      -1.220742     -0.335551     -2.144511
  H      -2.981841      1.649936     -2.040795
  H      -2.918978      4.043551     -2.697482
  H      -1.600769      5.668897     -1.349155
  H      -0.332501      4.892582      0.646679
  H      -0.380409      2.480384      1.287547
  H      -4.357547      1.988846      0.850189
  H      -3.367414      1.363437      2.193284
  H      -5.138106      1.299279      2.290380
  H      -4.099224     -2.279296      1.552962
  H      -3.158386     -1.149203      2.559321
  H      -4.927716     -1.262318      2.750804
  H      -5.551669     -1.388832     -0.339264
  H      -5.686082      0.365587     -0.608671
  H      -6.454409     -0.378096      0.814920
  H      -2.972929     -4.157746     -0.004082
>
57
-1702.28624857; 31P isotropic shielding: 234.641702 ppm
  O       3.223117     -2.818173      0.325978
  C       2.424052     -1.940906      0.075552
  N       2.753833     -0.548438     -0.109273
  C       4.039020      0.003344      0.186692
  C       4.643432      0.891706     -0.712371
  C       5.897155      1.429584     -0.413658
  C       6.554445      1.076988      0.770010
  C       5.947188      0.185239      1.660852
  C       4.688535     -0.348840      1.377042
  C       1.664858      0.216150     -0.640719
  O       1.648283      1.423756     -0.768768
  C       0.656924     -0.838465     -1.063343
  C       0.919945     -1.977255     -0.059136
  C       0.003431     -3.098151     -0.529841
  C      -1.333678     -3.116889      0.152937
  C      -1.197958     -2.335550     -1.145433
  C      -0.883991     -0.808897     -1.187810
  P      -1.693478      0.182334      0.136691
  O      -1.081865     -0.013901      1.490308
  C      -1.671223      1.912932     -0.399838
  C      -2.384675      2.329843     -1.535328
  C      -2.345249      3.667346     -1.934778
  C      -1.594682      4.593406     -1.199465
  C      -0.884756      4.180443     -0.067141
  C      -0.919428      2.842306      0.331663
  O      -3.216357     -0.323514     -0.071328
  C      -4.319502     -0.155429      0.920957
  C      -4.312470      1.258810      1.517237
  C      -4.136273     -1.221986      2.009035
  C      -5.585968     -0.402955      0.096282
  O      -2.034614     -4.345417      0.094769
  H       4.131155      1.166915     -1.629500
  H       6.362585      2.123222     -1.111700
  H       7.533780      1.494439      0.996985
  H       6.451515     -0.094581      2.583990
  H       4.215577     -1.041145      2.067383
  H       1.028277     -1.186265     -2.043418
  H       0.558070     -1.612324      0.917164
  H       0.391463     -4.005538     -0.984945
  H      -1.429644     -2.571258      1.092869
  H      -1.720961     -2.760774     -1.998481
  H      -1.204233     -0.389337     -2.148013
  H      -2.982377      1.613435     -2.096885
  H      -2.899431      3.988909     -2.815170
  H      -1.563331      5.636196     -1.511462
  H      -0.296652      4.899164      0.500716
  H      -0.364003      2.506007      1.203098
  H      -4.379496      2.019230      0.731963
  H      -3.405818      1.436752      2.105811
  H      -5.177665      1.372978      2.182650
  H      -4.969601     -1.176051      2.722170
  H      -4.123452     -2.225284      1.565486
  H      -3.198272     -1.063944      2.550428
  H      -5.552737     -1.394837     -0.370422
  H      -5.686743      0.350364     -0.694234
  H      -6.472290     -0.351717      0.740990
  H      -2.988266     -4.144178      0.082151
>
57
-1702.28626732; 31P isotropic shielding: 234.605100 ppm
  O       3.216760     -2.843608     -0.009285
  C       2.416632     -1.943441     -0.152200
  N       2.748720     -0.540510     -0.200391
  C       4.044462     -0.026608      0.117525
  C       4.717313     -0.495397      1.253278
  C       5.986956      0.000386      1.557095
  C       6.581787      0.968827      0.740969
  C       5.901192      1.437361     -0.388160
  C       4.636126      0.939065     -0.707124
  C       1.652892      0.277861     -0.627857
  O       1.640592      1.492229     -0.631700
  C       0.631366     -0.725489     -1.134867
  C       0.909751     -1.962846     -0.259524
  C      -0.016233     -3.027470     -0.830929
  C      -1.343553     -3.122829     -0.136218
  C      -1.226291     -2.205441     -1.344727
  C      -0.911429     -0.681830     -1.228911
  P      -1.701229      0.157804      0.207083
  O      -1.096589     -0.213987      1.526447
  C      -1.646554      1.940481     -0.111858
  C      -0.887278      2.761563      0.732733
  C      -0.831641      4.138091      0.502746
  C      -1.527518      4.698040     -0.573818
  C      -2.285263      3.880817     -1.422016
  C      -2.346225      2.504973     -1.190835
  O      -3.234101     -0.285405     -0.059715
  C      -4.330540     -0.228154      0.952392
  C      -4.194062     -1.464263      1.851051
  C      -5.605618     -0.281372      0.105443
  C      -4.265039      1.068335      1.771824
  O      -2.041272     -4.341149     -0.320921
  H       4.253604     -1.247856      1.884427
  H       6.509946     -0.369714      2.437051
  H       7.569800      1.355949      0.983460
  H       6.357118      2.191070     -1.027714
  H       4.105281      1.302354     -1.582076
  H       0.982743     -0.972461     -2.152123
  H       0.567860     -1.703664      0.756711
  H       0.364457     -3.881088     -1.385590
  H      -1.431560     -2.683711      0.858558
  H      -1.759223     -2.538851     -2.231754
  H      -1.247445     -0.163697     -2.134024
  H      -0.342966      2.313540      1.559992
  H      -0.238080      4.772598      1.158470
  H      -1.479677      5.770828     -0.754224
  H      -2.828584      4.316631     -2.258931
  H      -2.949202      1.871742     -1.839752
  H      -3.249624     -1.435643      2.403484
  H      -4.224894     -2.380911      1.249055
  H      -5.024137     -1.499302      2.568367
  H      -5.615597     -1.182737     -0.519106
  H      -6.490232     -0.297366      0.754384
  H      -5.669363      0.596417     -0.548596
  H      -3.346254      1.119396      2.366032
  H      -5.118302      1.097513      2.461400
  H      -4.317914      1.949642      1.123639
  H      -2.995769     -4.144614     -0.301867
>
57
-1702.28637521; 31P isotropic shielding: 234.499718 ppm
  O       3.148227     -2.878794      0.083868
  C       2.370438     -1.966592     -0.102088
  N       2.726874     -0.572846     -0.181298
  C       4.019339     -0.063503      0.163910
  C       5.170052     -0.661302     -0.365691
  C       6.427164     -0.161997     -0.015431
  C       6.537763      0.934633      0.846061
  C       5.382653      1.529155      1.365658
  C       4.121061      1.030096      1.033512
  C       1.654149      0.252654     -0.653973
  O       1.665768      1.465503     -0.698451
  C       0.624473     -0.746818     -1.152346
  C       0.865573     -1.960682     -0.234978
  C      -0.073461     -3.026862     -0.783264
  C      -1.421156     -3.066794     -0.104430
  C      -1.265368     -2.192463     -1.335180
  C      -0.914546     -0.672206     -1.268396
  P      -1.713947      0.215079      0.134163
  O      -1.128295     -0.141437      1.466934
  C      -1.623495      1.990966     -0.213765
  C      -0.870105      2.814694      0.633542
  C      -0.788810      4.186378      0.383572
  C      -1.452998      4.739138     -0.716419
  C      -2.205721      3.919688     -1.566703
  C      -2.292897      2.548895     -1.314998
  O      -3.243112     -0.206821     -0.157294
  C      -4.360019     -0.177712      0.835752
  C      -5.615589     -0.248613     -0.038137
  C      -4.324139      1.119536      1.654763
  C      -4.221422     -1.417632      1.727671
  O      -2.255477     -4.207013     -0.156097
  H       5.078549     -1.513823     -1.031368
  H       7.321763     -0.630982     -0.421238
  H       7.519127      1.323190      1.112345
  H       5.461576      2.381689      2.037934
  H       3.220873      1.484430      1.435527
  H       0.987226     -1.027384     -2.156820
  H       0.511083     -1.662854      0.766282
  H       0.313368     -3.894803     -1.314867
  H      -1.510110     -2.597820      0.871693
  H      -1.800528     -2.531326     -2.220686
  H      -1.228295     -0.176240     -2.193595
  H      -0.353340      2.371577      1.481023
  H      -0.201278      4.823255      1.042534
  H      -1.385047      5.808009     -0.912792
  H      -2.725337      4.350118     -2.421258
  H      -2.893411      1.914747     -1.965201
  H      -5.676421      0.626463     -0.696420
  H      -6.512790     -0.273057      0.593011
  H      -5.600385     -1.153460     -0.657032
  H      -5.186553      1.139403      2.333291
  H      -3.413984      1.181975      2.261420
  H      -4.378606      1.999958      1.004702
  H      -3.306163     -1.360160      2.325667
  H      -4.189983     -2.328303      1.118465
  H      -5.081231     -1.483014      2.407252
  H      -2.101481     -4.679721     -0.993737
>
57
-1702.28480725; 31P isotropic shielding: 235.523155 ppm
  O       3.159788     -2.855017     -0.034380
  C       2.375724     -1.940478     -0.178267
  N       2.729730     -0.543707     -0.216780
  C       4.029122     -0.050494      0.118611
  C       4.682298     -0.536461      1.258572
  C       5.955155     -0.060614      1.580049
  C       6.572603      0.904876      0.777442
  C       5.911542      1.390565     -0.355929
  C       4.643343      0.912326     -0.692681
  C       1.649631      0.293259     -0.651364
  O       1.656200      1.507263     -0.649668
  C       0.617607     -0.691719     -1.172835
  C       0.870516     -1.936410     -0.299498
  C      -0.065170     -2.987262     -0.880636
  C      -1.411138     -3.059647     -0.200643
  C      -1.263578     -2.140579     -1.399199
  C      -0.921935     -0.621182     -1.277634
  P      -1.723708      0.204162      0.161460
  O      -1.139284     -0.210451      1.477810
  C      -1.636877      1.992972     -0.110381
  C      -0.859566      2.777421      0.752611
  C      -0.778373      4.158127      0.558349
  C      -1.466792      4.758919     -0.500724
  C      -2.243377      3.978715     -1.366513
  C      -2.330099      2.598811     -1.170936
  O      -3.252008     -0.207764     -0.149283
  C      -4.368395     -0.228787      0.844513
  C      -5.623806     -0.277016     -0.031202
  C      -4.342910      1.035892      1.713064
  C      -4.219499     -1.501484      1.687221
  O      -2.237496     -4.203377     -0.292207
  H       4.201061     -1.286388      1.879515
  H       6.462902     -0.443524      2.463436
  H       7.562977      1.276683      1.033795
  H       6.385098      2.142244     -0.984958
  H       4.127477      1.289150     -1.570818
  H       0.975045     -0.939166     -2.188099
  H       0.521529     -1.674113      0.713638
  H       0.324662     -3.833619     -1.443826
  H      -1.502089     -2.627771      0.792221
  H      -1.798382     -2.450037     -2.295662
  H      -1.244252     -0.092555     -2.181586
  H      -0.322269      2.297813      1.566661
  H      -0.171563      4.764205      1.228707
  H      -1.399264      5.834993     -0.653216
  H      -2.781876      4.446757     -2.189028
  H      -2.948657      1.994240     -1.832269
  H      -5.602691     -1.159013     -0.682150
  H      -5.691471      0.620361     -0.658055
  H      -6.520444     -0.330406      0.598918
  H      -5.202436      1.021186      2.395487
  H      -3.431121      1.083815      2.318646
  H      -4.408542      1.940427      1.098060
  H      -5.082907     -1.604206      2.357620
  H      -3.308640     -1.457922      2.292911
  H      -4.174163     -2.386547      1.042186
  H      -2.097732     -4.631865     -1.155774
>
57
-1702.28478864; 31P isotropic shielding: 235.411670 ppm
  O       3.261472     -2.809648      0.254965
  C       2.455839     -1.929449      0.032829
  N       2.771923     -0.536959     -0.138510
  C       4.057277      0.026324      0.146896
  C       5.207790     -0.546920     -0.408895
  C       6.458664      0.004921     -0.119545
  C       6.560012      1.129341      0.707634
  C       5.404100      1.698680      1.254119
  C       4.149725      1.146491      0.982248
  C       1.667442      0.232799     -0.637414
  O       1.644437      1.440925     -0.747014
  C       0.662921     -0.825989     -1.063172
  C       0.946763     -1.969278     -0.066971
  C       0.024416     -3.092591     -0.529282
  C      -1.307602     -3.112928      0.179507
  C      -1.193269     -2.324079     -1.114532
  C      -0.878940     -0.796532     -1.169383
  P      -1.667821      0.178049      0.182892
  O      -0.990743     -0.018666      1.503038
  C      -1.692619      1.916119     -0.331622
  C      -1.040191      2.870152      0.461805
  C      -1.047851      4.215572      0.083874
  C      -1.696140      4.609458     -1.091664
  C      -2.341284      3.657949     -1.892262
  C      -2.341142      2.314293     -1.512654
  O      -3.171868     -0.374336      0.004939
  C      -4.350269     -0.196707      0.905179
  C      -4.940716      1.198378      0.665632
  C      -3.957381     -0.397667      2.374220
  C      -5.303969     -1.301326      0.434569
  O      -2.120101     -4.271405      0.214194
  H       5.120817     -1.421752     -1.046124
  H       7.355016     -0.443582     -0.544041
  H       7.535949      1.559230      0.926342
  H       5.477763      2.572630      1.898858
  H       3.246881      1.579180      1.402333
  H       1.031386     -1.165960     -2.046502
  H       0.602611     -1.614371      0.918237
  H       0.437429     -3.986115     -0.995439
  H      -1.389335     -2.586522      1.127382
  H      -1.753274     -2.742457     -1.949194
  H      -1.204205     -0.385029     -2.130619
  H      -0.528466      2.543808      1.363696
  H      -0.538609      4.955466      0.698839
  H      -1.697296      5.657491     -1.387056
  H      -2.844738      3.965255     -2.807532
  H      -2.857144      1.577734     -2.126392
  H      -4.241866      1.985345      0.968246
  H      -5.861286      1.313699      1.252237
  H      -5.185144      1.339643     -0.393419
  H      -3.276868      0.383467      2.725549
  H      -4.868204     -0.372376      2.986927
  H      -3.465583     -1.364846      2.521733
  H      -6.236432     -1.268354      1.012255
  H      -4.841141     -2.286246      0.566886
  H      -5.546556     -1.169419     -0.626852
  H      -1.915879     -4.830793     -0.556366
>
57
-1702.28347164; 31P isotropic shielding: 239.329539 ppm
  O       3.211435     -2.783563      0.429625
  C       2.415277     -1.913411      0.145395
  N       2.746638     -0.528599     -0.080798
  C       4.028581      0.033667      0.209836
  C       4.642633      0.889995     -0.713288
  C       5.892674      1.439085     -0.419534
  C       6.536393      1.129026      0.783344
  C       5.919361      0.269013      1.698354
  C       4.664188     -0.275673      1.419328
  C       1.661807      0.218246     -0.646785
  O       1.646473      1.420885     -0.812855
  C       0.657582     -0.849299     -1.045019
  C       0.912934     -1.954665     -0.001555
  C       0.001451     -3.092460     -0.440838
  C      -1.352920     -3.085610      0.227217
  C      -1.200312     -2.345389     -1.088332
  C      -0.880571     -0.819975     -1.181512
  P      -1.712320      0.194883      0.111958
  O      -1.119689      0.008599      1.475904
  C      -1.674537      1.920311     -0.438901
  C      -0.921577      2.851273      0.289672
  C      -0.875516      4.185715     -0.120190
  C      -1.575262      4.593461     -1.260697
  C      -2.327568      3.666141     -1.992599
  C      -2.378693      2.332438     -1.581995
  O      -3.225849     -0.309612     -0.129035
  C      -4.351668     -0.187589      0.846089
  C      -5.593968     -0.454595     -0.008450
  C      -4.384664      1.219484      1.457043
  C      -4.163466     -1.269052      1.917727
  O      -2.164573     -4.241555      0.291187
  H       4.140496      1.132464     -1.645170
  H       6.365763      2.108125     -1.136154
  H       7.512814      1.555145      1.006654
  H       6.413136      0.022916      2.636651
  H       4.182922     -0.942675      2.128620
  H       1.038341     -1.228019     -2.010127
  H       0.540446     -1.556954      0.957869
  H       0.410534     -4.004077     -0.873029
  H      -1.459423     -2.517398      1.147284
  H      -1.721113     -2.785971     -1.937049
  H      -1.194737     -0.430266     -2.156119
  H      -0.375351      2.519251      1.168557
  H      -0.287130      4.905716      0.445756
  H      -1.535317      5.633388     -1.581192
  H      -2.874718      3.984117     -2.878687
  H      -2.978343      1.615057     -2.140030
  H      -5.693956      0.302918     -0.795361
  H      -6.494278     -0.426356      0.618076
  H      -5.528532     -1.442644     -0.479030
  H      -4.458671      1.986723      0.678525
  H      -5.260002      1.307999      2.113094
  H      -3.489102      1.410696      2.058715
  H      -5.023188     -1.266923      2.600710
  H      -3.254671     -1.081370      2.498508
  H      -4.090802     -2.259957      1.454750
  H      -2.017887     -4.779280     -0.507618
>
57
-1702.28479154; 31P isotropic shielding: 235.596217 ppm
  O       3.284193     -2.850343      0.084625
  C       2.461933     -1.969488     -0.057041
  N       2.762483     -0.563246     -0.172050
  C       4.054299     -0.004594      0.087033
  C       5.190828     -0.564965     -0.509932
  C       6.447987     -0.016471     -0.243525
  C       6.571426      1.091787      0.601108
  C       5.429915      1.648294      1.188417
  C       4.169212      1.100267      0.940832
  C       1.630278      0.220304     -0.569075
  O       1.592434      1.432302     -0.627068
  C       0.604107     -0.818266     -0.981939
  C       0.953153     -2.016809     -0.080793
  C      -0.001345     -3.109878     -0.540891
  C      -1.300329     -3.168576      0.243057
  C      -1.252145     -2.313649     -0.994555
  C      -0.941103     -0.785345     -0.959208
  P      -1.599857      0.095248      0.522955
  O      -0.791565     -0.208378      1.744226
  C      -1.654355      1.872954      0.162254
  C      -1.671122      2.419651     -1.128357
  C      -1.725320      3.804086     -1.308552
  C      -1.763641      4.653214     -0.198360
  C      -1.733206      4.114769      1.093513
  C      -1.672441      2.732474      1.274330
  O      -3.104551     -0.434809      0.732464
  C      -4.406096     -0.206773      0.056280
  C      -5.261439     -1.380781      0.549355
  C      -4.256855     -0.249036     -1.469578
  C      -4.970495      1.138050      0.531621
  O      -2.137111     -4.304324      0.103637
  H       5.089188     -1.426622     -1.162273
  H       7.332233     -0.456030     -0.701722
  H       7.552454      1.518796      0.801901
  H       5.519173      2.509589      1.848152
  H       3.279563      1.523901      1.396445
  H       0.889033     -1.093465     -2.012700
  H       0.668721     -1.713229      0.941314
  H       0.340676     -3.978013     -1.098379
  H      -1.328029     -2.686867      1.221911
  H      -1.839364     -2.686421     -1.830188
  H      -1.345269     -0.316638     -1.861122
  H      -1.623932      1.776922     -2.003808
  H      -1.727359      4.218920     -2.314962
  H      -1.804169      5.732036     -0.339188
  H      -1.746825      4.773969      1.959906
  H      -1.622318      2.307457      2.274598
  H      -6.272836     -1.316898      0.128139
  H      -5.335699     -1.361723      1.642719
  H      -4.812150     -2.334655      0.249519
  H      -5.249142     -0.179599     -1.932796
  H      -3.661474      0.591364     -1.842112
  H      -3.800142     -1.190870     -1.791630
  H      -5.001437      1.168991      1.626805
  H      -5.992132      1.267790      0.151355
  H      -4.363535      1.976576      0.176673
  H      -1.804004     -4.996050      0.703961
>
57
-1702.27807851; 31P isotropic shielding: 244.176941 ppm
  O       3.309407     -2.812792      0.131894
  C       2.476903     -1.942758     -0.017908
  N       2.766296     -0.536610     -0.164562
  C       4.060120      0.028454      0.058565
  C       4.800145     -0.354237      1.184673
  C       6.067115      0.193281      1.396668
  C       6.592997      1.128462      0.498703
  C       5.845373      1.511632     -0.619963
  C       4.582328      0.960725     -0.847295
  C       1.624213      0.228570     -0.571329
  O       1.573924      1.439316     -0.646054
  C       0.605260     -0.827683     -0.957854
  C       0.969144     -2.005438     -0.034149
  C       0.027302     -3.117655     -0.472798
  C      -1.272458     -3.177413      0.310134
  C      -1.232345     -2.345398     -0.943316
  C      -0.939878     -0.812806     -0.935792
  P      -1.614412      0.084835      0.528687
  O      -0.817259     -0.199865      1.761402
  C      -1.669803      1.856211      0.139405
  C      -1.708188      2.379211     -1.160810
  C      -1.763567      3.760038     -1.365512
  C      -1.780828      4.629452     -0.270402
  C      -1.727831      4.114756      1.030246
  C      -1.666180      2.735757      1.235495
  O      -3.118551     -0.450211      0.730252
  C      -4.418630     -0.231076      0.049500
  C      -4.979104      1.126565      0.491923
  C      -5.279524     -1.389380      0.569900
  C      -4.267719     -0.312049     -1.474685
  O      -2.093719     -4.326754      0.190620
  H       4.389530     -1.078842      1.881769
  H       6.641910     -0.109504      2.270059
  H       7.579050      1.556446      0.670193
  H       6.246768      2.239832     -1.322564
  H       3.999656      1.259853     -1.713631
  H       0.893007     -1.122710     -1.982609
  H       0.683667     -1.684671      0.982586
  H       0.380051     -3.992312     -1.013145
  H      -1.308282     -2.677468      1.279467
  H      -1.814016     -2.739907     -1.772860
  H      -1.349501     -0.365989     -1.846387
  H      -1.678039      1.720303     -2.024958
  H      -1.783202      4.156505     -2.379165
  H      -1.821986      5.705612     -0.430203
  H      -1.723637      4.789747      1.884446
  H      -1.597506      2.328743      2.242055
  H      -6.001737      1.247974      0.111533
  H      -4.372486      1.955325      0.114319
  H      -5.007087      1.185444      1.586063
  H      -6.289882     -1.332274      0.145273
  H      -4.832919     -2.351804      0.294361
  H      -5.355519     -1.343490      1.662357
  H      -3.813704     -1.263513     -1.771829
  H      -3.668115      0.516022     -1.867271
  H      -5.258740     -0.250380     -1.941761
  H      -1.752612     -5.002576      0.804369
>
57
-1702.27785172; 31P isotropic shielding: 244.693415 ppm
  O       3.171869     -2.856459     -0.044403
  C       2.381219     -1.947635     -0.184709
  N       2.726002     -0.547112     -0.210663
  C       4.021919     -0.048666      0.129969
  C       4.677693     -0.540392      1.265963
  C       5.947505     -0.059598      1.592154
  C       6.559520      0.916444      0.798227
  C       5.895992      1.407757     -0.331304
  C       4.630895      0.924730     -0.672706
  C       1.642004      0.286304     -0.639132
  O       1.640234      1.500636     -0.626881
  C       0.617157     -0.701014     -1.169996
  C       0.875794     -1.952360     -0.308603
  C      -0.052603     -3.001419     -0.903923
  C      -1.387110     -3.096858     -0.224238
  C      -1.250794     -2.162243     -1.418274
  C      -0.924286     -0.643332     -1.277760
  P      -1.720193      0.182915      0.162345
  O      -1.131279     -0.212434      1.482202
  C      -1.648601      1.969164     -0.131910
  C      -2.335709      2.553855     -1.208092
  C      -2.261730      3.932042     -1.420355
  C      -1.503299      4.731494     -0.556041
  C      -0.819733      4.151397      0.517620
  C      -0.888406      2.772498      0.728686
  O      -3.254764     -0.243190     -0.124450
  C      -4.360174     -0.190955      0.877067
  C      -5.627563     -0.229502      0.018121
  C      -4.295413      1.097058      1.709846
  C      -4.239799     -1.436326      1.765082
  O      -2.090640     -4.307406     -0.436404
  H       4.201063     -1.298869      1.879984
  H       6.457264     -0.447306      2.472283
  H       7.547613      1.291850      1.058109
  H       6.365288      2.167435     -0.953884
  H       4.113363      1.305646     -1.548082
  H       0.975917     -0.937167     -2.187221
  H       0.525204     -1.702978      0.707091
  H       0.328139     -3.849630     -1.466821
  H      -1.483523     -2.672780      0.776184
  H      -1.778392     -2.478872     -2.314494
  H      -1.248313     -0.109077     -2.177869
  H      -2.939479      1.934762     -1.869739
  H      -2.795413      4.383554     -2.255120
  H      -1.445228      5.806126     -0.721779
  H      -0.225658      4.772107      1.185954
  H      -0.353439      2.308955      1.553495
  H      -5.679833      0.653350     -0.629990
  H      -6.518150     -0.244817      0.658819
  H      -5.637630     -1.126038     -0.613347
  H      -3.381702      1.136765      2.312814
  H      -4.336891      1.984922      1.069910
  H      -5.154461      1.125054      2.392225
  H      -3.301002     -1.419416      2.327496
  H      -4.270341     -2.347083      1.154074
  H      -5.077819     -1.472666      2.473002
  H      -3.044086     -4.110315     -0.390032
>
57
-1702.28636922; 31P isotropic shielding: 234.330944 ppm
  O       3.282379     -2.842983      0.178555
  C       2.455863     -1.971049      0.010538
  N       2.751291     -0.576235     -0.207381
  C       4.049649     -0.001793     -0.026193
  C       4.188844      1.154007      0.753191
  C       5.455174      1.717927      0.924722
  C       6.578543      1.127262      0.335576
  C       6.431122     -0.031498     -0.434169
  C       5.167589     -0.596964     -0.624399
  C       1.607505      0.178618     -0.624434
  O       1.566519      1.383785     -0.764458
  C       0.569869     -0.885163     -0.934072
  C       0.946471     -2.015531      0.041943
  C      -0.018055     -3.139634     -0.312823
  C      -1.286347     -3.166392      0.504814
  C      -1.286145     -2.376716     -0.793312
  C      -0.973283     -0.849174     -0.872780
  P      -1.597542      0.125726      0.565029
  O      -0.767109     -0.110078      1.785925
  C      -1.646801      1.878088      0.095738
  C      -1.625527      2.806835      1.150470
  C      -1.679368      4.175527      0.883094
  C      -1.741876      4.630535     -0.439321
  C      -1.742484      3.711788     -1.493454
  C      -1.695281      2.341225     -1.226460
  O      -3.100853     -0.380259      0.833453
  C      -4.415912     -0.175463      0.176948
  C      -4.950958      1.205876      0.575374
  C      -5.274853     -1.301110      0.766980
  C      -4.304416     -0.320573     -1.345967
  O      -2.081208     -4.333235      0.597285
  H       3.313184      1.603847      1.210967
  H       5.563351      2.618682      1.526345
  H       7.564257      1.567052      0.477020
  H       7.301317     -0.497646     -0.892948
  H       5.047029     -1.497726     -1.218159
  H       0.826647     -1.234166     -1.949790
  H       0.693104     -1.642084      1.048005
  H       0.333589     -4.035044     -0.823839
  H      -1.304558     -2.630153      1.450810
  H      -1.890987     -2.795919     -1.595505
  H      -1.403692     -0.442510     -1.792580
  H      -1.551048      2.446087      2.174208
  H      -1.662663      4.888701      1.705543
  H      -1.777022      5.698524     -0.647809
  H      -1.769180      4.061889     -2.523865
  H      -1.678620      1.643463     -2.059804
  H      -4.948186      1.311730      1.666272
  H      -5.982660      1.321386      0.218359
  H      -4.347261      2.010888      0.145290
  H      -6.294438     -1.252043      0.363914
  H      -4.843271     -2.278969      0.523665
  H      -5.324167     -1.208822      1.857915
  H      -3.699311      0.479384     -1.785328
  H      -5.305049     -0.258935     -1.792090
  H      -3.874272     -1.291346     -1.615113
  H      -1.850795     -4.934218     -0.133494
>
57
-1702.27558455; 31P isotropic shielding: 244.838995 ppm
  O       3.277643     -2.716566      0.368372
  C       2.460828     -1.860885      0.097566
  N       2.760929     -0.468130     -0.119334
  C       4.035466      0.117051      0.158290
  C       4.694385     -0.189383      1.355921
  C       5.942495      0.377844      1.621516
  C       6.529187      1.257267      0.705053
  C       5.862232      1.564254     -0.485862
  C       4.619153      0.992822     -0.766269
  C       1.652038      0.264347     -0.658914
  O       1.611652      1.468495     -0.808406
  C       0.663894     -0.818455     -1.055159
  C       0.958324     -1.932951     -0.032719
  C       0.063028     -3.081703     -0.474082
  C      -1.286743     -3.094169      0.218182
  C      -1.160742     -2.355371     -1.087815
  C      -0.877678     -0.822849     -1.167385
  P      -1.712026      0.167808      0.142480
  O      -1.097002     -0.004539      1.498397
  C      -1.725571      1.894612     -0.405822
  C      -2.463931      2.291752     -1.532538
  C      -2.453074      3.626941     -1.941427
  C      -1.706775      4.570561     -1.224327
  C      -0.972792      4.177619     -0.100253
  C      -0.978777      2.841873      0.307956
  O      -3.216496     -0.372324     -0.077598
  C      -4.331140     -0.282445      0.910996
  C      -4.390783      1.119129      1.532760
  C      -4.104257     -1.366389      1.973161
  C      -5.578285     -0.574328      0.071365
  O      -2.100289     -4.251973      0.140241
  H       4.236857     -0.871811      2.066213
  H       6.454695      0.133969      2.550488
  H       7.500214      1.700700      0.917935
  H       6.311717      2.248202     -1.203591
  H       4.099044      1.232581     -1.688975
  H       1.036691     -1.176080     -2.031259
  H       0.591935     -1.555451      0.937944
  H       0.464534     -3.987562     -0.920790
  H      -1.378431     -2.524959      1.144241
  H      -1.692586     -2.809981     -1.919607
  H      -1.214097     -0.432546     -2.134172
  H      -3.058751      1.561314     -2.078623
  H      -3.026922      3.933327     -2.814600
  H      -1.698243      5.611616     -1.543550
  H      -0.389057      4.910365      0.454049
  H      -0.405619      2.521683      1.173932
  H      -4.505459      1.889028      0.761736
  H      -3.488039      1.332905      2.115711
  H      -5.253409      1.177413      2.208795
  H      -4.958107     -1.392735      2.662907
  H      -4.009000     -2.350402      1.499278
  H      -3.195715     -1.158286      2.547726
  H      -5.706269      0.185547     -0.709143
  H      -6.470796     -0.571176      0.709633
  H      -5.495252     -1.557273     -0.406946
  H      -1.763826     -4.897302      0.788623
>
57
-1702.28712918; 31P isotropic shielding: 235.204744 ppm
  O       3.291582     -2.825010     -0.030085
  C       2.457736     -1.949826     -0.132838
  N       2.746888     -0.544359     -0.287528
  C       4.052604      0.013392     -0.121944
  C       4.840076     -0.376609      0.968822
  C       6.118599      0.162797      1.124767
  C       6.609161      1.097007      0.206078
  C       5.814275      1.487493     -0.876882
  C       4.538924      0.944773     -1.048394
  C       1.592026      0.225805     -0.643578
  O       1.543425      1.436791     -0.715435
  C       0.551625     -0.825409     -0.986449
  C       0.950556     -2.004319     -0.078173
  C      -0.010956     -3.114364     -0.479591
  C      -1.269180     -3.196904      0.350267
  C      -1.290773     -2.336310     -0.901801
  C      -0.990203     -0.803744     -0.899521
  P      -1.600620      0.078222      0.602712
  O      -0.763310     -0.241419      1.799672
  C      -1.646912      1.856748      0.247627
  C      -1.598661      2.715951      1.358691
  C      -1.652366      4.098979      1.180119
  C      -1.742033      4.637509     -0.108809
  C      -1.768732      3.788090     -1.219314
  C      -1.720979      2.403401     -1.041211
  O      -3.103917     -0.439975      0.848404
  C      -4.423944     -0.190855      0.219333
  C      -4.328835     -0.253094     -1.310406
  C      -4.947002      1.169462      0.697965
  C      -5.283946     -1.342312      0.755825
  O      -2.052420     -4.374361      0.388409
  H       4.456855     -1.100201      1.682423
  H       6.730310     -0.145423      1.970722
  H       7.604508      1.518704      0.333761
  H       6.187960      2.215083     -1.595229
  H       3.919691      1.249720     -1.886912
  H       0.794331     -1.121320     -2.022614
  H       0.709501     -1.685145      0.949590
  H       0.340078     -3.977514     -1.043662
  H      -1.280235     -2.714545      1.324766
  H      -1.901057     -2.715237     -1.719859
  H      -1.437404     -0.347845     -1.787777
  H      -1.502494      2.289983      2.355133
  H      -1.613632      4.758347      2.045558
  H      -1.777222      5.716733     -0.248060
  H      -1.816354      4.203258     -2.224511
  H      -1.723478      1.759718     -1.917275
  H      -3.900613     -1.207454     -1.635668
  H      -3.728872      0.570164     -1.712474
  H      -5.334300     -0.168372     -1.741493
  H      -4.935825      1.214948      1.792991
  H      -4.341300      1.993474      0.308814
  H      -5.980329      1.310242      0.355146
  H      -6.307548     -1.265121      0.367647
  H      -5.320566     -1.309826      1.850633
  H      -4.861392     -2.307667      0.453895
  H      -1.852802     -4.915053     -0.396676
>
57
-1702.27522101; 31P isotropic shielding: 245.093238 ppm
  O       3.254946     -2.872600      0.344728
  C       2.442114     -1.999038      0.124826
  N       2.758435     -0.614536     -0.126932
  C       4.057834     -0.048805      0.071701
  C       5.183756     -0.671354     -0.482005
  C       6.448393     -0.114530     -0.274426
  C       6.589402      1.062571      0.468272
  C       5.458218      1.680564      1.012733
  C       4.190311      1.125758      0.823749
  C       1.633073      0.141290     -0.591364
  O       1.609620      1.342526     -0.765075
  C       0.591315     -0.919373     -0.894978
  C       0.932122     -2.028133      0.117935
  C      -0.040143     -3.148222     -0.225560
  C      -1.333643     -3.110111      0.569031
  C      -1.284275     -2.384415     -0.748189
  C      -0.952869     -0.864438     -0.867392
  P      -1.594836      0.170692      0.518914
  O      -0.787511     -0.014908      1.763908
  C      -1.626385      1.902704     -0.024191
  C      -1.638999      2.312244     -1.364753
  C      -1.671129      3.671249     -1.687577
  C      -1.691222      4.631877     -0.671793
  C      -1.664983      4.230508      0.669049
  C      -1.626001      2.873499      0.992380
  O      -3.105229     -0.317238      0.781802
  C      -4.407174     -0.134021      0.092944
  C      -5.277843     -1.241198      0.700367
  C      -4.267478     -0.325334     -1.422381
  C      -4.947587      1.259254      0.439140
  O      -2.185874     -4.242867      0.550390
  H       5.067883     -1.585916     -1.055293
  H       7.324609     -0.601838     -0.698460
  H       7.576121      1.495536      0.623204
  H       5.561250      2.595946      1.592830
  H       3.308382      1.596934      1.246719
  H       0.865153     -1.299374     -1.894816
  H       0.661989     -1.622506      1.107809
  H       0.286158     -4.072570     -0.695124
  H      -1.347914     -2.532692      1.495136
  H      -1.884295     -2.829318     -1.538194
  H      -1.358069     -0.483638     -1.809232
  H      -1.607073      1.581871     -2.169177
  H      -1.670248      3.979773     -2.731554
  H      -1.714496      5.690687     -0.924196
  H      -1.664693      4.976217      1.462296
  H      -1.578946      2.554072      2.031349
  H      -4.841865     -2.225875      0.495443
  H      -6.289121     -1.204757      0.275606
  H      -5.349394     -1.114148      1.786707
  H      -3.649692      0.458250     -1.873269
  H      -3.839579     -1.306219     -1.655940
  H      -5.259347     -0.270845     -1.888554
  H      -5.972218      1.365553      0.059551
  H      -4.334284      2.050206     -0.003494
  H      -4.965006      1.398047      1.526245
  H      -1.855063     -4.876514      1.212855
>
57
-1702.27813003; 31P isotropic shielding: 244.385505 ppm
  O       3.248993     -2.860800      0.420903
  C       2.435558     -1.992294      0.183107
  N       2.756118     -0.618270     -0.118855
  C       4.064474     -0.062860      0.032635
  C       4.600715      0.749116     -0.975074
  C       5.877481      1.292727     -0.817334
  C       6.624391      1.020461      0.333865
  C       6.084444      0.204408      1.333872
  C       4.803915     -0.334002      1.190919
  C       1.627866      0.125836     -0.597560
  O       1.605137      1.322263     -0.802341
  C       0.581332     -0.941442     -0.860094
  C       0.926209     -2.019745      0.184889
  C      -0.044702     -3.150449     -0.124240
  C      -1.339661     -3.092696      0.667107
  C      -1.290072     -2.405592     -0.670623
  C      -0.962375     -0.888282     -0.832060
  P      -1.611380      0.178728      0.525785
  O      -0.821450      0.010768      1.784190
  C      -1.622755      1.899002     -0.053237
  C      -1.636878      2.279531     -1.402459
  C      -1.653229      3.631356     -1.754498
  C      -1.655346      4.613803     -0.759385
  C      -1.626880      4.241209      0.589542
  C      -1.603941      2.891107      0.942115
  O      -3.127894     -0.296751      0.778326
  C      -4.423129     -0.111802      0.078700
  C      -4.276212     -0.338095     -1.431056
  C      -4.949322      1.294809      0.391518
  C      -5.310732     -1.195212      0.704393
  O      -2.187660     -4.228959      0.678576
  H       4.018199      0.961319     -1.866814
  H       6.290005      1.927715     -1.599426
  H       7.621003      1.442196      0.451262
  H       6.658944     -0.011241      2.232954
  H       4.382245     -0.966100      1.966991
  H       0.852951     -1.354904     -1.847506
  H       0.659722     -1.584143      1.163133
  H       0.283644     -4.087637     -0.566098
  H      -1.358313     -2.488904      1.576024
  H      -1.888378     -2.873846     -1.448331
  H      -1.370047     -0.534517     -1.783422
  H      -1.618468      1.531273     -2.190760
  H      -1.654068      3.917413     -2.804885
  H      -1.665877      5.667144     -1.034569
  H      -1.611473      5.003852      1.366336
  H      -1.554077      2.593056      1.987230
  H      -5.264580     -0.285508     -1.904907
  H      -3.855256     -1.327720     -1.639663
  H      -3.648814      0.429853     -1.895340
  H      -5.971117      1.403931      0.005060
  H      -4.969962      1.457281      1.475296
  H      -4.325468      2.069139     -0.065389
  H      -6.318836     -1.156525      0.272356
  H      -5.387438     -1.043563      1.787200
  H      -4.884625     -2.188903      0.523585
  H      -1.856130     -4.842031      1.359754
>
57
-1702.27787334; 31P isotropic shielding: 244.745921 ppm
  O       3.241459     -2.866096      0.127653
  C       2.439040     -1.970053     -0.030291
  N       2.772351     -0.580102     -0.215657
  C       4.085420     -0.044959     -0.016275
  C       5.189391     -0.656144     -0.623696
  C       6.466866     -0.129934     -0.414509
  C       6.641606      1.005708      0.383529
  C       5.531780      1.612639      0.981932
  C       4.251628      1.087507      0.791173
  C       1.657602      0.213041     -0.632327
  O       1.664179      1.419989     -0.767399
  C       0.585680     -0.813211     -0.964529
  C       0.929978     -1.978910     -0.017639
  C      -0.044055     -3.075543     -0.422511
  C      -1.328026     -3.113778      0.370952
  C      -1.290675     -2.278474     -0.896920
  C      -0.962227     -0.749491     -0.915374
  P      -1.597105      0.165435      0.561786
  O      -0.787674     -0.150770      1.778600
  C      -1.639036      1.939574      0.192028
  C      -1.248043      2.499083     -1.030942
  C      -1.313352      3.881806     -1.224046
  C      -1.768078      4.713699     -0.196796
  C      -2.147501      4.161726      1.033396
  C      -2.079817      2.781848      1.228882
  O      -3.116905     -0.297979      0.803718
  C      -4.406805     -0.218352      0.067043
  C      -4.609391     -1.562709     -0.643127
  C      -4.444905      0.944307     -0.930526
  C      -5.443143     -0.018963      1.180208
  O      -2.139191     -4.271520      0.412471
  H       5.047564     -1.539257     -1.238944
  H       7.326472     -0.608581     -0.880274
  H       7.638176      1.414883      0.539921
  H       5.661303      2.495293      1.605680
  H       3.386093      1.549693      1.256115
  H       0.838123     -1.143451     -1.987802
  H       0.668669     -1.632518      0.996127
  H       0.302082     -3.956616     -0.961085
  H      -1.354203     -2.612370      1.335362
  H      -1.879028     -2.660777     -1.728388
  H      -1.381442     -0.299388     -1.822129
  H      -0.869163      1.871815     -1.832008
  H      -0.998989      4.309121     -2.174585
  H      -1.817652      5.790605     -0.349324
  H      -2.489237      4.807542      1.840546
  H      -2.361027      2.350544      2.187922
  H      -5.637911     -1.631403     -1.020619
  H      -4.427670     -2.396743      0.042916
  H      -3.931548     -1.663449     -1.497546
  H      -5.424765      0.950348     -1.424822
  H      -4.304110      1.909715     -0.436147
  H      -3.681287      0.837805     -1.709565
  H      -5.256873      0.921820      1.711410
  H      -5.388918     -0.842303      1.901475
  H      -6.455159      0.011916      0.757014
  H      -1.986853     -4.797519     -0.393056
