49
-1683.16675208; 31P isotropic shielding: 224.026736 ppm
  C       0.554581     -0.667510     -3.621581
  O      -0.212099     -1.142349     -2.493949
  C       0.533439     -1.683264     -1.380592
  P       1.220952     -0.256916     -0.376935
  O       2.284875      0.489293     -1.138876
  C      -0.262997      0.845776      0.034725
  C      -0.492074      1.862331     -1.147766
  C      -0.395565      3.268293     -0.439938
  C      -0.997076      2.941382      0.950597
  C       0.058437      1.843749      1.256689
  C       1.339171      2.601324      0.935592
  C       1.068210      3.455243     -0.064064
  C      -1.485559      0.039222      0.388735
  S      -2.734361     -0.393243     -0.777304
  C      -3.604593     -1.197624      0.481167
  C      -2.926001     -1.108320      1.672597
  N      -1.739094     -0.406405      1.599112
  C      -3.362281     -1.684472      2.988832
  C       1.904742     -0.978200      1.232555
  O       3.183069     -1.568063      0.946357
  C       4.291462     -0.648390      0.948208
  C       1.048308     -2.048872      1.906760
  C       1.626068     -2.679984     -1.776412
  H       1.010328     -1.501486     -4.175568
  H       1.336182      0.039435     -3.317189
  H      -0.170416     -0.166418     -4.271450
  H      -0.228992     -2.189833     -0.775529
  H      -1.477850      1.719003     -1.600849
  H       0.263841      1.762577     -1.928851
  H      -0.859749      4.075729     -1.013900
  H      -2.025743      2.563112      0.914308
  H      -0.930500      3.781713      1.650395
  H      -0.005603      1.345797      2.223924
  H       2.313951      2.385765      1.361501
  H       1.779630      4.062880     -0.616221
  H      -4.549876     -1.689150      0.283008
  H      -4.323599     -2.201461      2.893810
  H      -2.619317     -2.400029      3.367334
  H      -3.464507     -0.892752      3.743337
  H       2.034368     -0.120722      1.914869
  H       4.205975      0.082172      0.135105
  H       4.352034     -0.123661      1.917598
  H       5.189972     -1.260008      0.814299
  H       0.065472     -1.650162      2.172829
  H       0.916573     -2.918595      1.252515
  H       1.561426     -2.389079      2.815190
  H       1.200149     -3.453718     -2.429375
  H       2.454665     -2.187282     -2.295966
  H       2.042071     -3.160928     -0.884737
>
49
-1683.16819621; 31P isotropic shielding: 218.441117 ppm
  C      -0.849771     -3.522607     -1.385477
  O      -0.343253     -2.324357     -0.791422
  C       0.470766     -1.519146     -1.663146
  P       1.256472     -0.180463     -0.616940
  O       2.352025      0.506684     -1.385001
  C      -0.113183      0.992024     -0.058797
  C      -0.401983      2.053715     -1.191235
  C      -0.242873      3.429223     -0.441848
  C      -0.741984      3.057170      0.979337
  C       0.322642      1.940050      1.163693
  C       1.582419      2.699608      0.772614
  C       1.245909      3.594400     -0.168480
  C      -1.357216      0.215681      0.293354
  S      -1.565290     -0.551042      1.867781
  C      -3.078963     -1.193977      1.334570
  C      -3.342873     -0.792674      0.048235
  N      -2.365880      0.003237     -0.515936
  C      -4.566691     -1.133356     -0.751788
  C       1.873222     -1.104632      0.901696
  O       2.564525     -0.197736      1.782831
  C       3.919301      0.144563      1.416592
  C       2.685132     -2.351268      0.526029
  C      -0.245705     -0.968421     -2.901834
  H      -1.603813     -3.310286     -2.158081
  H      -1.318063     -4.093149     -0.576790
  H      -0.037654     -4.122241     -1.833024
  H       1.344212     -2.111815     -1.997068
  H      -1.414793      1.913109     -1.575620
  H       0.309383      1.971681     -2.016906
  H      -0.744067      4.259421     -0.948144
  H      -1.776344      2.693672      1.005351
  H      -0.611500      3.870911      1.701300
  H       0.361101      1.419119      2.121616
  H       2.575892      2.461588      1.129222
  H       1.918960      4.223045     -0.745161
  H      -3.692592     -1.801289      1.989415
  H      -5.246982     -1.774992     -0.180683
  H      -5.107459     -0.221631     -1.040244
  H      -4.291510     -1.654126     -1.679091
  H       0.991745     -1.418741      1.470580
  H       4.231010      0.906249      2.138985
  H       4.590874     -0.721801      1.510721
  H       3.974781      0.546734      0.397833
  H       3.488264     -2.128895     -0.185849
  H       3.128909     -2.781009      1.433825
  H       2.023723     -3.103620      0.084546
  H      -1.167962     -0.449288     -2.624692
  H       0.422781     -0.271892     -3.422141
  H      -0.488346     -1.777028     -3.603230
>
49
-1683.16797121; 31P isotropic shielding: 226.715036 ppm
  C      -0.697368     -1.790001     -3.415263
  O       0.005518     -0.917286     -2.524458
  C       0.677144     -1.592742     -1.443472
  P       1.301177     -0.206869     -0.354921
  O       2.409932      0.556836     -1.020035
  C      -0.190831      0.884583      0.034480
  C      -0.384764      1.916532     -1.141973
  C      -0.300130      3.312134     -0.413339
  C      -0.943853      2.970558      0.954844
  C       0.098367      1.865434      1.278900
  C       1.390502      2.621942      1.005980
  C       1.152353      3.488277      0.008610
  C      -1.417015      0.069670      0.347737
  S      -2.631478     -0.356190     -0.858332
  C      -3.532642     -1.181959      0.365439
  C      -2.889331     -1.099276      1.576350
  N      -1.703876     -0.390482      1.544356
  C      -3.360465     -1.688396      2.874512
  C       1.888960     -1.020162      1.249389
  O       3.208384     -1.544339      1.036206
  C       4.274551     -0.584136      1.168459
  C       1.029758     -2.164506      1.785665
  C       1.855949     -2.457756     -1.908089
  H      -1.278864     -1.145986     -4.083123
  H      -1.384470     -2.453446     -2.863232
  H      -0.009951     -2.402377     -4.017667
  H      -0.055556     -2.201135     -0.884470
  H      -1.361407      1.784269     -1.618277
  H       0.385436      1.813049     -1.908688
  H      -0.743807      4.129460     -0.989596
  H      -1.972661      2.596914      0.883581
  H      -0.895136      3.801612      1.667085
  H       0.003883      1.354509      2.236894
  H       2.351584      2.393722      1.455508
  H       1.882820      4.097222     -0.516451
  H      -4.470972     -1.673419      0.136416
  H      -3.484320     -0.903503      3.632843
  H      -4.317970     -2.205937      2.748802
  H      -2.626668     -2.405949      3.266936
  H       1.925642     -0.207529      1.995214
  H       5.204990     -1.155837      1.086357
  H       4.225873      0.176132      0.380413
  H       4.232947     -0.101249      2.160351
  H       1.485799     -2.542292      2.709690
  H       0.015396     -1.819580      2.002128
  H       0.986136     -2.994672      1.071533
  H       2.386059     -2.883041     -1.048272
  H       1.509113     -3.284826     -2.539930
  H       2.565463     -1.842679     -2.472589
>
49
-1683.16826755; 31P isotropic shielding: 225.513587 ppm
  C      -0.699313     -1.770305     -3.414179
  O       0.003640     -0.900770     -2.520274
  C       0.672147     -1.579777     -1.439503
  P       1.297619     -0.197178     -0.347662
  O       2.409162      0.565082     -1.009853
  C      -0.192584      0.896989      0.041225
  C      -0.381875      1.931427     -1.133823
  C      -0.295112      3.325560     -0.402632
  C      -0.942151      2.983260      0.963794
  C       0.096714      1.874998      1.287863
  C       1.391214      2.628770      1.018629
  C       1.157040      3.497344      0.022270
  C      -1.421189      0.084442      0.350899
  S      -2.634152     -0.337075     -0.858132
  C      -3.539563     -1.162607      0.362649
  C      -2.898470     -1.083026      1.574945
  N      -1.711407     -0.376824      1.546300
  C      -3.373745     -1.672602      2.871365
  C       1.881003     -1.014576      1.256179
  O       3.199713     -1.541102      1.044296
  C       4.267464     -0.583067      1.179489
  C       1.018384     -2.157998      1.788878
  C       1.849659     -2.446645     -1.903965
  H      -0.011943     -2.382594     -4.016706
  H      -1.278487     -1.123788     -4.081632
  H      -1.388574     -2.433696     -2.864790
  H      -0.062815     -2.187527     -0.882758
  H      -1.357912      1.802396     -1.612246
  H       0.389558      1.827452     -1.899238
  H      -0.735655      4.144988     -0.978307
  H      -1.971746      2.612286      0.890037
  H      -0.892641      3.812964      1.677556
  H      -0.000761      1.362670      2.244802
  H       2.350921      2.397295      1.469430
  H       1.889981      4.105290     -0.500503
  H      -4.478526     -1.651647      0.131058
  H      -4.330093     -2.191406      2.742063
  H      -2.640470     -2.389047      3.266714
  H      -3.501714     -0.887836      3.629187
  H       1.918178     -0.203392      2.003551
  H       5.196995     -1.156300      1.097719
  H       4.221237      0.178540      0.392593
  H       4.225442     -0.101674      2.172087
  H       0.004590     -1.811075      2.004840
  H       0.973494     -2.986544      1.072919
  H       1.472407     -2.538940      2.712600
  H       2.560807     -1.832411     -2.467332
  H       2.378291     -2.873779     -1.044153
  H       1.501735     -3.272447     -2.536851
>
49
-1683.16826456; 31P isotropic shielding: 225.501276 ppm
  C      -0.703528     -1.746312     -3.414775
  O       0.000779     -0.880543     -2.518231
  C       0.665240     -1.563567     -1.437408
  P       1.292829     -0.184840     -0.341929
  O       2.407573      0.575622     -1.000884
  C      -0.195088      0.912740      0.046719
  C      -0.378373      1.950853     -1.126045
  C      -0.288699      3.342781     -0.391008
  C      -0.939949      2.999043      0.973033
  C       0.094530      1.886563      1.296555
  C       1.392100      2.636766      1.032247
  C       1.163028      3.508675      0.037623
  C      -1.426780      0.103232      0.351559
  S      -2.638734     -0.310945     -0.860995
  C      -3.549008     -1.137324      0.355574
  C      -2.909967     -1.063392      1.569288
  N      -1.720729     -0.360742      1.544995
  C      -3.389618     -1.655258      2.863038
  C       1.871532     -1.006969      1.261156
  O       3.188789     -1.537377      1.050012
  C       4.259411     -0.582980      1.188309
  C       1.004343     -2.148336      1.790808
  C       1.840865     -2.433073     -1.901549
  H      -1.279580     -1.096809     -4.082022
  H      -1.395797     -2.408326     -2.867533
  H      -0.017179     -2.359799     -4.017242
  H      -0.072507     -2.170170     -0.883141
  H      -1.353702      1.826343     -1.607093
  H       0.394524      1.846467     -1.889934
  H      -0.725223      4.165169     -0.965523
  H      -1.970597      2.631675      0.895978
  H      -0.889292      3.826715      1.689064
  H      -0.006726      1.371960      2.251879
  H       2.350081      2.400908      1.484447
  H       1.899196      4.115445     -0.481971
  H      -4.489061     -1.622720      0.120772
  H      -3.520523     -0.871894      3.621839
  H      -4.345432     -2.173989      2.729532
  H      -2.657516     -2.372179      3.259629
  H       1.910431     -0.197150      2.009931
  H       5.187256     -1.158983      1.106900
  H       4.216616      0.180082      0.402645
  H       4.217516     -0.103061      2.181632
  H      -0.008163     -1.797859      2.007173
  H       0.956210     -2.975003      1.072886
  H       1.456579     -2.533339      2.713719
  H       2.554526     -1.820043     -2.463038
  H       2.367079     -2.863168     -1.041735
  H       1.491339     -3.256792     -2.536285
>
49
-1683.16826406; 31P isotropic shielding: 225.467145 ppm
  C      -0.709022     -1.722402     -3.417548
  O      -0.002910     -0.861186     -2.518100
  C       0.658224     -1.549078     -1.438401
  P       1.288447     -0.174383     -0.338780
  O       2.406623      0.584124     -0.994256
  C      -0.197179      0.926708      0.049402
  C      -0.375681      1.967455     -1.121422
  C      -0.283268      3.357746     -0.383656
  C      -0.937733      3.013307      0.978747
  C       0.093091      1.897232      1.301741
  C       1.393158      2.644183      1.040920
  C       1.168191      3.518587      0.047555
  C      -1.431501      0.119888      0.350878
  S      -2.644293     -0.286529     -0.863510
  C      -3.557672     -1.113965      0.349993
  C      -2.918992     -1.045824      1.564176
  N      -1.727511     -0.346822      1.542811
  C      -3.401134     -1.640435      2.855783
  C       1.861976     -1.001997      1.263914
  O       3.179005     -1.533793      1.054611
  C       4.250449     -0.581096      1.197952
  C       0.991816     -2.143335      1.788530
  C       1.832340     -2.420265     -1.903371
  H      -1.404519     -2.383128     -2.872872
  H      -0.024177     -2.337108     -4.020506
  H      -1.281708     -1.069134     -4.084053
  H      -0.081725     -2.155235     -0.886649
  H      -1.350398      1.846636     -1.604627
  H       0.398347      1.862460     -1.884115
  H      -0.716424      4.182447     -0.957400
  H      -1.969298      2.649038      0.899376
  H      -0.885880      3.839471      1.696426
  H      -0.010956      1.380868      2.255814
  H       2.349753      2.404696      1.494133
  H       1.906964      4.124161     -0.469724
  H      -4.499097     -1.595694      0.113174
  H      -3.529203     -0.859304      3.617349
  H      -4.358865     -2.155087      2.720233
  H      -2.671834     -2.361546      3.249940
  H       1.899900     -0.194355      2.015056
  H       5.177892     -1.158038      1.118454
  H       4.211245      0.183333      0.413422
  H       4.206099     -0.102679      2.191887
  H       1.441989     -2.531862      2.710963
  H      -0.020323     -1.791292      2.004152
  H       0.942823     -2.968005      1.068347
  H       2.356245     -2.854015     -1.043990
  H       1.481486     -3.241344     -2.540810
  H       2.548340     -1.807503     -2.462149
>
49
-1683.16826860; 31P isotropic shielding: 225.363722 ppm
  C      -0.395079     -3.467727     -1.460614
  O      -0.246693     -2.144848     -0.935304
  C       0.849342     -1.410934     -1.502721
  P       1.329247     -0.004541     -0.369390
  O       2.423099      0.795019     -1.026836
  C      -0.181510      1.077369      0.018486
  C      -0.261799      2.233419     -1.049011
  C      -0.213395      3.541506     -0.169117
  C      -0.966843      3.071398      1.102219
  C       0.027735      1.911646      1.381238
  C       1.349525      2.662247      1.289651
  C       1.204991      3.634726      0.375778
  C      -1.447112      0.272626      0.136179
  S      -2.607379      0.111352     -1.181525
  C      -3.550639     -0.949469     -0.196624
  C      -2.968585     -1.101039      1.038629
  N      -1.793379     -0.397305      1.207123
  C      -3.496553     -1.934152      2.170355
  C       1.971600     -0.836764      1.194901
  O       3.103021     -1.630717      0.789018
  C       4.358386     -0.923423      0.737656
  C       1.023437     -1.742104      1.973200
  C       0.602874     -0.917848     -2.934785
  H       0.540258     -4.043449     -1.355262
  H      -0.692305     -3.459238     -2.521030
  H      -1.185906     -3.946687     -0.874204
  H       1.758808     -2.039567     -1.485991
  H      -1.200019      2.183476     -1.611331
  H       0.572496      2.200582     -1.753632
  H      -0.597398      4.425879     -0.685943
  H      -1.993260      2.734834      0.913661
  H      -0.956986      3.821440      1.900657
  H      -0.146818      1.300001      2.266330
  H       2.268443      2.369928      1.788019
  H       1.983765      4.279220     -0.022084
  H      -4.475410     -1.380984     -0.560961
  H      -2.770052     -2.709180      2.450528
  H      -3.670165     -1.313965      3.060256
  H      -4.438612     -2.422269      1.896585
  H       2.315026     -0.007341      1.835743
  H       5.118732     -1.678370      0.510480
  H       4.348963     -0.146438     -0.036221
  H       4.581779     -0.468273      1.717765
  H       1.545958     -2.112849      2.864788
  H       0.116740     -1.206884      2.269378
  H       0.718349     -2.595028      1.360029
  H      -0.315265     -0.323669     -2.999648
  H       1.448453     -0.300508     -3.258328
  H       0.513435     -1.764598     -3.627090
>
49
-1683.16850425; 31P isotropic shielding: 224.891030 ppm
  C      -0.110045     -3.685240     -0.581815
  O      -0.188418     -2.263278     -0.437930
  C       0.674651     -1.544159     -1.338157
  P       1.249281      0.035312     -0.526055
  O       2.162707      0.781764     -1.462781
  C      -0.250264      1.090744     -0.005524
  C      -0.471220      2.201458     -1.110609
  C      -0.354910      3.542218     -0.298518
  C      -0.986288      3.121670      1.054477
  C       0.047718      1.986792      1.289617
  C       1.345546      2.753539      1.057176
  C       1.105289      3.676738      0.113721
  C      -1.491636      0.257789      0.173868
  S      -1.957366     -0.437415      1.723997
  C      -3.319914     -1.179783      0.963346
  C      -3.352336     -0.864043     -0.372701
  N      -2.322566     -0.046949     -0.792970
  C      -4.382015     -1.319365     -1.365327
  C       2.233311     -0.564384      0.973369
  O       3.199237     -1.508805      0.472127
  C       4.413687     -0.924470     -0.042485
  C       1.491459     -1.239753      2.122613
  C       0.059964     -1.302702     -2.721149
  H      -0.778333     -4.111918      0.173712
  H       0.917947     -4.044463     -0.407604
  H      -0.441370     -4.015325     -1.579246
  H       1.624827     -2.094991     -1.445226
  H      -1.463500      2.081911     -1.551751
  H       0.280817      2.141923     -1.900717
  H      -0.795457      4.401409     -0.812538
  H      -2.019461      2.764750      0.969424
  H      -0.918856      3.902759      1.820070
  H      -0.023859      1.436510      2.230030
  H       2.305032      2.504922      1.499608
  H       1.833964      4.317085     -0.375258
  H      -4.018397     -1.783714      1.530351
  H      -5.147556     -1.939634     -0.885685
  H      -4.874691     -0.457876     -1.836074
  H      -3.912341     -1.904259     -2.168021
  H       2.757339      0.334293      1.336792
  H       4.900760     -0.307414      0.731250
  H       5.066795     -1.765966     -0.297050
  H       4.219109     -0.308765     -0.929299
  H       0.779318     -0.556568      2.594215
  H       0.943431     -2.117875      1.773807
  H       2.224716     -1.549509      2.878727
  H      -0.882533     -0.752937     -2.638964
  H       0.761359     -0.730005     -3.339293
  H      -0.131333     -2.261222     -3.222049
>
49
-1683.16715400; 31P isotropic shielding: 224.127591 ppm
  C       0.545386     -0.654366     -3.613970
  O      -0.203969     -1.160317     -2.487791
  C       0.561859     -1.688698     -1.382743
  P       1.230959     -0.256175     -0.374923
  O       2.293810      0.499798     -1.129173
  C      -0.262772      0.834104      0.033474
  C      -0.497676      1.848689     -1.150525
  C      -0.413602      3.255795     -0.443553
  C      -1.013439      2.925280      0.946838
  C       0.050482      1.835708      1.254149
  C       1.325353      2.603710      0.933339
  C       1.048179      3.455276     -0.066484
  C      -1.483792      0.022859      0.385821
  S      -2.711926     -0.444384     -0.785477
  C      -3.595334     -1.225742      0.475412
  C      -2.935494     -1.105766      1.676228
  N      -1.752829     -0.398618      1.603111
  C      -3.401671     -1.642221      3.003685
  C       1.911710     -0.977769      1.234737
  O       3.182521     -1.584868      0.947326
  C       4.301722     -0.677988      0.942887
  C       1.046372     -2.036254      1.916344
  C       1.671411     -2.660352     -1.794056
  H       1.337538      0.037567     -3.302727
  H      -0.186761     -0.127366     -4.234742
  H       0.984192     -1.474583     -4.201481
  H      -0.183164     -2.214792     -0.772507
  H      -1.481661      1.696078     -1.604346
  H       0.260691      1.755285     -1.930013
  H      -0.883652      4.058754     -1.019089
  H      -2.039306      2.539671      0.911052
  H      -0.952424      3.766423      1.646155
  H      -0.009917      1.339453      2.222418
  H       2.301206      2.397017      1.361161
  H       1.754407      4.070317     -0.617134
  H      -4.532678     -1.730488      0.271593
  H      -2.576982     -1.621335      3.723558
  H      -4.221717     -1.035556      3.413406
  H      -3.765110     -2.673738      2.915200
  H       2.055612     -0.118825      1.912339
  H       5.188485     -1.295549      0.765431
  H       4.202614      0.075977      0.153077
  H       4.395997     -0.182291      1.924818
  H       0.054466     -1.640604      2.151388
  H       0.938372     -2.922166      1.279455
  H       1.539412     -2.350922      2.844956
  H       2.480380     -2.147318     -2.324824
  H       2.111561     -3.130866     -0.908458
  H       1.253981     -3.442645     -2.442239
>
49
-1683.16641024; 31P isotropic shielding: 218.795784 ppm
  C      -0.094842     -3.680256     -0.614651
  O      -0.183932     -2.260090     -0.460118
  C       0.673278     -1.527640     -1.355696
  P       1.244153      0.045640     -0.529413
  O       2.152925      0.803855     -1.460965
  C      -0.256614      1.090611      0.004958
  C      -0.486464      2.209751     -1.089827
  C      -0.372678      3.544125     -0.266608
  C      -0.996567      3.109262      1.085306
  C       0.043055      1.976882      1.306493
  C       1.336688      2.750879      1.075195
  C       1.088630      3.681256      0.140759
  C      -1.494234      0.251283      0.182373
  S      -1.951093     -0.458733      1.728299
  C      -3.314251     -1.199199      0.967066
  C      -3.353245     -0.872368     -0.366179
  N      -2.328025     -0.048118     -0.783640
  C      -4.385203     -1.323316     -1.358432
  C       2.233969     -0.565212      0.961574
  O       3.201002     -1.502852      0.450570
  C       4.411329     -0.911680     -0.066102
  C       1.497469     -1.252361      2.107764
  C       0.052892     -1.275843     -2.734119
  H      -0.424348     -4.005190     -1.614412
  H      -0.759224     -4.117587      0.138225
  H       0.935853     -4.033388     -0.443952
  H       1.625520     -2.073159     -1.470961
  H      -1.479689      2.089447     -1.528551
  H       0.263306      2.160525     -1.882821
  H      -0.819401      4.405639     -0.771314
  H      -2.028644      2.748875      1.001619
  H      -0.929162      3.884197      1.857144
  H      -0.022888      1.418235      2.242338
  H       2.299341      2.502717      1.510977
  H       1.813069      4.328416     -0.345542
  H      -4.008418     -1.810378      1.531608
  H      -5.146727     -1.949808     -0.880484
  H      -4.882386     -0.459855     -1.820704
  H      -3.916711     -1.900678     -2.167257
  H       2.756388      0.331946      1.331384
  H       4.900309     -0.298367      0.709452
  H       5.065232     -1.749886     -0.329183
  H       4.211020     -0.290199     -0.947566
  H       0.790297     -0.572944      2.592055
  H       0.945742     -2.125514      1.752434
  H       2.235440     -1.571935      2.855124
  H       0.745535     -0.685348     -3.345506
  H      -0.126744     -2.229596     -3.248186
  H      -0.896052     -0.738842     -2.642329
>
49
-1683.16715191; 31P isotropic shielding: 224.290350 ppm
  C      -0.729170     -3.506043     -1.499831
  O      -0.279084     -2.282120     -0.913211
  C       0.422336     -1.408895     -1.817132
  P       1.240273     -0.060303     -0.806528
  O       2.243505      0.676374     -1.644276
  C      -0.112363      1.050698     -0.101610
  C      -0.531041      2.112794     -1.194165
  C      -0.308654      3.488361     -0.460985
  C      -0.685290      3.108884      0.993302
  C       0.399460      2.003280      1.087110
  C       1.620425      2.765929      0.593613
  C       1.198561      3.658410     -0.315469
  C      -1.282116      0.218037      0.348667
  S      -1.291493     -0.589969      1.917124
  C      -2.816734     -1.302112      1.519806
  C      -3.227403     -0.890144      0.276059
  N      -2.353398     -0.032085     -0.362329
  C      -4.503097     -1.283366     -0.410634
  C       2.005927     -1.045404      0.593181
  O       2.483091     -0.090857      1.559689
  C       2.664542     -0.639336      2.869098
  C       3.140340     -1.924225      0.048439
  C      -0.424663     -0.859409     -2.970894
  H      -1.547287     -3.343105     -2.217956
  H      -1.097369     -4.126265     -0.675884
  H       0.096420     -4.031217     -2.011482
  H       1.289921     -1.949207     -2.242126
  H      -1.578124      1.962523     -1.468499
  H       0.087235      2.042895     -2.092296
  H      -0.855059      4.316653     -0.921874
  H      -1.710885      2.735072      1.104354
  H      -0.502779      3.921717      1.705162
  H       0.511478      1.479527      2.035854
  H       2.641724      2.502493      0.843085
  H       1.818115      4.279862     -0.956271
  H      -3.330545     -1.954807      2.215635
  H      -5.113747     -0.397332     -0.631503
  H      -4.289999     -1.777727     -1.368295
  H      -5.093165     -1.966786      0.210242
  H       1.216500     -1.668928      1.037588
  H       3.451638     -1.409792      2.889997
  H       2.967289      0.191595      3.515133
  H       1.726891     -1.077035      3.250760
  H       3.659059     -2.426899      0.874514
  H       2.748121     -2.704752     -0.614710
  H       3.861597     -1.314595     -0.507076
  H       0.165432     -0.126899     -3.534784
  H      -0.702867     -1.662327     -3.665497
  H      -1.335051     -0.381963     -2.596496
>
49
-1683.16902548; 31P isotropic shielding: 228.608371 ppm
  C      -0.847490     -3.289587     -1.959099
  O      -0.426264     -2.169221     -1.174487
  C       0.643595     -1.406570     -1.755547
  P       1.304433     -0.211274     -0.471093
  O       2.542141      0.450784     -1.013822
  C      -0.070719      1.005388     -0.046864
  C      -0.173564      2.124866     -1.145667
  C      -0.037065      3.461303     -0.320025
  C      -0.716865      3.058340      1.014062
  C       0.260376      1.878481      1.270063
  C       1.593461      2.579094      1.060581
  C       1.416824      3.528971      0.128827
  C      -1.349636      0.248077      0.193645
  S      -2.713873      0.264685     -0.923315
  C      -3.545293     -0.848267      0.105419
  C      -2.778513     -1.150014      1.204642
  N      -1.551724     -0.519009      1.236986
  C      -3.162132     -2.070815      2.326338
  C       1.585038     -1.244153      1.072394
  O       2.270020     -0.448052      2.059327
  C       3.690990     -0.271921      1.876200
  C       2.253754     -2.590850      0.773740
  C       0.293937     -0.706918     -3.075891
  H      -1.557566     -3.848885     -1.341562
  H       0.006231     -3.940666     -2.216768
  H      -1.349514     -2.976740     -2.887195
  H       1.511176     -2.070315     -1.935472
  H      -1.137018      2.084914     -1.665846
  H       0.620915      2.044940     -1.891814
  H      -0.429951      4.337346     -0.844635
  H      -1.764902      2.752575      0.907957
  H      -0.630653      3.835427      1.781436
  H       0.143402      1.296839      2.182921
  H       2.526003      2.264248      1.511939
  H       2.183746      4.138921     -0.340768
  H      -4.541921     -1.198726     -0.135442
  H      -2.455688     -2.909285      2.398115
  H      -3.135085     -1.540704      3.287899
  H      -4.169460     -2.476335      2.179345
  H       0.592909     -1.411642      1.504737
  H       4.234321     -1.218662      2.017027
  H       3.923900      0.147456      0.890018
  H       3.998931      0.426381      2.661781
  H       1.557916     -3.230123      0.219928
  H       3.175667     -2.486747      0.189456
  H       2.495307     -3.092067      1.720425
  H       1.123259     -0.052202     -3.367903
  H       0.145105     -1.437762     -3.880504
  H      -0.616961     -0.107826     -2.980591
>
49
-1683.16863972; 31P isotropic shielding: 226.207863 ppm
  C      -0.656067     -3.560645     -1.472052
  O      -0.331676     -2.283540     -0.917591
  C       0.383577     -1.411494     -1.811428
  P       1.220253     -0.059972     -0.812224
  O       2.217228      0.655480     -1.676113
  C      -0.114103      1.070845     -0.107472
  C      -0.530043      2.118069     -1.215206
  C      -0.279080      3.503670     -0.511355
  C      -0.659517      3.157281      0.950064
  C       0.408136      2.038812      1.065908
  C       1.639653      2.772829      0.557113
  C       1.230872      3.652439     -0.370881
  C      -1.281927      0.244774      0.358469
  S      -1.272429     -0.561624      1.924873
  C      -2.812299     -1.254339      1.558093
  C      -3.238316     -0.845948      0.316925
  N      -2.365083     -0.000639     -0.337921
  C      -4.518528     -1.255596     -0.358608
  C       1.990970     -1.058393      0.577444
  O       2.335052     -0.151410      1.638688
  C       2.530153     -0.792899      2.904203
  C       3.218624     -1.806036      0.038695
  C      -0.460929     -0.862959     -2.967434
  H      -1.429241     -3.490143     -2.253081
  H      -1.040435     -4.168946     -0.646343
  H       0.237592     -4.048684     -1.898874
  H       1.249160     -1.957108     -2.233446
  H      -1.583993      1.982033     -1.470139
  H       0.073519      2.020140     -2.120484
  H      -0.815168      4.331419     -0.985203
  H      -1.690783      2.801368      1.068762
  H      -0.464599      3.980859      1.646320
  H       0.508753      1.529094      2.022500
  H       2.658768      2.508540      0.816285
  H       1.862774      4.248931     -1.023273
  H      -3.324811     -1.894078      2.267118
  H      -4.398849     -2.216608     -0.879880
  H      -5.337306     -1.367215      0.362476
  H      -4.803192     -0.505542     -1.104284
  H       1.223692     -1.767836      0.921912
  H       2.769789     -0.000008      3.620573
  H       1.614774     -1.315750      3.228047
  H       3.363742     -1.511994      2.878652
  H       2.950227     -2.452331     -0.806015
  H       3.968973     -1.086326     -0.305843
  H       3.654170     -2.446954      0.815495
  H      -0.818861     -1.683400     -3.602939
  H      -1.327859     -0.310408     -2.594612
  H       0.158345     -0.206059     -3.589610
>
49
-1683.16772829; 31P isotropic shielding: 226.957379 ppm
  C      -1.452510     -1.815355     -2.871618
  O      -0.403105     -0.985860     -2.364080
  C       0.498685     -1.671151     -1.474343
  P       1.283496     -0.335355     -0.398115
  O       2.487775      0.274213     -1.059686
  C      -0.105418      0.901099     -0.087709
  C      -0.188802      1.929189     -1.271782
  C      -0.023648      3.326794     -0.564111
  C      -0.731194      3.062009      0.791178
  C       0.207957      1.882712      1.161462
  C       1.562672      2.533831      0.920353
  C       1.424601      3.397869     -0.097175
  C      -1.381277      0.150488      0.183704
  S      -2.920783      0.519122     -0.597742
  C      -3.673912     -0.730828      0.331415
  C      -2.756880     -1.342445      1.149400
  N      -1.475985     -0.829854      1.052404
  C      -3.027936     -2.471941      2.100408
  C       1.663896     -1.137705      1.273016
  O       2.477693     -0.250695      2.059744
  C       3.883640     -0.199707      1.733219
  C       2.220013     -2.563615      1.180766
  C       1.577205     -2.429564     -2.256772
  H      -1.062827     -2.635479     -3.495534
  H      -2.089927     -1.171921     -3.486278
  H      -2.053034     -2.239795     -2.050403
  H      -0.074360     -2.350654     -0.822469
  H      -1.150374      1.854236     -1.790041
  H       0.595996      1.758553     -2.012743
  H      -0.385732      4.165509     -1.166151
  H      -1.787202      2.784841      0.698174
  H      -0.627750      3.898456      1.491088
  H       0.062887      1.387874      2.122552
  H       2.475745      2.232936      1.417014
  H       2.215329      3.942920     -0.605211
  H      -4.731233     -0.945567      0.230519
  H      -4.082672     -2.767179      2.072589
  H      -2.414603     -3.348599      1.849945
  H      -2.773918     -2.181319      3.128856
  H       0.702021     -1.166283      1.795116
  H       4.388595     -1.143351      1.990055
  H       4.042621      0.037348      0.674838
  H       4.297608      0.597504      2.359875
  H       2.466912     -2.916499      2.191068
  H       1.463281     -3.240019      0.766758
  H       3.119998     -2.632926      0.559872
  H       1.110074     -3.138554     -2.952263
  H       2.192768     -1.721405     -2.821121
  H       2.232814     -2.998479     -1.588641
>
49
-1683.16718731; 31P isotropic shielding: 217.290634 ppm
  C       1.792990     -1.070694     -3.927379
  O       1.206428     -0.402938     -2.802002
  C       2.095766     -0.280975     -1.677777
  P       1.128096     -0.174511     -0.061022
  O       2.040124      0.310378      1.036647
  C      -0.473216      0.832427     -0.074430
  C      -1.227988      0.986513     -1.444640
  C      -1.277687      2.546517     -1.639305
  C      -1.471462      3.015470     -0.171657
  C      -0.151206      2.358344      0.310627
  C       0.820969      2.899041     -0.722571
  C       0.155650      3.006492     -1.884579
  C      -1.348491      0.213768      0.987421
  S      -0.944002      0.349138      2.699998
  C      -2.315245     -0.636397      3.074416
  C      -2.978151     -1.002241      1.927618
  N      -2.417041     -0.513838      0.762720
  C      -4.214098     -1.851367      1.849999
  C       0.624172     -1.976003      0.177836
  O       1.826651     -2.769169      0.206086
  C       2.481720     -2.820638      1.490604
  C      -0.295457     -2.553023     -0.896233
  C       3.166334      0.797752     -1.856129
  H       2.612011     -0.483614     -4.370447
  H       0.996399     -1.190074     -4.669298
  H       2.178120     -2.063994     -3.641754
  H       2.600687     -1.251130     -1.514333
  H      -2.235020      0.570758     -1.353074
  H      -0.715254      0.489331     -2.266851
  H      -2.021868      2.870054     -2.372993
  H      -2.370375      2.607999      0.306849
  H      -1.449600      4.105737     -0.064669
  H       0.141310      2.482338      1.353579
  H       1.877302      3.054623     -0.534968
  H       0.564134      3.264701     -2.858169
  H      -2.561969     -0.887086      4.099533
  H      -4.535439     -2.173214      2.846863
  H      -5.037334     -1.295437      1.380894
  H      -4.033255     -2.743977      1.236000
  H       0.131004     -2.022226      1.161810
  H       2.819092     -1.827092      1.810078
  H       1.802272     -3.240703      2.251196
  H       3.339328     -3.490018      1.364017
  H      -0.542638     -3.589571     -0.632734
  H      -1.225128     -1.979838     -0.965230
  H       0.194269     -2.549964     -1.874384
  H       3.931024      0.460959     -2.568086
  H       2.724398      1.725520     -2.227985
  H       3.657473      0.994872     -0.896394
>
49
-1683.16779941; 31P isotropic shielding: 223.589289 ppm
  C      -1.509456     -1.816510     -2.867969
  O      -0.438402     -1.022772     -2.348524
  C       0.421873     -1.734254     -1.437730
  P       1.253067     -0.412956     -0.378457
  O       2.479326      0.143212     -1.047542
  C      -0.092309      0.875226     -0.086713
  C      -0.142323      1.888603     -1.285315
  C       0.069838      3.289411     -0.597475
  C      -0.644084      3.066908      0.762308
  C       0.256268      1.862694      1.147764
  C       1.631484      2.464926      0.895696
  C       1.520351      3.319092     -0.133336
  C      -1.392801      0.172834      0.196360
  S      -2.913323      0.562636     -0.611155
  C      -3.712244     -0.634038      0.349336
  C      -2.821440     -1.246757      1.194986
  N      -1.524696     -0.776781      1.094034
  C      -3.135499     -2.335923      2.179223
  C       1.601091     -1.202307      1.306445
  O       2.447592     -0.334756      2.080280
  C       3.854648     -0.341843      1.753993
  C       2.101886     -2.649740      1.238708
  C       1.473667     -2.552641     -2.195839
  H      -2.100605     -1.159163     -3.513432
  H      -2.150079     -2.196113     -2.055048
  H      -1.140426     -2.666333     -3.463753
  H      -0.188708     -2.376525     -0.782011
  H      -1.106500      1.839225     -1.801764
  H       0.635479      1.680858     -2.024059
  H      -0.265149      4.131225     -1.210787
  H      -1.708707      2.822903      0.674164
  H      -0.512043      3.909504      1.449902
  H       0.096980      1.386350      2.115844
  H       2.534225      2.140099      1.396214
  H       2.327528      3.830948     -0.649982
  H      -4.774756     -0.819620      0.245315
  H      -4.197237     -2.604282      2.145826
  H      -2.542292     -3.236234      1.967466
  H      -2.888419     -2.017443      3.201130
  H       0.637960     -1.183487      1.826549
  H       4.323957     -1.298894      2.028137
  H       4.022070     -0.129807      0.691676
  H       4.297922      0.450827      2.366178
  H       2.332157     -2.996265      2.255093
  H       1.321519     -3.303091      0.831615
  H       3.000493     -2.761879      0.622143
  H       2.127610     -1.882115     -2.762941
  H       2.094216     -3.141254     -1.511557
  H       0.983089     -3.250293     -2.886597
>
49
-1683.16715201; 31P isotropic shielding: 217.365694 ppm
  C      -0.731194     -3.296778     -2.015361
  O      -0.351858     -2.140010     -1.263300
  C       0.632207     -1.313139     -1.907245
  P       1.350173     -0.127555     -0.645192
  O       2.536586      0.570965     -1.242173
  C      -0.016580      1.046000     -0.089408
  C      -0.232340      2.156992     -1.184311
  C      -0.019030      3.502283     -0.390156
  C      -0.599101      3.113726      0.992209
  C       0.395637      1.939902      1.190346
  C       1.711634      2.630863      0.876169
  C       1.465744      3.568192     -0.053275
  C      -1.243473      0.250097      0.259297
  S      -2.697757      0.218420     -0.733694
  C      -3.400657     -0.917252      0.363028
  C      -2.530895     -1.192482      1.390307
  N      -1.326532     -0.522212      1.316828
  C      -2.786146     -2.126321      2.537794
  C       1.746410     -1.251956      0.790688
  O       2.196321     -0.401452      1.863503
  C       1.784966     -0.865522      3.156320
  C       2.826826     -2.271775      0.413366
  C       0.143406     -0.609828     -3.179287
  H      -1.304494     -3.034289     -2.917932
  H      -1.363211     -3.901003     -1.356475
  H       0.154104     -3.885057     -2.313732
  H       1.510481     -1.932200     -2.172631
  H      -1.244391      2.111464     -1.602605
  H       0.480953      2.070893     -2.007194
  H      -0.448360      4.373480     -0.894032
  H      -1.651311      2.804014      0.963000
  H      -0.461619      3.898327      1.744534
  H       0.335118      1.372683      2.115439
  H       2.675442      2.295884      1.241969
  H       2.198227      4.159898     -0.595386
  H      -4.402138     -1.301331      0.209545
  H      -3.785477     -2.570773      2.471405
  H      -2.045117     -2.937454      2.549490
  H      -2.703813     -1.595479      3.495942
  H       0.810253     -1.750260      1.071255
  H       2.198287     -1.863580      3.378846
  H       2.180923     -0.149273      3.884483
  H       0.687193     -0.901827      3.227599
  H       3.711344     -1.764341      0.011900
  H       3.121939     -2.840685      1.304733
  H       2.456630     -2.987760     -0.331219
  H       0.919562      0.078642     -3.533541
  H      -0.048918     -1.336166     -3.978856
  H      -0.777556     -0.046965     -2.997391
>
49
-1683.16953646; 31P isotropic shielding: 228.976642 ppm
  C       0.536651     -0.659159     -3.608846
  O      -0.235941     -1.126915     -2.482058
  C       0.502064     -1.693681     -1.376814
  P       1.227334     -0.292398     -0.364678
  O       2.302989      0.438062     -1.125602
  C      -0.229929      0.838431      0.066342
  C      -0.438988      1.874148     -1.103050
  C      -0.307506      3.268903     -0.378890
  C      -0.912492      2.939337      1.009614
  C       0.118076      1.813978      1.299389
  C       1.415122      2.545205      0.983308
  C       1.161300      3.417035     -0.005342
  C      -1.469480      0.055918      0.415311
  S      -2.734244     -0.330579     -0.749470
  C      -3.616334     -1.132506      0.502107
  C      -2.929185     -1.076814      1.690702
  N      -1.726696     -0.401598      1.620574
  C      -3.371215     -1.662615      3.000719
  C       1.904831     -1.043962      1.233429
  O       3.168089     -1.659318      0.934439
  C       4.296305     -0.763708      0.937605
  C       1.028395     -2.101443      1.902661
  C       1.567898     -2.713490     -1.786667
  H      -0.179419     -0.134873     -4.250291
  H       0.969741     -1.498433     -4.172939
  H       1.335856      0.026458     -3.301533
  H      -0.269132     -2.186036     -0.771032
  H      -1.428910      1.759272     -1.555190
  H       0.312343      1.765922     -1.887513
  H      -0.754402      4.093805     -0.941619
  H      -1.949906      2.585913      0.972016
  H      -0.824348      3.769576      1.719043
  H       0.045113      1.305584      2.260557
  H       2.385859      2.302035      1.403573
  H       1.885306      4.014201     -0.552548
  H      -4.574158     -1.598469      0.302363
  H      -2.646664     -2.406289      3.360418
  H      -3.443465     -0.881375      3.769417
  H      -4.348125     -2.149490      2.905511
  H       2.057847     -0.196233      1.923097
  H       4.221929     -0.024465      0.131325
  H       4.373207     -0.248778      1.911063
  H       5.180520     -1.393547      0.793471
  H       0.054912     -1.684373      2.175079
  H       0.876958     -2.963004      1.242011
  H       1.536642     -2.459227      2.807092
  H       1.976206     -3.213222     -0.901853
  H       1.119790     -3.470049     -2.444901
  H       2.406058     -2.236634     -2.305801
>
49
-1683.16817048; 31P isotropic shielding: 218.377739 ppm
  C       2.184103      0.341904     -3.668370
  O       0.896165     -0.090431     -3.171510
  C       0.896873     -0.979546     -2.037022
  P       1.284361     -0.017108     -0.458319
  O       2.533227      0.813800     -0.573330
  C      -0.266971      0.980286     -0.028717
  C      -0.859261      1.735219     -1.287423
  C      -0.925854      3.232539     -0.806438
  C      -1.218253      3.053404      0.705021
  C       0.063721      2.209366      0.952517
  C       1.106766      3.100401      0.288720
  C       0.515025      3.721022     -0.744650
  C      -1.275686      0.076321      0.634081
  S      -2.420460     -0.897120     -0.289126
  C      -2.987204     -1.595707      1.186234
  C      -2.317967     -1.057684      2.258773
  N      -1.362906     -0.118895      1.926676
  C      -2.545528     -1.397453      3.703218
  C       1.552838     -1.338345      0.838792
  O       0.462151     -2.272163      0.761940
  C       0.658415     -3.477552      1.505602
  C       1.824040     -0.756841      2.231444
  C       1.807414     -2.201006     -2.218223
  H       2.742108     -0.495777     -4.113075
  H       2.782786      0.814513     -2.881866
  H       1.956456      1.068960     -4.454806
  H      -0.142940     -1.319832     -1.962645
  H      -1.858526      1.352541     -1.524210
  H      -0.242373      1.624116     -2.179249
  H      -1.625898      3.841895     -1.386041
  H      -2.149257      2.516765      0.922884
  H      -1.195914      4.001582      1.253179
  H       0.260027      1.887278      1.974135
  H       2.156853      3.116346      0.552770
  H       0.991756      4.348401     -1.493262
  H      -3.783961     -2.330069      1.190712
  H      -2.842471     -0.504100      4.269237
  H      -3.329044     -2.155550      3.812841
  H      -1.623255     -1.780028      4.161410
  H       2.477402     -1.830638      0.480769
  H       0.647367     -3.297367      2.591168
  H      -0.174108     -4.139357      1.245526
  H       1.611708     -3.964481      1.234280
  H       2.581032      0.032529      2.147203
  H       0.910506     -0.341056      2.665935
  H       2.223541     -1.527378      2.903283
  H       1.563612     -2.959312     -1.467791
  H       1.633167     -2.633571     -3.212233
  H       2.870013     -1.946319     -2.130845
>
49
-1683.16515406; 31P isotropic shielding: 224.810303 ppm
  C       1.212539     -1.213462     -3.896088
  O       0.992068     -2.055501     -2.748903
  C       0.088488     -1.514321     -1.775462
  P       1.038096     -0.296516     -0.667151
  O       2.141316      0.420665     -1.398486
  C      -0.282507      0.888693     -0.029703
  C      -0.739147      1.826757     -1.215347
  C      -0.569364      3.272388     -0.612306
  C      -0.889087      3.016768      0.883907
  C       0.241391      1.961103      1.043683
  C       1.412376      2.729772      0.444761
  C       0.930123      3.521545     -0.524820
  C      -1.447193      0.114211      0.525858
  S      -1.435807     -0.529329      2.170299
  C      -2.994638     -1.225580      1.884195
  C      -3.426617     -0.936647      0.612763
  N      -2.541158     -0.182707     -0.135243
  C      -4.731571     -1.358701      0.002666
  C       1.712996     -1.311739      0.762797
  O       2.148928     -0.446848      1.832282
  C       3.453367      0.151145      1.678487
  C       2.786666     -2.282301      0.255620
  C      -0.554979     -2.707864     -1.063354
  H       0.254369     -0.986612     -4.395020
  H       1.846032     -1.791053     -4.577453
  H       1.717652     -0.281513     -3.615188
  H      -0.697172     -0.918992     -2.271445
  H      -1.777123      1.610331     -1.478949
  H      -0.112862      1.700709     -2.103597
  H      -1.164298      4.030548     -1.129907
  H      -1.895850      2.619758      1.062651
  H      -0.717701      3.899846      1.509109
  H       0.407746      1.529766      2.031191
  H       2.452697      2.564697      0.694782
  H       1.504316      4.119394     -1.227326
  H      -3.506803     -1.788426      2.655721
  H      -5.317142     -0.480829     -0.302200
  H      -4.560306     -1.963908     -0.897897
  H      -5.327076     -1.946573      0.709852
  H       0.883387     -1.876296      1.202364
  H       3.510797      0.930957      2.444995
  H       4.252581     -0.582815      1.859944
  H       3.584926      0.595708      0.684392
  H       2.355026     -2.987009     -0.462964
  H       3.596305     -1.754871     -0.258673
  H       3.200173     -2.851345      1.098880
  H       0.211432     -3.383244     -0.669036
  H      -1.210055     -2.403274     -0.244152
  H      -1.153534     -3.271387     -1.789928
