58
-2211.98373728; 31P isotropic shielding: 180.572206 ppm
  C      -4.852447     -2.219735      2.074237
  C      -5.061967     -0.737675      1.799162
  O      -4.430027     -0.306441      0.542833
  P      -2.867499      0.049035      0.430649
  S      -2.117389      1.040659      1.943815
  N      -2.729716      0.743515     -1.055728
  C      -3.395922      0.114362     -2.222771
  C      -4.698606      0.819439     -2.621609
  C      -1.950326      1.975697     -1.314967
  C      -0.542572      1.700907     -1.853901
  O      -2.293389     -1.502221      0.275332
  C      -0.932156     -1.673879     -0.000551
  C      -0.023672     -1.602129      1.061165
  C       1.329754     -1.621021      0.757304
  O       2.219142     -1.427938      1.791696
  C       3.433602     -0.689019      1.392075
  C       3.067037      0.712847      0.921688
  C       3.886843      1.433584      0.042709
  C       3.512260      2.706622     -0.405108
  C       2.299790      3.261249     -0.001379
  C       1.468531      2.541338      0.880876
  C       1.862832      1.294933      1.356031
  O       0.276270      3.154990      1.207144
  O       1.899202      4.484247     -0.481081
  C       4.141059     -1.546183      0.332618
  C       3.207197     -1.724924     -0.874897
  O       3.664558     -1.839955     -2.029644
  C       1.789045     -1.780414     -0.574784
  C       0.825553     -1.921571     -1.617174
  C      -0.542281     -1.858131     -1.324357
  O       1.217735     -2.069745     -2.897667
  O       4.490673     -2.840006      0.857453
  H      -5.199682     -2.828405      1.230663
  H      -3.797392     -2.447913      2.257735
  H      -5.428346     -2.502860      2.966094
  H      -6.120764     -0.501380      1.649154
  H      -4.669477     -0.110646      2.609286
  H      -3.599921     -0.934575     -1.981833
  H      -2.682631      0.113992     -3.058808
  H      -4.525839      1.873253     -2.872836
  H      -5.133022      0.332642     -3.505140
  H      -5.425963      0.772822     -1.803740
  H      -1.896874      2.549320     -0.386159
  H      -2.524619      2.582979     -2.028131
  H      -0.024261      2.648879     -2.046553
  H       0.049522      1.131739     -1.131049
  H      -0.568183      1.133804     -2.792682
  H      -0.364567     -1.424361      2.074350
  H       4.030878     -0.676656      2.312627
  H       4.825895      1.016548     -0.311288
  H       4.143380      3.264447     -1.093534
  H       1.210222      0.766460      2.043654
  H      -0.390487      2.483163      1.493995
  H       1.027081      4.674689     -0.079587
  H       5.077344     -1.092446     -0.004051
  H      -1.273421     -1.911395     -2.123645
  H       2.225830     -2.037528     -2.888218
  H       3.727779     -3.154710      1.381030
>
58
-2211.98708924; 31P isotropic shielding: 177.231998 ppm
  C      -4.846989     -2.230983      2.099118
  C      -5.060911     -0.750310      1.819972
  O      -4.433524     -0.321615      0.560550
  P      -2.872405      0.038322      0.443028
  S      -2.121375      1.037277      1.950813
  N      -2.740630      0.728297     -1.045998
  C      -3.407993      0.093267     -2.209157
  C      -4.713520      0.793444     -2.607340
  C      -1.966332      1.962376     -1.311189
  C      -0.559454      1.690823     -1.854082
  O      -2.293987     -1.511698      0.291150
  C      -0.933040     -1.680156      0.011970
  C      -0.021804     -1.602735      1.070929
  C       1.330815     -1.618838      0.763288
  O       2.222610     -1.420329      1.794591
  C       3.433800     -0.679096      1.389270
  C       3.061705      0.720130      0.915385
  C       3.876313      1.440126      0.031009
  C       3.496396      2.710434     -0.420073
  C       2.283696      3.262888     -0.014100
  C       1.457689      2.543723      0.873671
  C       1.857311      1.300217      1.351886
  O       0.264777      3.155074      1.202029
  O       1.877827      4.482928     -0.496848
  C       4.140744     -1.537566      0.330570
  C       3.203995     -1.722477     -0.873810
  O       3.658425     -1.839665     -2.029479
  C       1.786835     -1.780917     -0.569585
  C       0.820803     -1.927662     -1.608826
  C      -0.546364     -1.867164     -1.312377
  O       1.209721     -2.078410     -2.890055
  O       4.495429     -2.828733      0.858412
  H      -3.790820     -2.456001      2.280100
  H      -5.419442     -2.512674      2.993642
  H      -5.195332     -2.843173      1.258560
  H      -6.120694     -0.517031      1.672215
  H      -4.667671     -0.119802      2.627031
  H      -3.608706     -0.955303     -1.963915
  H      -2.696753      0.091741     -3.046952
  H      -5.148847      0.302118     -3.487904
  H      -5.438680      0.748021     -1.787454
  H      -4.544184      1.846734     -2.863034
  H      -1.911634      2.538648     -0.384108
  H      -2.545017      2.565862     -2.024027
  H      -0.045562      2.640022     -2.052482
  H       0.037444      1.126873     -1.131086
  H      -0.586279      1.119873     -2.790487
  H      -0.360338     -1.422881      2.084537
  H       4.033531     -0.661912      2.308143
  H       4.815279      1.024556     -0.324920
  H       4.123441      3.267638     -1.112706
  H       1.208616      0.772205      2.043562
  H      -0.399133      2.482137      1.492828
  H       1.006489      4.672218     -0.093109
  H       5.074855     -1.082347     -0.010120
  H      -1.279552     -1.924831     -2.109468
  H       2.217744     -2.043255     -2.883597
  H       3.734579     -3.144308      1.384426
>
58
-2211.98710458; 31P isotropic shielding: 177.237273 ppm
  C      -4.847641     -2.234353      2.107744
  C      -5.061048     -0.753786      1.827670
  O      -4.435217     -0.326609      0.566921
  P      -2.874421      0.034045      0.447324
  S      -2.122806      1.036961      1.952175
  N      -2.744181      0.720558     -1.043407
  C      -3.412214      0.082476     -2.204510
  C      -4.718435      0.781030     -2.603284
  C      -1.971255      1.954758     -1.311983
  C      -0.564827      1.683261     -1.856082
  O      -2.295013     -1.515971      0.298669
  C      -0.934178     -1.683938      0.018630
  C      -0.022043     -1.603446      1.076589
  C       1.330316     -1.618987      0.767751
  O       2.222856     -1.417434      1.797793
  C       3.433078     -0.676156      1.389824
  C       3.059525      0.721798      0.913277
  C       3.873034      1.440612      0.026923
  C       3.491784      2.709647     -0.426613
  C       2.278875      3.261975     -0.021086
  C       1.454022      2.544047      0.868760
  C       1.854932      1.301837      1.349283
  O       0.260865      3.155135      1.196648
  O       1.871739      4.480655     -0.506201
  C       4.139776     -1.536293      0.332300
  C       3.202079     -1.724540     -0.870831
  O       3.655581     -1.843923     -2.026647
  C       1.785253     -1.783529     -0.565196
  C       0.818407     -1.933408     -1.603239
  C      -0.548532     -1.873480     -1.305663
  O       1.206277     -2.086618     -2.884492
  O       4.496100     -2.826009      0.862567
  H      -5.418688     -2.514861      3.003541
  H      -5.197938     -2.847050      1.268360
  H      -3.791304     -2.459947      2.287013
  H      -6.120903     -0.519968      1.681271
  H      -4.666247     -0.122804      2.633599
  H      -3.612225     -0.965596     -1.956571
  H      -2.701669      0.079282     -3.042896
  H      -4.549866      1.833785     -2.861680
  H      -5.154228      0.287340     -3.482294
  H      -5.442885      0.737207     -1.782681
  H      -1.915812      2.532856     -0.386084
  H      -2.551303      2.556425     -2.025254
  H      -0.592320      1.110017     -2.791065
  H      -0.052193      2.632519     -2.057503
  H       0.033650      1.121711     -1.132508
  H      -0.359858     -1.421727      2.090108
  H       4.033686     -0.656548      2.308078
  H       4.812132      1.025057     -0.328679
  H       4.117963      3.265916     -1.120786
  H       1.207078      0.774770      2.042465
  H      -0.402073      2.482374      1.490024
  H       1.000529      4.670180     -0.102310
  H       5.073168     -1.081005     -0.010256
  H      -1.282392     -1.933559     -2.101962
  H       2.214276     -2.050577     -2.879065
  H       3.735735     -3.141510      1.389322
>
58
-2211.98711250; 31P isotropic shielding: 177.213977 ppm
  C      -4.132479      1.135730      2.278169
  C      -2.759489      0.512829      2.078198
  O      -2.724996     -0.428723      0.950971
  P      -2.681442      0.075475     -0.583315
  S      -1.740602      1.751241     -0.920225
  N      -4.245309      0.018887     -1.126497
  C      -4.653417      0.839795     -2.294141
  C      -4.195658      0.283894     -3.648906
  C      -5.043054     -1.208858     -0.868840
  C      -6.425640     -0.901392     -0.282816
  O      -2.002834     -1.254066     -1.283526
  C      -0.615329     -1.434259     -1.186237
  C      -0.058701     -1.743644      0.059157
  C       1.325524     -1.732395      0.168008
  O       1.854419     -1.883459      1.429254
  C       3.137568     -1.207091      1.649293
  C       2.988917      0.310115      1.646258
  C       4.116936      1.116708      1.856827
  C       4.012140      2.511422      1.857786
  C       2.778333      3.122201      1.627849
  C       1.641449      2.318429      1.415282
  C       1.745235      0.930346      1.446605
  O       0.454476      2.997565      1.205515
  O       2.676304      4.490578      1.602049
  C       4.132367     -1.729993      0.599561
  C       3.594205     -1.454406     -0.810988
  O       4.370920     -1.232385     -1.761524
  C       2.154834     -1.513657     -0.959990
  C       1.537937     -1.282989     -2.228048
  C       0.142386     -1.228051     -2.333932
  O       2.290551     -1.069889     -3.322791
  O       4.360841     -3.145007      0.749069
  H      -4.897700      0.366763      2.438139
  H      -4.106120      1.783161      3.165202
  H      -4.418496      1.748628      1.416168
  H      -1.996236      1.281164      1.908333
  H      -2.462314     -0.098491      2.936895
  H      -4.253979      1.848146     -2.146102
  H      -5.746834      0.919436     -2.260152
  H      -3.101826      0.286389     -3.719622
  H      -4.548751     -0.742352     -3.810359
  H      -4.591109      0.907285     -4.461801
  H      -4.482437     -1.838124     -0.170893
  H      -5.140877     -1.784329     -1.801831
  H      -7.036286     -0.296202     -0.963532
  H      -6.966430     -1.839419     -0.100018
  H      -6.336649     -0.362065      0.666953
  H      -0.683563     -1.871725      0.935032
  H       3.447843     -1.570472      2.637247
  H       5.091273      0.664126      2.031988
  H       4.886401      3.138532      2.018570
  H       0.842664      0.346950      1.307172
  H      -0.174358      2.448893      0.677637
  H       1.746834      4.701797      1.379310
  H       5.109240     -1.250054      0.705763
  H      -0.328309     -0.973384     -3.277893
  H       3.250552     -1.086994     -3.013497
  H       3.489372     -3.574110      0.850215
>
58
-2211.98326656; 31P isotropic shielding: 181.147219 ppm
  C      -4.183638      1.173339      2.163112
  C      -2.817680      0.522167      2.009400
  O      -2.757389     -0.403220      0.869519
  P      -2.656027      0.122119     -0.655124
  S      -1.669486      1.781599     -0.939143
  N      -4.203341      0.106378     -1.246258
  C      -5.030211     -1.111531     -1.036801
  C      -6.429103     -0.790387     -0.498848
  C      -4.561199      0.957529     -2.408535
  C      -4.087251      0.411211     -3.761771
  O      -1.983380     -1.212241     -1.352616
  C      -0.602656     -1.419019     -1.217981
  C      -0.087192     -1.754737      0.038269
  C       1.293440     -1.766079      0.187333
  O       1.782588     -1.941705      1.461073
  C       3.067812     -1.287512      1.728981
  C       2.940507      0.231440      1.750530
  C       4.070821      1.015748      2.023497
  C       3.986471      2.411659      2.050205
  C       2.771671      3.046156      1.786056
  C       1.632332      2.264735      1.511634
  C       1.715099      0.874855      1.514644
  O       0.464659      2.966312      1.271696
  O       2.690479      4.416266      1.787327
  C       4.086615     -1.805718      0.700187
  C       3.593318     -1.504186     -0.721269
  O       4.400282     -1.280009     -1.645780
  C       2.158262     -1.543416     -0.912945
  C       1.581959     -1.286953     -2.195247
  C       0.191161     -1.209580     -2.340449
  O       2.369156     -1.069977     -3.264503
  O       4.296551     -3.225149      0.834986
  H      -4.414592      1.815109      1.305586
  H      -4.972603      0.418755      2.264980
  H      -4.184347      1.796340      3.067780
  H      -2.030729      1.274976      1.884176
  H      -2.570046     -0.109369      2.869164
  H      -4.506145     -1.759680     -0.327911
  H      -5.102194     -1.672200     -1.981065
  H      -7.004941     -0.167493     -1.193703
  H      -6.989837     -1.722581     -0.349341
  H      -6.368934     -0.265142      0.461077
  H      -4.136809      1.951191     -2.233522
  H      -5.652412      1.068229     -2.398369
  H      -2.992386      0.384054     -3.807056
  H      -4.465034     -0.601876     -3.948364
  H      -4.446040      1.058442     -4.573011
  H      -0.738463     -1.884102      0.894559
  H       3.344801     -1.672063      2.718808
  H       5.030522      0.544347      2.227876
  H       4.862648      3.021695      2.259163
  H       0.810688      0.308970      1.324379
  H      -0.157224      2.433517      0.719719
  H       1.773749      4.646849      1.533368
  H       5.064846     -1.337790      0.842354
  H      -0.248275     -0.933954     -3.293563
  H       3.319371     -1.104503     -2.927544
  H       3.418653     -3.647717      0.902683
>
58
-2211.98325685; 31P isotropic shielding: 181.017145 ppm
  C      -4.850923     -2.244654      2.144607
  C      -5.061527     -0.764162      1.861822
  O      -4.443116     -0.343193      0.595129
  P      -2.883716      0.020227      0.465808
  S      -2.128417      1.039950      1.957434
  N      -2.761130      0.691863     -1.032206
  C      -3.431864      0.039825     -2.184096
  C      -4.740615      0.731883     -2.586098
  C      -1.993138      1.925633     -1.316020
  C      -0.588786      1.653397     -1.865312
  O      -2.300280     -1.529960      0.331048
  C      -0.940125     -1.696258      0.046825
  C      -0.023645     -1.602806      1.099968
  C       1.327463     -1.616717      0.785563
  O       2.223653     -1.402277      1.809626
  C       3.430167     -0.661884      1.389723
  C       3.051035      0.730569      0.901199
  C       3.858795      1.442874      0.004361
  C       3.471999      2.706295     -0.460121
  C       2.259179      3.259229     -0.055189
  C       1.439925      2.547776      0.845108
  C       1.846577      1.311630      1.336409
  O       0.246491      3.158707      1.171940
  O       1.846613      4.471811     -0.550875
  C       4.134918     -1.530142      0.337303
  C       3.192493     -1.731962     -0.860181
  O       3.641445     -1.861216     -2.016724
  C       1.777104     -1.792292     -0.547849
  C       0.806443     -1.955272     -1.580316
  C      -0.559362     -1.897131     -1.277285
  O       1.189365     -2.119169     -2.861693
  O       4.497282     -2.813626      0.878239
  H      -3.793838     -2.473412      2.315230
  H      -5.415116     -2.520374      3.046238
  H      -5.210826     -2.858711      1.310260
  H      -6.121646     -0.527319      1.722356
  H      -4.659009     -0.132055      2.663038
  H      -3.629502     -1.005660     -1.923751
  H      -2.724215      0.028387     -3.024859
  H      -4.574692      1.781988     -2.856755
  H      -5.178612      0.227765     -3.458062
  H      -5.462093      0.695962     -1.762467
  H      -1.934062      2.511944     -0.395517
  H      -2.578591      2.519529     -2.031413
  H       0.017187      1.104214     -1.138421
  H      -0.619350      1.068220     -2.792771
  H      -0.082236      2.602561     -2.082282
  H      -0.357971     -1.412620      2.113114
  H       4.034673     -0.631914      2.305095
  H       4.797533      1.026390     -0.351166
  H       4.093689      3.257323     -1.162489
  H       1.203083      0.789653      2.037468
  H      -0.413070      2.487318      1.475469
  H       0.976626      4.663240     -0.145277
  H       5.065595     -1.075707     -0.013682
  H      -1.296463     -1.967410     -2.069745
  H       2.197236     -2.080068     -2.861085
  H       3.738670     -3.128390      1.407925
>
58
-2211.98714675; 31P isotropic shielding: 177.075321 ppm
  C      -4.245382      1.125765      2.293757
  C      -2.842609      0.549225      2.159504
  O      -2.710927     -0.358943      1.011221
  P      -2.675223      0.200462     -0.506213
  S      -1.684546      1.858305     -0.787487
  N      -4.238607      0.216973     -1.039517
  C      -5.140066     -0.918355     -0.728251
  C      -5.317820     -1.935624     -1.864072
  C      -4.698967      1.211152     -2.039751
  C      -4.182034      0.988698     -3.467613
  O      -2.045438     -1.125395     -1.253287
  C      -0.661890     -1.350061     -1.177173
  C      -0.102936     -1.725218      0.048595
  C       1.282165     -1.757629      0.142478
  O       1.819357     -1.974402      1.390578
  C       3.120220     -1.337818      1.625240
  C       3.006717      0.181072      1.687908
  C       4.155302      0.952535      1.918024
  C       4.082011      2.347980      1.980931
  C       2.859393      2.995155      1.794853
  C       1.701861      2.226654      1.562944
  C       1.774969      0.836679      1.531774
  O       0.527885      2.939694      1.398966
  O       2.787578      4.365243      1.830215
  C       4.092745     -1.839532      0.544890
  C       3.547851     -1.497314     -0.848312
  O       4.321067     -1.258808     -1.797752
  C       2.106054     -1.515382     -0.984741
  C       1.483879     -1.217738     -2.236210
  C       0.089432     -1.120297     -2.324536
  O       2.231508     -0.981370     -3.329511
  O       4.291805     -3.264150      0.635644
  H      -4.484885      1.788348      1.454634
  H      -4.997355      0.329024      2.341904
  H      -4.305791      1.712372      3.220342
  H      -2.092066      1.342097      2.058256
  H      -2.580371     -0.079511      3.016891
  H      -6.114326     -0.492203     -0.444016
  H      -4.743294     -1.421324      0.159258
  H      -5.802402     -1.488481     -2.739850
  H      -4.350559     -2.348375     -2.171971
  H      -5.953815     -2.762046     -1.518680
  H      -4.399104      2.207130     -1.693006
  H      -5.796489      1.175787     -2.017491
  H      -4.595941      1.757227     -4.134633
  H      -3.089538      1.070540     -3.498446
  H      -4.467169      0.005454     -3.857332
  H      -0.722518     -1.867193      0.926142
  H       3.430829     -1.749742      2.593875
  H       5.121365      0.471425      2.059996
  H       4.972226      2.948027      2.156781
  H       0.857511      0.280518      1.379232
  H      -0.119120      2.428960      0.854764
  H       1.860219      4.606012      1.629632
  H       5.080921     -1.385270      0.659548
  H      -0.383853     -0.814115     -3.251833
  H       3.193598     -1.036759     -3.031440
  H       3.412571     -3.678355      0.731945
>
58
-2211.98297035; 31P isotropic shielding: 183.812510 ppm
  C      -4.861758     -2.264432      2.166899
  C      -5.057992     -0.779398      1.897905
  O      -4.449717     -0.357438      0.626834
  P      -2.891980      0.008329      0.486179
  S      -2.131515      1.044062      1.963596
  N      -2.779263      0.666512     -1.018496
  C      -3.455077      0.003240     -2.160714
  C      -4.767519      0.688881     -2.561459
  C      -2.015872      1.899729     -1.317580
  C      -0.613874      1.625609     -1.871699
  O      -2.305597     -1.541372      0.362678
  C      -0.946425     -1.707083      0.073171
  C      -0.024839     -1.600954      1.120549
  C       1.324567     -1.614944      0.799153
  O       2.225602     -1.389467      1.816715
  C       3.428209     -0.649752      1.383583
  C       3.042688      0.736963      0.884221
  C       3.842551      1.441776     -0.025600
  C       3.449866      2.699528     -0.500250
  C       2.238810      3.254138     -0.092144
  C       1.427889      2.550456      0.821560
  C       1.840281      1.319969      1.322269
  O       0.235440      3.162355      1.151072
  O       1.819848      4.460669     -0.597083
  C       4.129393     -1.526219      0.335835
  C       3.181425     -1.741872     -0.854783
  O       3.624857     -1.880965     -2.012306
  C       1.767805     -1.802261     -0.534756
  C       0.792199     -1.977397     -1.560509
  C      -0.572175     -1.919664     -1.250902
  O       1.168769     -2.152732     -2.842252
  O       4.496413     -2.804232      0.886868
  H      -5.416714     -2.540368      3.074156
  H      -5.240896     -2.867547      1.333059
  H      -3.805278     -2.507403      2.320641
  H      -6.116889     -0.528894      1.773560
  H      -4.638822     -0.157866      2.698909
  H      -3.648934     -1.040423     -1.890249
  H      -2.752076     -0.014214     -3.005324
  H      -4.605020      1.736162     -2.844839
  H      -5.210628      0.174514     -3.424790
  H      -5.483359      0.661039     -1.732625
  H      -1.953938      2.494825     -0.402923
  H      -2.606653      2.485036     -2.035622
  H      -0.112590      2.573437     -2.106055
  H      -0.000778      1.089376     -1.141114
  H      -0.648452      1.026739     -2.790213
  H      -0.354182     -1.402449      2.133727
  H       4.037209     -0.609958      2.295615
  H       4.779707      1.023670     -0.383319
  H       4.065322      3.244614     -1.212651
  H       1.202798      0.803595      2.032885
  H      -0.421060      2.491912      1.463256
  H       0.952036      4.653618     -0.187541
  H       5.057303     -1.073178     -0.024126
  H      -1.313172     -1.999145     -2.038876
  H       2.176469     -2.111201     -2.847451
  H       3.741988     -3.112926      1.426055
>
58
-2211.98721714; 31P isotropic shielding: 177.088141 ppm
  C      -5.869222      0.942005      1.207262
  C      -5.260364     -0.370943      1.678575
  O      -4.308671     -0.930963      0.711845
  P      -2.816245     -0.353249      0.544505
  S      -2.105144      0.628140      2.084045
  N      -2.768749      0.462353     -0.894025
  C      -3.371130     -0.160993     -2.098537
  C      -4.664703      0.525518     -2.552963
  C      -2.029020      1.727931     -1.102025
  C      -0.612641      1.538319     -1.655507
  O      -2.148560     -1.838984      0.267436
  C      -0.790056     -1.896745     -0.060768
  C       0.143308     -1.809509      0.978072
  C       1.484779     -1.719578      0.638229
  O       2.389696     -1.525466      1.658377
  C       3.539916     -0.684603      1.273238
  C       3.068008      0.716445      0.906664
  C       3.807036      1.542531      0.049240
  C       3.338689      2.815451     -0.298767
  C       2.112242      3.265481      0.184943
  C       1.361676      2.439045      1.045789
  C       1.848225      1.191534      1.421343
  O       0.146677      2.953744      1.453524
  O       1.619535      4.488737     -0.198882
  C       4.269675     -1.424224      0.142790
  C       3.312858     -1.600796     -1.047260
  O       3.741251     -1.618704     -2.218640
  C       1.912463     -1.775782     -0.712559
  C       0.930007     -1.938237     -1.733921
  C      -0.429267     -1.993552     -1.401695
  O       1.292191     -1.991546     -3.030719
  O       4.728019     -2.717567      0.577352
  H      -5.101104      1.716092      1.097096
  H      -6.392131      0.819786      0.251572
  H      -6.597197      1.288794      1.953525
  H      -4.743119     -0.247879      2.637212
  H      -6.018046     -1.155343      1.778623
  H      -3.570593     -1.215732     -1.881459
  H      -2.624215     -0.140735     -2.904525
  H      -5.441227      0.436725     -1.786023
  H      -4.507271      1.590433     -2.763180
  H      -5.032635      0.054345     -3.474109
  H      -1.995480      2.260204     -0.148112
  H      -2.627442      2.344657     -1.786671
  H       0.010203      0.972266     -0.956741
  H      -0.615708      1.007423     -2.615302
  H      -0.141674      2.516788     -1.813335
  H      -0.179347     -1.713377      2.008158
  H       4.164339     -0.689241      2.175703
  H       4.754157      1.208906     -0.366241
  H       3.906217      3.455208     -0.971106
  H       1.256151      0.577988      2.093110
  H      -0.468038      2.223874      1.710961
  H       0.753014      4.597320      0.243067
  H       5.159621     -0.884124     -0.191908
  H      -1.178235     -2.066483     -2.182537
  H       2.294882     -1.883056     -3.047228
  H       4.006695     -3.120432      1.099390
>
58
-2211.98510458; 31P isotropic shielding: 180.352188 ppm
  C      -5.874285      0.929437      1.218157
  C      -5.261400     -0.381996      1.688449
  O      -4.310504     -0.939921      0.719836
  P      -2.819333     -0.359809      0.549862
  S      -2.107386      0.623464      2.087729
  N      -2.775640      0.455363     -0.889060
  C      -3.378744     -0.169530     -2.092374
  C      -4.674043      0.514731     -2.545240
  C      -2.038521      1.722203     -1.098621
  C      -0.622607      1.534970     -1.654107
  O      -2.149804     -1.844538      0.272145
  C      -0.791578     -1.900792     -0.057296
  C       0.142631     -1.812672      0.980709
  C       1.483708     -1.721676      0.639596
  O       2.389417     -1.526589      1.658918
  C       3.538529     -0.684794      1.272437
  C       3.065062      0.715653      0.905608
  C       3.803042      1.542111      0.047646
  C       3.333290      2.814385     -0.300833
  C       2.106474      3.263341      0.182935
  C       1.357041      2.436575      1.044431
  C       1.844960      1.189739      1.420441
  O       0.141681      2.950279      1.452378
  O       1.612392      4.485894     -0.201371
  C       4.267925     -1.424198      0.141645
  C       3.310221     -1.601941     -1.047492
  O       3.737557     -1.619670     -2.219258
  C       1.910258     -1.777799     -0.711535
  C       0.926995     -1.940995     -1.731987
  C      -0.431940     -1.997258     -1.398564
  O       1.288060     -1.994209     -3.029121
  O       4.727720     -2.717025      0.576218
  H      -6.601848      1.274448      1.965644
  H      -5.108290      1.705436      1.106644
  H      -6.398506      0.805862      0.263355
  H      -4.742476     -0.257582      2.646011
  H      -6.017071     -1.168116      1.790253
  H      -3.576299     -1.224452     -1.874430
  H      -2.633030     -0.148599     -2.899468
  H      -4.518535      1.579662     -2.756784
  H      -5.042890      0.042123     -3.465287
  H      -5.449110      0.425550     -1.776862
  H      -2.004590      2.254915     -0.144966
  H      -2.639086      2.337563     -1.782616
  H      -0.626109      1.003566     -2.613618
  H      -0.153684      2.514229     -1.813166
  H       0.002350      0.970449     -0.955993
  H      -0.179131     -1.716719      2.011092
  H       4.163738     -0.688417      2.174368
  H       4.750386      1.209260     -0.367939
  H       3.900022      3.454441     -0.973557
  H       1.253773      0.575952      2.092761
  H      -0.471970      2.219932      1.711038
  H       0.746018      4.593925      0.240990
  H       5.157106     -0.883443     -0.194027
  H      -1.181549     -2.070795     -2.178732
  H       2.290648     -1.884951     -3.046511
  H       4.007251     -3.120174      1.099216
>
58
-2211.98511418; 31P isotropic shielding: 180.380686 ppm
  C      -4.861172     -2.264001      2.188041
  C      -5.057946     -0.779767      1.915133
  O      -4.453306     -0.361848      0.640950
  P      -2.896079      0.004029      0.495069
  S      -2.132235      1.044951      1.967065
  N      -2.787481      0.657305     -1.012019
  C      -3.466087     -0.010036     -2.150210
  C      -4.779594      0.674091     -2.550061
  C      -2.025691      1.890036     -1.317129
  C      -0.625311      1.615017     -1.874897
  O      -2.309245     -1.545745      0.375217
  C      -0.950742     -1.711398      0.082441
  C      -0.026244     -1.600962      1.126773
  C       1.322257     -1.615372      0.801654
  O       2.226027     -1.386380      1.815906
  C       3.427080     -0.647469      1.377032
  C       3.039084      0.737334      0.874387
  C       3.835029      1.439444     -0.040988
  C       3.439786      2.695324     -0.518449
  C       2.230022      3.250677     -0.107508
  C       1.423137      2.549780      0.811872
  C       1.838074      1.321173      1.315069
  O       0.231672      3.162194      1.144050
  O       1.808463      4.455250     -0.614919
  C       4.125676     -1.526930      0.330115
  C       3.174428     -1.746852     -0.857115
  O       3.614740     -1.889778     -2.015363
  C       1.761767     -1.807109     -0.532874
  C       0.783367     -1.986475     -1.555251
  C      -0.580143     -1.928472     -1.241928
  O       1.156378     -2.166351     -2.837388
  O       4.494642     -2.803067      0.884197
  H      -3.804250     -2.506786      2.339015
  H      -5.413174     -2.536946      3.098008
  H      -5.243273     -2.869629      1.357382
  H      -6.117162     -0.529437      1.793165
  H      -4.636294     -0.155864      2.712976
  H      -3.659222     -1.052756     -1.875624
  H      -2.765227     -0.030465     -2.996536
  H      -5.493057      0.649798     -1.719068
  H      -4.617820      1.720155     -2.838307
  H      -5.225231      0.156163     -3.409953
  H      -1.961198      2.487698     -0.404331
  H      -2.619075      2.472996     -2.034934
  H      -0.126109      2.562347     -2.115666
  H      -0.008827      1.083049     -1.144033
  H      -0.662577      1.011695     -2.790377
  H      -0.352900     -1.399221      2.140182
  H       4.038679     -0.604542      2.287181
  H       4.771069      1.020678     -0.400820
  H       4.052174      3.238294     -1.235097
  H       1.203617      0.806794      2.029846
  H      -0.423325      2.492354      1.460554
  H       0.942007      4.648998     -0.202899
  H       5.052366     -1.074687     -0.033958
  H      -1.323339     -2.011324     -2.027474
  H       2.164061     -2.124277     -2.845644
  H       3.741733     -3.110277      1.426341
>
58
-2211.98722741; 31P isotropic shielding: 177.092192 ppm
  C      -5.884446      0.910353      1.226364
  C      -5.266461     -0.398338      1.697622
  O      -4.315885     -0.954988      0.727989
  P      -2.826710     -0.370826      0.554115
  S      -2.114917      0.617844      2.088601
  N      -2.787808      0.441334     -0.886642
  C      -3.391218     -0.187871     -2.087552
  C      -4.689049      0.491924     -2.539935
  C      -2.055630      1.710394     -1.099873
  C      -0.640344      1.527192     -1.658311
  O      -2.153454     -1.854183      0.278452
  C      -0.795331     -1.907885     -0.051747
  C       0.139205     -1.816733      0.985698
  C       1.479955     -1.723777      0.643804
  O       2.385745     -1.525168      1.662358
  C       3.533205     -0.682102      1.273680
  C       3.057062      0.716552      0.903439
  C       3.793534      1.542240      0.043459
  C       3.321144      2.812535     -0.308673
  C       2.093183      3.260145      0.173412
  C       1.345268      2.434154      1.036995
  C       1.835831      1.189470      1.416680
  O       0.128772      2.946380      1.443271
  O       1.596576      4.480574     -0.214414
  C       4.263511     -1.422741      0.144250
  C       3.305613     -1.604069     -1.044238
  O       3.732469     -1.623028     -2.216154
  C       1.906009     -1.781307     -0.707413
  C       0.922539     -1.947361     -1.727217
  C      -0.436160     -2.005246     -1.393088
  O       1.283098     -2.001982     -3.024428
  O       4.725418     -2.713934      0.581302
  H      -6.611470      1.254428      1.974810
  H      -5.121151      1.688572      1.111813
  H      -6.410351      0.783463      0.272919
  H      -4.745954     -0.270690      2.653902
  H      -6.019471     -1.186627      1.802379
  H      -3.585723     -1.242778     -1.866807
  H      -2.646870     -0.166886     -2.895909
  H      -5.058203      0.016044     -3.458169
  H      -5.462583      0.402643     -1.770025
  H      -4.536698      1.556722     -2.754422
  H      -2.021312      2.244643     -0.147091
  H      -2.659872      2.322666     -1.783401
  H      -0.012105      0.965097     -0.961187
  H      -0.644181      0.995142     -2.617471
  H      -0.174849      2.507828     -1.819013
  H      -0.182277     -1.719821      2.016086
  H       4.158641     -0.682478      2.175453
  H       4.741655      1.210256     -0.371052
  H       3.886700      3.451961     -0.982988
  H       1.245830      0.576344      2.090638
  H      -0.483098      2.215524      1.704735
  H       0.729925      4.588038      0.227534
  H       5.151790     -0.881337     -0.192753
  H      -1.186000     -2.081078     -2.172810
  H       2.285550     -1.891480     -3.042412
  H       4.005555     -3.117348      1.104933
>
58
-2211.98512961; 31P isotropic shielding: 180.382870 ppm
  C      -5.739336     -0.492635      2.566415
  C      -4.854872     -1.358601      1.683962
  O      -4.379881     -0.564706      0.536059
  P      -2.838966     -0.132881      0.418258
  S      -2.096564      0.804410      1.969715
  N      -2.767328      0.652056     -1.025206
  C      -3.416564      0.057409     -2.219942
  C      -4.761655      0.712929     -2.557031
  C      -2.035825      1.924289     -1.227003
  C      -0.621243      1.728969     -1.782009
  O      -2.210264     -1.652532      0.178875
  C      -0.845451     -1.768896     -0.104703
  C       0.063950     -1.734007      0.957858
  C       1.416494     -1.700119      0.650768
  O       2.303579     -1.538840      1.692676
  C       3.498114     -0.750073      1.329935
  C       3.095509      0.663353      0.928347
  C       3.896823      1.445945      0.085993
  C       3.487693      2.726750     -0.305616
  C       2.258798      3.227964      0.117699
  C       1.446136      2.446075      0.963877
  C       1.874559      1.191288      1.384559
  O       0.236363      3.010633      1.313106
  O       1.825521      4.459701     -0.308142
  C       4.223921     -1.534110      0.227099
  C       3.291533     -1.668773     -0.987321
  O       3.748427     -1.709764     -2.147223
  C       1.875765     -1.773421     -0.688779
  C       0.912950     -1.876941     -1.736170
  C      -0.455074     -1.863259     -1.437902
  O       1.304848     -1.942534     -3.023660
  O       4.605515     -2.844847      0.682654
  H      -5.163507      0.337910      2.989739
  H      -6.580486     -0.084792      1.992637
  H      -6.142783     -1.096376      3.390865
  H      -3.993289     -1.751722      2.235958
  H      -5.403187     -2.200193      1.245415
  H      -3.558796     -1.013926     -2.041602
  H      -2.717336      0.148354     -3.062700
  H      -4.651125      1.789402     -2.737888
  H      -5.181115      0.262582     -3.466760
  H      -5.473094      0.570720     -1.736289
  H      -2.001721      2.453716     -0.271306
  H      -2.637036      2.540863     -1.909230
  H      -0.139174      2.703499     -1.930370
  H      -0.005618      1.148236     -1.088538
  H      -0.630358      1.205912     -2.746316
  H      -0.277999     -1.622961      1.980146
  H       4.096679     -0.768739      2.249501
  H       4.847376      1.071366     -0.284391
  H       4.104476      3.332616     -0.965840
  H       1.235083      0.614676      2.045319
  H      -0.411043      2.308169      1.570063
  H       0.947178      4.608151      0.097501
  H       5.148341     -1.040699     -0.085597
  H      -1.187664     -1.888378     -2.237381
  H       2.312061     -1.889048     -3.013632
  H       3.853066     -3.204272      1.192346
>
58
-2211.98728131; 31P isotropic shielding: 178.719501 ppm
  C      -5.736948     -0.506589      2.587571
  C      -4.849061     -1.373147      1.709159
  O      -4.381055     -0.583788      0.555197
  P      -2.842247     -0.146442      0.430215
  S      -2.099929      0.804192      1.973626
  N      -2.777641      0.629337     -1.018494
  C      -2.051902      1.903195     -1.230329
  C      -0.638704      1.710164     -1.789663
  C      -3.428161      0.024660     -2.207513
  C      -4.776753      0.672875     -2.544720
  O      -2.207682     -1.665001      0.198937
  C      -0.843209     -1.777053     -0.088116
  C       0.069141     -1.732273      0.971551
  C       1.420629     -1.694134      0.660278
  O       2.310027     -1.522927      1.698579
  C       3.500292     -0.731713      1.327775
  C       3.091001      0.677751      0.918910
  C       3.887466      1.458811      0.070537
  C       3.472186      2.735580     -0.327701
  C       2.241971      3.234076      0.094983
  C       1.434198      2.453724      0.947245
  C       1.868694      1.203180      1.374315
  O       0.222761      3.015179      1.295402
  O       1.802820      4.461504     -0.337290
  C       4.226085     -1.519181      0.227341
  C       3.290662     -1.664404     -0.983534
  O       3.744311     -1.710290     -2.144541
  C       1.876223     -1.773047     -0.680209
  C       0.910815     -1.886731     -1.724147
  C      -0.456358     -1.877281     -1.421926
  O       1.299253     -1.958005     -3.012379
  O       4.614488     -2.825635      0.689342
  H      -5.165196      0.330244      3.004005
  H      -6.581747     -0.107645      2.012891
  H      -6.135040     -1.107080      3.416987
  H      -3.984082     -1.757344      2.262127
  H      -5.393065     -2.220950      1.277257
  H      -2.015941      2.437937     -0.277686
  H      -2.658104      2.513750     -1.913562
  H      -0.649343      1.182097     -2.751227
  H      -0.160871      2.685730     -1.944852
  H      -0.018269      1.135381     -1.095500
  H      -3.565726     -1.046057     -2.021940
  H      -2.731765      0.113000     -3.052891
  H      -5.196976      0.215359     -3.450512
  H      -5.485295      0.532866     -1.721097
  H      -4.670913      1.748651     -2.732414
  H      -0.270406     -1.616899      1.994176
  H       4.101757     -0.742499      2.245573
  H       4.838900      1.086074     -0.299447
  H       4.085158      3.340242     -0.992572
  H       1.232840      0.627834      2.039662
  H      -0.420403      2.311871      1.560397
  H       0.924677      4.608906      0.069123
  H       5.147560     -1.023835     -0.090907
  H      -1.191200     -1.910079     -2.219048
  H       2.306292     -1.900361     -3.005598
  H       3.864384     -3.186077      1.201751
>
58
-2211.98730394; 31P isotropic shielding: 178.668188 ppm
  C      -5.732446     -0.524103      2.602805
  C      -4.844188     -1.388275      1.722430
  O      -4.380934     -0.597690      0.567478
  P      -2.843488     -0.156863      0.438436
  S      -2.099639      0.795924      1.979693
  N      -2.784380      0.618806     -1.010531
  C      -2.062808      1.894737     -1.224224
  C      -0.650090      1.705594     -1.786032
  C      -3.436232      0.012365     -2.197904
  C      -4.787959      0.656122     -2.531015
  O      -2.206064     -1.673964      0.205841
  C      -0.842053     -1.782892     -0.084743
  C       0.072982     -1.735983      0.972521
  C       1.423554     -1.694931      0.657660
  O       2.315380     -1.521928      1.693617
  C       3.502937     -0.728054      1.319655
  C       3.089438      0.680453      0.911848
  C       3.881944      1.463141      0.061267
  C       3.462886      2.738979     -0.335969
  C       2.232753      3.234877      0.090006
  C       1.428981      2.452888      0.944541
  C       1.867227      1.203267      1.370493
  O       0.217325      3.011824      1.296055
  O       1.789774      4.461315     -0.341162
  C       4.227520     -1.513924      0.217323
  C       3.289210     -1.661421     -0.991041
  O       3.739886     -1.706165     -2.153256
  C       1.875779     -1.772842     -0.684017
  C       0.907882     -1.888598     -1.725397
  C      -0.458504     -1.882273     -1.419569
  O       1.293065     -1.958832     -3.014658
  O       4.620032     -2.819540      0.678279
  H      -6.127032     -1.125597      3.433169
  H      -5.162085      0.314344      3.017905
  H      -6.579658     -0.127503      2.030056
  H      -3.976976     -1.770164      2.273499
  H      -5.386872     -2.237609      1.291857
  H      -2.026795      2.430080     -0.271924
  H      -2.672091      2.503093     -1.906674
  H      -0.661002      1.176945     -2.747278
  H      -0.175409      2.682459     -1.942694
  H      -0.026652      1.133049     -1.092731
  H      -3.569573     -1.058903     -2.012371
  H      -2.742509      0.103394     -3.045193
  H      -4.686254      1.732298     -2.718732
  H      -5.209316      0.197439     -3.435688
  H      -5.493582      0.513517     -1.705339
  H      -0.264095     -1.621477      1.996061
  H       4.106816     -0.737469      2.235879
  H       4.833159      1.092428     -0.311286
  H       4.072777      3.344891     -1.002530
  H       1.234390      0.626568      2.037551
  H      -0.423594      2.307116      1.562720
  H       0.912448      4.606888      0.067668
  H       5.146983     -1.016473     -0.103436
  H      -1.195358     -1.916722     -2.214767
  H       2.299959     -1.898774     -3.010587
  H       3.872254     -3.181330      1.193134
>
58
-2211.98731201; 31P isotropic shielding: 178.699670 ppm
  C      -4.860258     -2.265772      2.231756
  C      -5.060585     -0.784352      1.946452
  O      -4.462813     -0.377185      0.665490
  P      -2.906903     -0.009748      0.508961
  S      -2.138250      1.046062      1.967849
  N      -2.805878      0.629942     -1.004426
  C      -3.487919     -0.049141     -2.133536
  C      -4.804297      0.628879     -2.534394
  C      -2.049211      1.862322     -1.323251
  C      -0.651153      1.586503     -1.886605
  O      -2.317598     -1.559393      0.400275
  C      -0.960037     -1.724813      0.102950
  C      -0.031372     -1.603055      1.142271
  C       1.315809     -1.617580      0.811549
  O       2.223295     -1.378179      1.819976
  C       3.421297     -0.641047      1.369815
  C       3.028919      0.738711      0.856871
  C       3.819213      1.433796     -0.068687
  C       3.419447      2.684580     -0.555605
  C       2.210786      3.241657     -0.143812
  C       1.409584      2.547863      0.785885
  C       1.829094      1.324604      1.298172
  O       0.218833      3.161481      1.118463
  O       1.784806      4.440805     -0.660288
  C       4.116983     -1.528315      0.327604
  C       3.161140     -1.759763     -0.853863
  O       3.596810     -1.911522     -2.012693
  C       1.749969     -1.819986     -0.523117
  C       0.767626     -2.010323     -1.539672
  C      -0.594677     -1.952731     -1.221052
  O       1.135512     -2.200424     -2.821876
  O       4.490002     -2.799186      0.890834
  H      -5.245553     -2.879423      1.408503
  H      -3.802239     -2.505607      2.379739
  H      -5.407404     -2.531225      3.146866
  H      -6.120735     -0.536614      1.827397
  H      -4.635732     -0.152659      2.736423
  H      -3.678183     -1.089521     -1.848275
  H      -2.790537     -0.076390     -2.982558
  H      -5.253311      0.100829     -3.386330
  H      -5.513609      0.612734     -1.699660
  H      -4.645406      1.671904     -2.834970
  H      -1.981159      2.466960     -0.415340
  H      -2.648063      2.438222     -2.042220
  H      -0.028649      1.063551     -1.154265
  H      -0.691986      0.974280     -2.795974
  H      -0.156561      2.533124     -2.139361
  H      -0.354188     -1.392917      2.155195
  H       4.036497     -0.589341      2.277083
  H       4.754056      1.013159     -0.429448
  H       4.027324      3.221975     -1.280256
  H       1.198864      0.815520      2.020446
  H      -0.433546      2.493476      1.443826
  H       0.919991      4.636860     -0.245910
  H       5.041493     -1.077832     -0.044166
  H      -1.340965     -2.044225     -2.002694
  H       2.143038     -2.155787     -2.834876
  H       3.739990     -3.102541      1.439131
>
58
-2211.98724456; 31P isotropic shielding: 177.053648 ppm
  C      -4.030199      1.311628      2.230686
  C      -2.671106      0.660151      2.026950
  O      -2.692254     -0.361928      0.971260
  P      -2.672343      0.028314     -0.595918
  S      -1.696454      1.649066     -1.076357
  N      -4.249775     -0.022658     -1.099402
  C      -4.667777      0.734183     -2.305954
  C      -4.258034      0.083334     -3.633853
  C      -5.072321     -1.209553     -0.744680
  C      -6.424688     -0.825779     -0.133402
  O      -2.045425     -1.366844     -1.213307
  C      -0.657476     -1.560328     -1.140864
  C      -0.071532     -1.787438      0.106706
  C       1.317059     -1.755161      0.187591
  O       1.863335     -1.812031      1.435284
  C       3.146093     -1.140712      1.607507
  C       2.975962      0.376742      1.653163
  C       4.044240      1.175519      2.085379
  C       3.923970      2.568222      2.138070
  C       2.732520      3.184962      1.752948
  C       1.653324      2.388626      1.323801
  C       1.774041      1.001594      1.285310
  O       0.502552      3.071788      0.977993
  O       2.616104      4.553100      1.795021
  C       4.144534     -1.592878      0.535666
  C       3.546352     -1.510369     -0.870080
  O       4.312560     -1.422978     -1.858262
  C       2.114565     -1.600897     -0.977065
  C       1.464716     -1.486917     -2.246784
  C       0.068982     -1.442049     -2.322361
  O       2.190704     -1.366761     -3.374620
  O       4.489759     -2.971005      0.800884
  H      -3.966455      2.024400      3.064049
  H      -4.345276      1.858747      1.335098
  H      -4.793540      0.563648      2.476407
  H      -1.906779      1.402845      1.771433
  H      -2.346893      0.109475      2.916242
  H      -4.240278      1.739040     -2.231654
  H      -5.757878      0.843572     -2.250634
  H      -3.166569      0.056321     -3.731387
  H      -4.636877     -0.942789     -3.720275
  H      -4.661244      0.662707     -4.475033
  H      -4.506797     -1.815000     -0.029821
  H      -5.215829     -1.832529     -1.640261
  H      -6.984387     -1.733676      0.127524
  H      -6.284728     -0.230164      0.775657
  H      -7.041661     -0.246207     -0.830557
  H      -0.673908     -1.858125      1.004411
  H       3.502757     -1.511483      2.576151
  H       4.980586      0.714518      2.397075
  H       4.751050      3.190233      2.473803
  H       0.913645      0.426349      0.964723
  H      -0.105830      2.496342      0.455982
  H       1.726482      4.775907      1.454427
  H       5.034786     -0.948769      0.573538
  H      -0.427105     -1.259318     -3.269866
  H       3.157433     -1.375167     -3.091724
  H       5.113004     -3.253021      0.105582
>
58
-2211.98372828; 31P isotropic shielding: 180.681511 ppm
  C      -4.793316     -2.278481      2.385992
  C      -5.035329     -0.815423      2.043914
  O      -4.460157     -0.443168      0.742323
  P      -2.912821     -0.055045      0.553716
  S      -2.139552      1.045806      1.975728
  N      -2.843291      0.551396     -0.975046
  C      -2.109607      1.787250     -1.331752
  C      -0.716815      1.519803     -1.912026
  C      -3.529941     -0.164211     -2.078448
  C      -4.861055      0.485473     -2.477641
  O      -2.300981     -1.597588      0.470902
  C      -0.945669     -1.747988      0.155988
  C      -0.003127     -1.585848      1.177109
  C       1.338893     -1.588277      0.825889
  O       2.257984     -1.313651      1.814694
  C       3.438330     -0.569582      1.330230
  C       3.017685      0.792900      0.794115
  C       3.780316      1.477099     -0.162221
  C       3.353494      2.710454     -0.670303
  C       2.144906      3.260027     -0.248286
  C       1.371767      2.577292      0.712833
  C       1.818300      1.372229      1.245157
  O       0.178872      3.182131      1.054499
  O       1.691639      4.440185     -0.784894
  C       4.130833     -1.469491      0.296741
  C       3.160517     -1.741058     -0.864352
  O       3.580677     -1.912458     -2.026176
  C       1.755704     -1.814988     -0.510360
  C       0.761037     -2.045072     -1.506439
  C      -0.596969     -2.002090     -1.167773
  O       1.112167     -2.259835     -2.789549
  O       4.531183     -2.722005      0.881830
  H      -5.326241     -2.521488      3.315632
  H      -5.167936     -2.934703      1.591157
  H      -3.728209     -2.484333      2.534824
  H      -6.102666     -0.600330      1.925731
  H      -4.619883     -0.142494      2.804253
  H      -2.035882      2.411016     -0.437331
  H      -2.728322      2.339510     -2.052477
  H      -0.763311      0.883462     -2.804373
  H      -0.242860      2.467516     -2.197972
  H      -0.072987      1.026632     -1.177314
  H      -3.701907     -1.199925     -1.765831
  H      -2.843402     -0.202541     -2.935886
  H      -4.721013      1.522870     -2.805830
  H      -5.314057     -0.069646     -3.310018
  H      -5.558546      0.480113     -1.632826
  H      -0.313575     -1.357101      2.189845
  H       4.066453     -0.489552      2.226492
  H       4.713873      1.061068     -0.531557
  H       3.939575      3.239022     -1.419020
  H       1.209118      0.871121      1.990761
  H      -0.457820      2.512208      1.405296
  H       0.832111      4.634292     -0.358782
  H       5.042789     -1.014282     -0.099476
  H      -1.353508     -2.125199     -1.935137
  H       2.118359     -2.198745     -2.819768
  H       3.793175     -3.025278      1.446209
>
58
-2211.98726504; 31P isotropic shielding: 177.246423 ppm
  C      -4.050676      1.347092      2.116568
  C      -2.702219      0.667144      1.936786
  O      -2.719029     -0.336122      0.862815
  P      -2.646274      0.079859     -0.696064
  S      -1.631689      1.692515     -1.119302
  N      -4.207877      0.060854     -1.246804
  C      -5.057209     -1.119926     -0.937400
  C      -6.413699     -0.728504     -0.340859
  C      -4.583185      0.848056     -2.447748
  C      -4.133987      0.226922     -3.776843
  O      -2.021470     -1.314204     -1.318528
  C      -0.640484     -1.531772     -1.198493
  C      -0.106434     -1.797221      0.064711
  C       1.278317     -1.786985      0.199275
  O       1.775011     -1.879014      1.465645
  C       3.058059     -1.227891      1.702750
  C       2.905703      0.289962      1.778571
  C       3.961480      1.060328      2.286420
  C       3.859484      2.453127      2.368440
  C       2.699015      3.098336      1.937633
  C       1.632266      2.330393      1.431827
  C       1.734305      0.942950      1.363808
  O       0.512478      3.041204      1.043499
  O       2.600562      4.466683      2.009250
  C       4.092605     -1.667872      0.660074
  C       3.549930     -1.548555     -0.765426
  O       4.354863     -1.449926     -1.721422
  C       2.122433     -1.617756     -0.929885
  C       1.523717     -1.464889     -2.220569
  C       0.132738     -1.396531     -2.348201
  O       2.294381     -1.329754     -3.316530
  O       4.414320     -3.055001      0.908036
  H      -4.837051      0.614531      2.334849
  H      -3.990661      2.048184      2.960121
  H      -4.331036      1.912682      1.220865
  H      -1.915108      1.396357      1.714362
  H      -2.413830      0.094274      2.824378
  H      -4.515183     -1.754311     -0.229465
  H      -5.194725     -1.716588     -1.851757
  H      -6.281281     -0.166441      0.590391
  H      -7.003998     -0.113196     -1.030588
  H      -6.997209     -1.632583     -0.121838
  H      -4.154363      1.849041     -2.335978
  H      -5.674067      0.961506     -2.424213
  H      -4.508702      0.827407     -4.616479
  H      -3.040091      0.198250     -3.840782
  H      -4.513166     -0.795594     -3.899321
  H      -0.744046     -1.880892      0.936610
  H       3.371905     -1.626039      2.675326
  H       4.873224      0.576223      2.634105
  H       4.676820      3.053166      2.762934
  H       0.883702      0.389721      0.983711
  H      -0.081875      2.486953      0.483644
  H       1.733258      4.712478      1.629211
  H       4.986931     -1.034203      0.746483
  H      -0.323853     -1.183449     -3.309153
  H       3.249264     -1.359282     -2.997439
  H       5.060007     -3.328494      0.229990
>
58
-2211.98365475; 31P isotropic shielding: 180.834929 ppm
  C      -4.031051      1.332664      2.230737
  C      -2.670124      0.682657      2.034292
  O      -2.688858     -0.351824      0.990269
  P      -2.671840      0.021117     -0.581287
  S      -1.694331      1.634953     -1.082037
  N      -4.250522     -0.033124     -1.080607
  C      -4.669795      0.710072     -2.295243
  C      -4.267743      0.040066     -3.616058
  C      -5.074000     -1.214787     -0.710549
  C      -6.426205     -0.822169     -0.104361
  O      -2.047934     -1.381599     -1.184607
  C      -0.659803     -1.574891     -1.114652
  C      -0.069301     -1.786957      0.133420
  C       1.319642     -1.754501      0.208900
  O       1.870433     -1.796763      1.455096
  C       3.154258     -1.124354      1.615021
  C       2.984694      0.393611      1.645264
  C       4.054598      1.196784      2.065169
  C       3.934442      2.590044      2.103560
  C       2.741574      3.202796      1.716532
  C       1.660646      2.402078      1.299872
  C       1.781476      1.014711      1.275220
  O       0.508608      3.081362      0.951155
  O       2.625231      4.571304      1.744881
  C       4.148467     -1.588623      0.544492
  C       3.545029     -1.522668     -0.859956
  O       4.307701     -1.448052     -1.851896
  C       2.112782     -1.614441     -0.960525
  C       1.458396     -1.516063     -2.229301
  C       0.062447     -1.471702     -2.300180
  O       2.180290     -1.410389     -3.361166
  O       4.495199     -2.963554      0.824390
  H      -4.792548      0.584769      2.482245
  H      -3.970164      2.053088      3.057697
  H      -4.346690      1.870678      1.329855
  H      -1.907633      1.424168      1.770083
  H      -2.344438      0.142897      2.929690
  H      -4.237719      1.713889     -2.235372
  H      -5.759210      0.824775     -2.237448
  H      -3.176767      0.007548     -3.717411
  H      -4.650834     -0.985638     -3.686913
  H      -4.672102      0.609507     -4.463430
  H      -4.509009     -1.811240      0.012241
  H      -5.218047     -1.849247     -1.597924
  H      -6.285954     -0.214343      0.796543
  H      -7.043125     -0.251955     -0.809208
  H      -6.986159     -1.726256      0.168945
  H      -0.668136     -1.846145      1.034327
  H       3.514636     -1.484783      2.586174
  H       4.992036      0.739039      2.378348
  H       4.762725      3.215517      2.429778
  H       0.919844      0.436267      0.963776
  H      -0.102797      2.499517      0.439894
  H       1.734340      4.790720      1.405452
  H       5.038694     -0.943936      0.571256
  H      -0.437207     -1.300627     -3.248000
  H       3.148073     -1.416588     -3.081881
  H       5.115487     -3.253580      0.129738
