54
-1438.64282788; 31P isotropic shielding: 213.475045 ppm
  O      -1.817228      3.132197      0.928220
  P      -2.330382      2.002236     -0.154127
  O      -3.533778      2.428335     -0.932269
  C      -0.867865      1.705229     -1.209877
  C       0.534004      1.730033     -0.547558
  C       0.771268      0.526353      0.350803
  C       0.884874     -0.766449     -0.182062
  C       1.165922     -1.856901      0.640092
  C       1.311143     -1.678455      2.020928
  C       1.168987     -0.401428      2.568827
  C       0.906099      0.691499      1.735206
  C       1.612635      1.886001     -1.651067
  C       3.072417      1.986615     -1.140979
  C       3.715239      0.659633     -0.783382
  C       3.933175     -0.310759     -1.775213
  C       4.482596     -1.554765     -1.456939
  C       4.830583     -1.849889     -0.134026
  C       4.635889     -0.885607      0.858996
  C       4.089617      0.358622      0.532602
  C      -2.588045      0.538800      0.926246
  N      -2.729488     -0.688071      0.145931
  C      -2.447216     -1.892531      0.944043
  C      -2.484588     -3.123551      0.039833
  O      -3.751417     -3.252213     -0.627091
  C      -4.047606     -2.068785     -1.390587
  C      -4.040695     -0.814562     -0.518628
  H      -2.429137      3.891641      0.908027
  H      -0.936517      2.494863     -1.972255
  H      -1.046206      0.748789     -1.718776
  H       0.588844      2.627200      0.084454
  H       0.780979     -0.920583     -1.253707
  H       1.278876     -2.847524      0.203958
  H       1.535023     -2.529200      2.662171
  H       1.274641     -0.251381      3.642226
  H       0.808052      1.688790      2.163064
  H       1.534164      1.056673     -2.368487
  H       1.375007      2.800068     -2.214225
  H       3.670481      2.465965     -1.930503
  H       3.110061      2.661799     -0.274106
  H       3.662536     -0.093046     -2.808713
  H       4.641262     -2.293793     -2.241178
  H       5.252409     -2.821256      0.118687
  H       4.900300     -1.104664      1.892167
  H       3.925303      1.096642      1.315658
  H      -1.709565      0.452435      1.575185
  H      -3.462985      0.762230      1.572820
  H      -1.452516     -1.796610      1.392965
  H      -3.187986     -2.016961      1.762543
  H      -1.671743     -3.055418     -0.705934
  H      -2.353479     -4.040444      0.626903
  H      -3.309117     -1.955859     -2.205616
  H      -5.039302     -2.230056     -1.828990
  H      -4.857498     -0.880999      0.231313
  H      -4.224032      0.074413     -1.133275
>
54
-1438.64456676; 31P isotropic shielding: 217.250998 ppm
  O      -1.721324      3.045267      0.954050
  P      -2.299025      1.950231     -0.131096
  O      -3.523666      2.420729     -0.848530
  C      -0.887551      1.635673     -1.250264
  C       0.544023      1.708424     -0.659998
  C       0.801856      0.604290      0.353277
  C       0.892278     -0.739124     -0.039499
  C       1.174625     -1.738755      0.891284
  C       1.343841     -1.415858      2.242729
  C       1.228050     -0.085040      2.651441
  C       0.963968      0.915264      1.709656
  C       1.570435      1.730548     -1.822153
  C       3.052898      1.870175     -1.393079
  C       3.696055      0.587034     -0.901531
  C       4.107396      0.437767      0.429360
  C       4.649935     -0.767057      0.884269
  C       4.803937     -1.843976      0.006408
  C       4.418913     -1.701482     -1.331399
  C       3.872982     -0.495902     -1.778026
  C      -2.548772      0.461482      0.919281
  N      -2.757239     -0.738259      0.110982
  C      -4.092358     -0.802095     -0.515005
  C      -4.169310     -2.029266     -1.421152
  O      -3.892331     -3.243897     -0.700245
  C      -2.602882     -3.177299     -0.069849
  C      -2.494427     -1.974169      0.866646
  H      -2.333281      3.804231      0.990185
  H      -1.006045      2.386012     -2.045125
  H      -1.075194      0.651816     -1.701130
  H       0.636154      2.666117     -0.129441
  H       0.766481     -1.008522     -1.085691
  H       1.269584     -2.771612      0.561410
  H       1.566351     -2.196281      2.968335
  H       1.352915      0.177977      3.700789
  H       0.878941      1.952928      2.029237
  H       1.451247      0.829986     -2.441254
  H       1.311954      2.581272     -2.469151
  H       3.619933      2.238752     -2.260951
  H       3.135524      2.645538     -0.618129
  H       3.974240      1.265363      1.123842
  H       4.943437     -0.866975      1.927898
  H       5.222484     -2.784900      0.359661
  H       4.545825     -2.529808     -2.027205
  H       3.572344     -0.397484     -2.821469
  H      -1.647186      0.333786      1.528561
  H      -3.390061      0.688832      1.607926
  H      -4.887159     -0.863343      0.258429
  H      -4.264422      0.109803     -1.098196
  H      -5.178665     -2.143462     -1.833168
  H      -3.451760     -1.918518     -2.254921
  H      -2.485726     -4.114472      0.487447
  H      -1.811235     -3.115566     -0.839229
  H      -1.483161     -1.924568      1.286577
  H      -3.214025     -2.096008      1.704004
>
54
-1438.64466405; 31P isotropic shielding: 217.022406 ppm
  O      -1.130978      2.740752      1.239597
  P      -2.010607      1.901240      0.130120
  O      -3.228917      2.633353     -0.333848
  C      -0.822397      1.564212     -1.219634
  C       0.662106      1.334590     -0.836378
  C       0.853427      0.044890     -0.048010
  C       0.577682     -1.200749     -0.631837
  C       0.794301     -2.386892      0.071510
  C       1.280535     -2.346966      1.382810
  C       1.536393     -1.110707      1.982966
  C       1.319415      0.072788      1.272065
  C       1.551815      1.374566     -2.111224
  C       3.023498      1.779538     -1.854525
  C       3.759481      0.939303     -0.830010
  C       3.939902     -0.440321     -1.019082
  C       4.567268     -1.221105     -0.047923
  C       5.043511     -0.631984      1.129451
  C       4.889699      0.742832      1.321728
  C       4.250303      1.518057      0.348197
  C      -2.344408      0.333803      1.030297
  N      -2.850915     -0.713078      0.144853
  C      -2.726809     -2.050393      0.749537
  C      -3.160473     -3.112092     -0.260188
  O      -4.507210     -2.895758     -0.711675
  C      -4.646808     -1.581566     -1.281909
  C      -4.243006     -0.488931     -0.293989
  H      -1.598003      3.571343      1.448645
  H      -0.910381      2.447101     -1.868719
  H      -1.228350      0.710816     -1.779106
  H       0.965364      2.169314     -0.190083
  H       0.194926     -1.249403     -1.649680
  H       0.582012     -3.343910     -0.403031
  H       1.458773     -3.270816      1.930546
  H       1.918197     -1.066333      3.001354
  H       1.532360      1.031714      1.739146
  H       1.510302      0.398953     -2.613926
  H       1.129307      2.101423     -2.819645
  H       3.557550      1.741076     -2.816780
  H       3.045919      2.829984     -1.531183
  H       3.563221     -0.912812     -1.925296
  H       4.679391     -2.292514     -0.204906
  H       5.530161     -1.241747      1.888815
  H       5.260308      1.212986      2.231583
  H       4.119077      2.587926      0.510685
  H      -1.397444      0.003739      1.472286
  H      -3.034878      0.582749      1.864255
  H      -1.681291     -2.216657      1.033018
  H      -3.353031     -2.137000      1.662804
  H      -2.468861     -3.103810     -1.123025
  H      -3.146857     -4.109137      0.196393
  H      -4.027722     -1.504186     -2.194638
  H      -5.702586     -1.480862     -1.559087
  H      -4.936410     -0.502115      0.573654
  H      -4.322660      0.496691     -0.766479
>
54
-1438.64349188; 31P isotropic shielding: 216.953075 ppm
  O      -1.328493      0.291611      2.212784
  P      -1.838256      0.371662      0.663765
  O      -2.002871      1.745772      0.099297
  C      -0.690104     -0.652145     -0.335907
  C       0.615066      0.102464     -0.701327
  C       1.371531      0.485419      0.564438
  C       2.063791     -0.469381      1.324238
  C       2.729187     -0.107282      2.495564
  C       2.694253      1.217914      2.944882
  C       1.989619      2.175406      2.209818
  C       1.336486      1.810296      1.026133
  C       1.439568     -0.719600     -1.718970
  C       2.708359     -0.013580     -2.262733
  C       3.871819      0.019966     -1.291487
  C       4.270226      1.210343     -0.668129
  C       5.289154      1.215916      0.287994
  C       5.940852      0.026197      0.626215
  C       5.572457     -1.165167     -0.008237
  C       4.549093     -1.164198     -0.959105
  C      -3.372517     -0.626507      0.836224
  N      -4.018426     -0.805382     -0.465857
  C      -4.796886      0.380829     -0.878077
  C      -5.369990      0.159342     -2.275268
  O      -6.185130     -1.026992     -2.333039
  C      -5.429355     -2.178753     -1.931025
  C      -4.860713     -2.011696     -0.520402
  H      -0.512315      0.815339      2.346757
  H      -1.245794     -0.921839     -1.244692
  H      -0.466188     -1.579473      0.209718
  H       0.315775      1.036855     -1.196015
  H       2.104412     -1.503320      0.988911
  H       3.280920     -0.858778      3.057100
  H       3.213814      1.500486      3.858750
  H       1.951031      3.208814      2.550997
  H       0.780115      2.554271      0.458611
  H       1.720043     -1.689695     -1.283335
  H       0.779081     -0.946069     -2.568558
  H       3.019847     -0.540732     -3.176643
  H       2.448612      1.010465     -2.566673
  H       3.756562      2.138380     -0.913504
  H       5.567733      2.148891      0.774931
  H       6.732488      0.027413      1.373644
  H       6.084380     -2.094854      0.236778
  H       4.264869     -2.098802     -1.443794
  H      -3.076644     -1.605879      1.235449
  H      -4.022989     -0.146536      1.595217
  H      -5.627806      0.567268     -0.165014
  H      -4.138344      1.256775     -0.872254
  H      -6.023998      0.991270     -2.560735
  H      -4.547085      0.081917     -3.008776
  H      -6.119698     -3.029798     -1.971529
  H      -4.601187     -2.352799     -2.642848
  H      -4.245715     -2.886928     -0.267078
  H      -5.696938     -1.957695      0.208596
>
54
-1438.64509291; 31P isotropic shielding: 227.604625 ppm
  O      -1.181077      3.269139      1.266488
  P      -1.944753      2.000374      0.545920
  O      -3.402198      2.248131      0.326622
  C      -1.023711      1.673841     -1.002547
  C       0.392738      1.052046     -0.884560
  C       0.823126      0.499258     -2.236882
  C       1.199589      1.341558     -3.294822
  C       1.572851      0.813942     -4.534239
  C       1.575104     -0.570688     -4.738437
  C       1.197075     -1.420386     -3.694198
  C       0.824963     -0.886020     -2.456339
  C       1.426102      2.027269     -0.282863
  C       2.800955      1.371253     -0.017871
  C       2.726039      0.210390      0.953882
  C       2.919587     -1.110754      0.522807
  C       2.835774     -2.181698      1.420071
  C       2.554640     -1.947447      2.769687
  C       2.354565     -0.634758      3.213052
  C       2.437864      0.430629      2.312084
  C      -1.532607      0.628433      1.699200
  N      -1.809588     -0.665870      1.076499
  C      -1.007245     -1.756028      1.654832
  C      -1.261207     -3.045084      0.875045
  O      -2.654508     -3.394583      0.870149
  C      -3.444259     -2.325945      0.315315
  C      -3.241384     -1.018980      1.079630
  H      -1.828543      3.984970      1.410468
  H      -1.002004      2.622174     -1.558296
  H      -1.674182      0.990708     -1.562833
  H       0.307495      0.188937     -0.215986
  H       1.201643      2.421733     -3.154693
  H       1.862643      1.484272     -5.342152
  H       1.866747     -0.981963     -5.703292
  H       1.191485     -2.499326     -3.842690
  H       0.529213     -1.550209     -1.645517
  H       1.560178      2.887505     -0.954219
  H       1.036517      2.440750      0.654986
  H       3.235874      1.027891     -0.965239
  H       3.479041      2.139231      0.382261
  H       3.139108     -1.299807     -0.526867
  H       2.992717     -3.198911      1.064057
  H       2.491075     -2.778382      3.470034
  H       2.137088     -0.441102      4.262379
  H       2.289180      1.449662      2.669630
  H      -0.462964      0.695314      1.934091
  H      -2.084288      0.800740      2.646135
  H       0.054403     -1.492836      1.592893
  H      -1.254930     -1.918848      2.724957
  H      -0.902971     -2.923025     -0.164062
  H      -0.733224     -3.887816      1.336369
  H      -3.178851     -2.179792     -0.747456
  H      -4.488123     -2.653889      0.379935
  H      -3.613689     -1.138797      2.119208
  H      -3.814375     -0.211608      0.608174
>
54
-1438.64440608; 31P isotropic shielding: 215.499314 ppm
  O      -1.155783      3.300587      1.187615
  P      -1.940655      2.001183      0.549071
  O      -3.408543      2.230812      0.388862
  C      -1.089851      1.624693     -1.027739
  C       0.336687      1.020040     -0.951283
  C       0.706605      0.406816     -2.295264
  C       1.015515      1.201358     -3.410547
  C       1.332900      0.618857     -4.640938
  C       1.346188     -0.773994     -4.778320
  C       1.035809     -1.576663     -3.676133
  C       0.719115     -0.987470     -2.447691
  C       1.388351      2.030473     -0.447017
  C       2.780366      1.396214     -0.222551
  C       2.764586      0.286445      0.809783
  C       2.954268     -1.053423      0.438971
  C       2.924612     -2.076771      1.393456
  C       2.702551     -1.774903      2.740729
  C       2.507536     -0.442770      3.124597
  C       2.536739      0.574801      2.166706
  C      -1.462385      0.675542      1.731757
  N      -1.749402     -0.645174      1.172833
  C      -3.177314     -1.008479      1.240471
  C      -3.394923     -2.347427      0.537800
  O      -2.577290     -3.386497      1.108264
  C      -1.187768     -3.026637      1.051238
  C      -0.919053     -1.704587      1.768692
  H      -1.802058      4.016773      1.335032
  H      -1.103911      2.551013     -1.619571
  H      -1.759273      0.914961     -1.529598
  H       0.292496      0.189764     -0.238398
  H       1.008434      2.286994     -3.322336
  H       1.570370      1.252629     -5.494147
  H       1.594196     -1.228020     -5.736183
  H       1.039847     -2.661556     -3.771975
  H       0.476877     -1.615282     -1.591452
  H       1.481720      2.860792     -1.161696
  H       1.040389      2.481788      0.489675
  H       3.165611      1.005615     -1.173006
  H       3.474195      2.185868      0.100993
  H       3.127500     -1.294377     -0.608705
  H       3.077624     -3.109679      1.083993
  H       2.681492     -2.568652      3.485378
  H       2.336494     -0.196706      4.171532
  H       2.392963      1.609697      2.477683
  H      -0.384320      0.764006      1.915907
  H      -1.973921      0.878488      2.695202
  H      -3.512687     -1.088139      2.296320
  H      -3.773713     -0.225537      0.757065
  H      -4.433054     -2.679908      0.652202
  H      -3.167575     -2.243522     -0.538593
  H      -0.636995     -3.845662      1.528353
  H      -0.866046     -2.944388     -0.003490
  H       0.137940     -1.436647      1.661439
  H      -1.131157     -1.825440      2.852015
>
54
-1438.64442733; 31P isotropic shielding: 215.363383 ppm
  O      -1.251534      0.413050      2.282478
  P      -1.658613      0.324912      0.703833
  O      -1.559341      1.600767     -0.068381
  C      -0.647691     -1.011092     -0.046684
  C       0.772624     -0.516008     -0.425968
  C       1.512877     -0.059688      0.827526
  C       1.732416      1.304436      1.067909
  C       2.362000      1.733761      2.241440
  C       2.775230      0.803227      3.199749
  C       2.550474     -0.559789      2.975688
  C       1.923180     -0.982694      1.802488
  C       1.544426     -1.587477     -1.238021
  C       2.641306     -1.002676     -2.163692
  C       3.609400     -0.063066     -1.473542
  C       4.462457     -0.522492     -0.457091
  C       5.291611      0.359236      0.237230
  C       5.295105      1.721734     -0.084358
  C       4.468792      2.189086     -1.109172
  C       3.632885      1.300921     -1.794438
  C      -3.349146     -0.371713      0.900299
  N      -3.929085     -0.700321     -0.403312
  C      -4.989407     -1.717553     -0.311250
  C      -5.474600     -2.083312     -1.715834
  O      -5.951633     -0.930063     -2.424277
  C      -4.922515      0.074487     -2.508578
  C      -4.425302      0.488688     -1.125914
  H      -0.372643      0.827343      2.400661
  H      -1.196776     -1.330716     -0.942789
  H      -0.602030     -1.865019      0.643070
  H       0.637726      0.365089     -1.067275
  H       1.404030      2.032144      0.330027
  H       2.533042      2.796821      2.402094
  H       3.266985      1.135929      4.112151
  H       2.861930     -1.293208      3.717987
  H       1.752774     -2.046992      1.647044
  H       1.986283     -2.326316     -0.555759
  H       0.833131     -2.140590     -1.867899
  H       3.190935     -1.840434     -2.619312
  H       2.152883     -0.464318     -2.987960
  H       4.457707     -1.578305     -0.188375
  H       5.930713     -0.014140      1.035595
  H       5.937200      2.411217      0.461090
  H       4.465652      3.246370     -1.370239
  H       2.977024      1.675684     -2.580053
  H      -3.253768     -1.288790      1.497046
  H      -3.955596      0.343640      1.492523
  H      -4.583432     -2.612261      0.181592
  H      -5.849716     -1.354602      0.290208
  H      -4.647920     -2.555518     -2.278349
  H      -6.316902     -2.783596     -1.664213
  H      -4.077158     -0.308755     -3.108386
  H      -5.372255      0.927296     -3.029817
  H      -5.255149      0.969184     -0.565336
  H      -3.610986      1.216182     -1.217253
>
54
-1438.64394861; 31P isotropic shielding: 227.317352 ppm
  O      -0.495556      2.459304      1.134198
  P      -1.560074      1.819274      0.055689
  O      -2.540805      2.814275     -0.476510
  C      -0.507971      1.088524     -1.249532
  C       0.850829      0.473290     -0.831964
  C       0.692996     -0.790297     -0.000214
  C       0.165391     -1.966754     -0.554755
  C       0.053858     -3.132373      0.206868
  C       0.456660     -3.138522      1.547638
  C       0.968501     -1.968278      2.116624
  C       1.088004     -0.807121      1.344952
  C       1.712951      0.229680     -2.096257
  C       3.118660     -0.342530     -1.803372
  C       3.941712      0.528051     -0.874491
  C       4.315418      0.073910      0.398726
  C       5.050817      0.888164      1.267252
  C       5.425799      2.176243      0.873588
  C       5.064002      2.640477     -0.396710
  C       4.329815      1.822460     -1.259455
  C      -2.293091      0.453278      1.043139
  N      -3.017344     -0.500205      0.206072
  C      -3.230234     -1.787454      0.887907
  C      -3.866234     -2.779763     -0.084847
  O      -5.108564     -2.283882     -0.609784
  C      -4.917846     -1.010700     -1.253511
  C      -4.301313      0.016922     -0.305980
  H      -0.672184      3.413827      1.230033
  H      -0.340224      1.921369     -1.947930
  H      -1.133691      0.351903     -1.771169
  H       1.375102      1.211398     -0.212672
  H      -0.161814     -1.977211     -1.592930
  H      -0.353588     -4.036157     -0.243683
  H       0.369078     -4.046223      2.142318
  H       1.280742     -1.959211      3.159852
  H       1.491352      0.101057      1.789035
  H       1.185222     -0.451507     -2.779526
  H       1.812778      1.185520     -2.630427
  H       3.022318     -1.346025     -1.369963
  H       3.646148     -0.462957     -2.761522
  H       4.022466     -0.926360      0.713827
  H       5.331303      0.514715      2.251215
  H       5.998341      2.811772      1.547065
  H       5.357721      3.639399     -0.716148
  H       4.057668      2.193523     -2.247790
  H      -1.466479     -0.065054      1.542091
  H      -2.919459      0.923170      1.830778
  H      -2.263081     -2.174306      1.228523
  H      -3.889168     -1.668779      1.774111
  H      -3.161528     -2.982405     -0.912192
  H      -4.102764     -3.723307      0.421472
  H      -4.267367     -1.134717     -2.138776
  H      -5.911022     -0.685541     -1.584328
  H      -5.006820      0.219705      0.527504
  H      -4.130633      0.962729     -0.833136
>
54
-1438.64498318; 31P isotropic shielding: 217.004169 ppm
  O      -0.458523      2.462428      1.137802
  P      -1.540589      1.833540      0.070382
  O      -2.517266      2.838408     -0.450880
  C      -0.509013      1.093787     -1.246298
  C       0.846904      0.463067     -0.842831
  C       0.683333     -0.801724     -0.014079
  C       1.094804     -0.828833      1.325979
  C       0.970130     -1.991350      2.094758
  C       0.436300     -3.152715      1.527870
  C       0.017013     -3.136265      0.192254
  C       0.133897     -1.969221     -0.566385
  C       1.695386      0.214505     -2.115295
  C       3.098457     -0.370858     -1.836278
  C       3.939588      0.492427     -0.916837
  C       4.323567      0.035094      0.352174
  C       5.076046      0.842738      1.212186
  C       5.458282      2.127266      0.814012
  C       5.086562      2.594513     -0.452289
  C       4.335298      1.783111     -1.306507
  C      -2.276544      0.473870      1.064127
  N      -3.026133     -0.466167      0.233910
  C      -3.243755     -1.754223      0.912844
  C      -3.908927     -2.733539     -0.053542
  O      -5.153472     -2.219325     -0.555086
  C      -4.957372     -0.945305     -1.195674
  C      -4.312178      0.069483     -0.253529
  H      -0.626647      3.417992      1.238384
  H      -0.338784      1.926318     -1.944481
  H      -1.147664      0.365325     -1.763605
  H       1.384063      1.193593     -0.225586
  H       1.515288      0.072402      1.768294
  H       1.295335     -1.990286      3.134055
  H       0.344452     -4.061494      2.120257
  H      -0.407654     -4.032964     -0.256551
  H      -0.206515     -1.971563     -1.600375
  H       1.155620     -0.460846     -2.794959
  H       1.798792      1.170362     -2.648753
  H       2.996783     -1.373010     -1.400933
  H       3.614760     -0.497288     -2.799740
  H       4.025483     -0.962605      0.670632
  H       5.364180      0.466871      2.193013
  H       6.044086      2.757677      1.480862
  H       5.385826      3.590636     -0.775310
  H       4.055623      2.156525     -2.291847
  H      -1.449541     -0.057853      1.547968
  H      -2.884809      0.948398      1.863038
  H      -2.276021     -2.155042      1.235126
  H      -3.886076     -1.631839      1.810681
  H      -3.221310     -2.941638     -0.893845
  H      -4.149206     -3.676312      0.452480
  H      -4.323270     -1.072903     -2.092221
  H      -5.951764     -0.606060     -1.508195
  H      -5.000642      0.275993      0.593183
  H      -4.138582      1.015996     -0.778361
>
54
-1438.64501297; 31P isotropic shielding: 217.071843 ppm
  O      -1.872249      1.414219      1.896971
  P      -1.343024      0.684127      0.529290
  O      -1.334201      1.526605     -0.706801
  C       0.340657      0.053663      0.916530
  C       1.401371      1.189940      0.896346
  C       1.178339      2.152730      2.051869
  C       1.442470      1.776117      3.378879
  C       1.184837      2.650194      4.437751
  C       0.651120      3.920533      4.189848
  C       0.386679      4.311037      2.873499
  C       0.652465      3.433929      1.813589
  C       2.849786      0.624304      0.858081
  C       3.408101      0.440308     -0.576281
  C       2.655963     -0.549907     -1.442538
  C       1.654654     -0.125378     -2.331536
  C       0.949962     -1.046767     -3.111526
  C       1.242488     -2.411475     -3.027729
  C       2.237432     -2.848057     -2.146701
  C       2.933289     -1.924126     -1.359869
  C      -2.575480     -0.714693      0.551225
  N      -2.607171     -1.658207     -0.554879
  C      -1.488375     -2.608668     -0.608399
  C      -1.798502     -3.696387     -1.638622
  O      -2.060147     -3.130424     -2.933688
  C      -3.165249     -2.208076     -2.870020
  C      -2.891144     -1.076500     -1.879534
  H      -1.353420      2.216525      2.111730
  H       0.586699     -0.685598      0.148347
  H       0.333829     -0.457150      1.888933
  H       1.238373      1.757218     -0.028900
  H       1.849594      0.787738      3.588454
  H       1.395108      2.338492      5.459762
  H       0.445203      4.599234      5.015514
  H      -0.024568      5.298023      2.667561
  H       0.435606      3.735708      0.789627
  H       3.517205      1.317648      1.387608
  H       2.896984     -0.331330      1.400240
  H       3.414610      1.422541     -1.070172
  H       4.457824      0.123185     -0.494512
  H       1.410255      0.933247     -2.402688
  H       0.165937     -0.700145     -3.781335
  H       0.683177     -3.122406     -3.631053
  H       2.475677     -3.908556     -2.074310
  H       3.711106     -2.272558     -0.679474
  H      -2.435369     -1.264056      1.493508
  H      -3.547750     -0.203329      0.619606
  H      -0.532024     -2.131215     -0.883921
  H      -1.366900     -3.067646      0.383786
  H      -0.938308     -4.364260     -1.763092
  H      -2.671701     -4.287360     -1.307030
  H      -3.290557     -1.813540     -3.885269
  H      -4.082240     -2.751064     -2.576758
  H      -3.778320     -0.433529     -1.796035
  H      -2.062699     -0.446757     -2.245781
>
54
-1438.64128874; 31P isotropic shielding: 229.014082 ppm
  O      -1.250339     -1.428459      0.284263
  P      -1.699277     -0.026012     -0.431199
  O      -2.043274      1.091962      0.499500
  C      -0.319500      0.419866     -1.570956
  C       0.862056      1.103518     -0.829376
  C       1.456729      0.158905      0.207653
  C       2.260017     -0.929543     -0.163671
  C       2.783880     -1.794139      0.797591
  C       2.493152     -1.600206      2.152930
  C       1.675457     -0.533186      2.535550
  C       1.164692      0.341583      1.568507
  C       1.884860      1.658703     -1.848532
  C       3.038040      2.493930     -1.234183
  C       4.112677      1.672601     -0.549729
  C       4.246943      1.660604      0.845200
  C       5.188851      0.839284      1.470200
  C       6.027567      0.023948      0.704284
  C       5.922951      0.045790     -0.690838
  C       4.974908      0.865067     -1.308638
  C      -3.087343     -0.647271     -1.506401
  N      -4.402840     -0.781890     -0.896855
  C      -4.478106     -1.728107      0.229100
  C      -5.947870     -1.963505      0.581153
  O      -6.612961     -0.730705      0.904280
  C      -6.528574      0.195155     -0.193613
  C      -5.074284      0.490288     -0.564814
  H      -0.532477     -1.275189      0.933178
  H      -0.736098      1.113544     -2.316225
  H       0.019332     -0.479897     -2.102986
  H       0.440599      1.959587     -0.284449
  H       2.500585     -1.093718     -1.211677
  H       3.425213     -2.617872      0.490031
  H       2.902560     -2.274598      2.902901
  H       1.437321     -0.374625      3.586196
  H       0.520338      1.167210      1.865601
  H       2.307089      0.838185     -2.446487
  H       1.332762      2.298367     -2.552459
  H       3.497922      3.078032     -2.044936
  H       2.617614      3.221593     -0.525396
  H       3.586217      2.279669      1.449643
  H       5.260810      0.829767      2.556389
  H       6.759612     -0.619693      1.189199
  H       6.581555     -0.574315     -1.297525
  H       4.896818      0.871064     -2.396352
  H      -3.162413      0.054912     -2.349501
  H      -2.769329     -1.619017     -1.913204
  H      -4.008946     -2.675531     -0.070002
  H      -3.944443     -1.354404      1.122864
  H      -6.459892     -2.452904     -0.268001
  H      -6.036669     -2.600183      1.469595
  H      -7.061861     -0.218232     -1.069701
  H      -7.036384      1.108505      0.138580
  H      -4.572933      1.019974      0.263057
  H      -5.048112      1.141885     -1.450538
>
54
-1438.64165652; 31P isotropic shielding: 222.777902 ppm
  O      -1.147346     -0.850619      2.076906
  P      -1.765457     -0.368355      0.640461
  O      -2.121900      1.077940      0.517093
  C      -0.524278     -0.875862     -0.625215
  C       0.645571      0.136424     -0.749701
  C       1.403217      0.238579      0.567887
  C       2.270712     -0.777211      0.998103
  C       2.946497     -0.673702      2.214144
  C       2.748108      0.440567      3.037903
  C       1.867783      1.447976      2.633415
  C       1.202937      1.347149      1.405248
  C       1.528476     -0.214733     -1.970259
  C       2.645970      0.811448     -2.289938
  C       3.841377      0.749359     -1.359569
  C       4.084486      1.753483     -0.412677
  C       5.144109      1.647977      0.492036
  C       5.992525      0.537454      0.453131
  C       5.777749     -0.459960     -0.504286
  C       4.712759     -0.350714     -1.401835
  C      -3.195615     -1.563089      0.552804
  N      -4.337212     -1.182935     -0.267053
  C      -5.151813     -0.077436      0.277647
  C      -6.433554      0.044110     -0.547095
  O      -6.141878      0.259814     -1.940744
  C      -5.349390     -0.816186     -2.464043
  C      -4.037434     -0.968739     -1.689790
  H      -0.330401     -0.359702      2.302732
  H      -1.059033     -0.941658     -1.582966
  H      -0.152313     -1.880978     -0.381933
  H       0.193805      1.119657     -0.941900
  H       2.440332     -1.647287      0.367896
  H       3.634613     -1.460320      2.517717
  H       3.276968      0.521531      3.985848
  H       1.699815      2.316475      3.268322
  H       0.508656      2.125697      1.094377
  H       1.973552     -1.212262     -1.843110
  H       0.865123     -0.285325     -2.844683
  H       2.985218      0.628435     -3.320220
  H       2.218014      1.823972     -2.278250
  H       3.419425      2.614071     -0.364754
  H       5.301537      2.429902      1.232911
  H       6.816688      0.451466      1.159284
  H       6.441366     -1.322307     -0.552620
  H       4.549887     -1.136812     -2.139928
  H      -2.797554     -2.528445      0.202929
  H      -3.528035     -1.707771      1.589770
  H      -5.408372     -0.316997      1.319587
  H      -4.604378      0.880205      0.270909
  H      -7.041844     -0.872059     -0.433907
  H      -7.022619      0.909868     -0.222522
  H      -5.918952     -1.762514     -2.413294
  H      -5.153283     -0.570340     -3.514715
  H      -3.416153     -0.065678     -1.853367
  H      -3.487561     -1.841863     -2.071889
>
54
-1438.64161076; 31P isotropic shielding: 227.157219 ppm
  O      -0.477313      2.468108      1.157417
  P      -1.559358      1.812161      0.106442
  O      -2.558432      2.795745     -0.412844
  C      -0.530045      1.079739     -1.216074
  C       0.838294      0.469281     -0.823161
  C       0.701240     -0.796391      0.008989
  C       1.126323     -0.815209      1.344944
  C       1.027355     -1.978336      2.116560
  C       0.506139     -3.148688      1.556441
  C       0.073199     -3.140572      0.225082
  C       0.164148     -1.972923     -0.536168
  C       1.678756      0.230718     -2.102984
  C       3.092101     -0.335483     -1.836413
  C       3.929611      0.538898     -0.924212
  C       4.304662      1.834883     -1.316670
  C       5.052695      2.655815     -0.468690
  C       5.441725      2.193137      0.794091
  C       5.080121      0.903484      1.194934
  C       4.330955      0.086261      0.341117
  C      -2.258858      0.448993      1.121066
  N      -2.998339     -0.514502      0.308987
  C      -3.186113     -1.797829      1.005766
  C      -3.844025     -2.800650      0.058665
  O      -5.102899     -2.314674     -0.435313
  C      -4.935876     -1.045729     -1.093821
  C      -4.298802     -0.007867     -0.171475
  H      -0.652481      3.423893      1.242708
  H      -0.377428      1.911524     -1.919235
  H      -1.163204      0.340675     -1.724907
  H       1.370505      1.208488     -0.211946
  H       1.537520      0.092994      1.781767
  H       1.362841     -1.970687      3.152559
  H       0.434404     -4.058020      2.150752
  H      -0.341989     -4.044433     -0.218172
  H      -0.186286     -1.982004     -1.566762
  H       1.141902     -0.452661     -2.776923
  H       1.764305      1.187321     -2.638249
  H       3.008062     -1.338990     -1.400374
  H       3.601488     -0.454743     -2.804458
  H       4.011995      2.205124     -2.299456
  H       5.335894      3.655900     -0.793961
  H       6.024958      2.831059      1.456035
  H       5.381812      0.531078      2.172997
  H       4.049057     -0.915445      0.661730
  H      -1.416371     -0.060575      1.602202
  H      -2.868307      0.920299      1.920995
  H      -2.208229     -2.177633      1.322752
  H      -3.821215     -1.675704      1.908769
  H      -3.162072     -3.006918     -0.786569
  H      -4.061726     -3.741152      0.578911
  H      -4.309163     -1.173600     -1.995516
  H      -5.939213     -0.727641     -1.399970
  H      -4.981817      0.197440      0.679881
  H      -4.147607      0.934744     -0.710137
>
54
-1438.64498664; 31P isotropic shielding: 217.082510 ppm
  O      -3.081553      1.235730      2.170738
  P      -2.227871      1.445021      0.774068
  O      -2.690501      2.621266     -0.017828
  C      -0.526021      1.480825      1.440170
  C       0.591879      1.169249      0.415301
  C       0.504782      2.031067     -0.835289
  C       0.570138      3.430445     -0.759696
  C       0.485274      4.215298     -1.910600
  C       0.333918      3.612728     -3.164726
  C       0.268603      2.219963     -3.254962
  C       0.354378      1.440362     -2.096840
  C       1.972557      1.287921      1.105423
  C       3.157215      0.828089      0.225338
  C       3.076971     -0.631876     -0.175161
  C       2.864328     -1.009400     -1.509410
  C       2.771428     -2.358260     -1.871917
  C       2.896988     -3.356444     -0.901272
  C       3.116284     -2.994473      0.433118
  C       3.201411     -1.646266      0.789484
  C      -2.394962     -0.144984     -0.146585
  N      -1.793008     -1.291852      0.538265
  C      -2.704745     -1.931564      1.503492
  C      -1.977851     -3.055933      2.240199
  O      -1.443142     -4.028100      1.327229
  C      -0.544559     -3.398979      0.396219
  C      -1.245802     -2.294485     -0.393618
  H      -3.888360      1.783326      2.127371
  H      -0.478154      0.759269      2.265085
  H      -0.403550      2.484668      1.871305
  H       0.466901      0.122405      0.113680
  H       0.670339      3.917173      0.209201
  H       0.526733      5.300304     -1.829426
  H       0.261770      4.225107     -4.061890
  H       0.147355      1.739346     -4.224745
  H       0.310017      0.355322     -2.173540
  H       2.138006      2.331663      1.410096
  H       1.954112      0.691062      2.029189
  H       3.209258      1.454333     -0.674402
  H       4.088083      1.001972      0.785293
  H       2.774782     -0.236852     -2.271094
  H       2.609004     -2.628102     -2.914618
  H       2.829796     -4.406567     -1.180283
  H       3.220493     -3.764501      1.196060
  H       3.376294     -1.376891      1.831225
  H      -3.466343     -0.284831     -0.392705
  H      -1.877536      0.029913     -1.097753
  H      -3.050687     -1.180870      2.222645
  H      -3.596312     -2.347572      0.986906
  H      -1.162076     -2.630760      2.853295
  H      -2.670055     -3.597642      2.895530
  H       0.319192     -2.974500      0.934211
  H      -0.188931     -4.189796     -0.273314
  H      -2.042364     -2.740971     -1.025242
  H      -0.517905     -1.806859     -1.055321
>
54
-1438.64287969; 31P isotropic shielding: 213.370728 ppm
  O      -2.009158      1.483252      1.141335
  P      -2.098555      1.657133     -0.473780
  O      -3.198551      2.516143     -1.000743
  C      -0.440949      2.283132     -0.947991
  C       0.770545      1.878780     -0.067897
  C       0.969514      0.371926     -0.022312
  C       0.729339     -0.336148      1.162184
  C       0.918609     -1.720412      1.225050
  C       1.352936     -2.419424      0.095696
  C       1.588421     -1.724215     -1.096039
  C       1.392218     -0.343734     -1.153151
  C       2.026098      2.654679     -0.540809
  C       3.307271      2.418866      0.299687
  C       4.031628      1.120864     -0.002403
  C       4.625270      0.918030     -1.258921
  C       5.248565     -0.291777     -1.573848
  C       5.292737     -1.324365     -0.630467
  C       4.722651     -1.127740      0.630662
  C       4.105761      0.087228      0.940611
  C      -2.262020     -0.135147     -0.955530
  N      -3.013252     -0.824790      0.108421
  C      -4.475879     -0.614016      0.000544
  C      -5.173766     -1.263361      1.193833
  O      -4.866860     -2.665998      1.286675
  C      -3.448931     -2.872417      1.386780
  C      -2.706866     -2.266828      0.195377
  H      -2.374147      0.569616      1.320721
  H      -0.553695      3.376620     -0.955111
  H      -0.280447      1.986689     -1.995474
  H       0.549347      2.206952      0.956491
  H       0.391667      0.206782      2.042960
  H       0.734010     -2.250086      2.158690
  H       1.514392     -3.494983      0.142879
  H       1.939466     -2.257123     -1.977676
  H       1.595797      0.183137     -2.083350
  H       2.233919      2.420727     -1.595073
  H       1.779954      3.725863     -0.509688
  H       3.991752      3.258893      0.109468
  H       3.053962      2.461946      1.368468
  H       4.593176      1.714619     -2.002762
  H       5.702620     -0.428624     -2.554394
  H       5.771643     -2.271042     -0.875040
  H       4.750162     -1.923611      1.373070
  H       3.650234      0.225524      1.919543
  H      -2.752315     -0.200481     -1.941990
  H      -1.264779     -0.578629     -1.030435
  H      -4.684077      0.463002     -0.025239
  H      -4.860097     -1.054391     -0.940295
  H      -4.873055     -0.752737      2.127117
  H      -6.262356     -1.194433      1.088750
  H      -3.069304     -2.425637      2.324624
  H      -3.298457     -3.957681      1.424929
  H      -3.009440     -2.791630     -0.732087
  H      -1.624607     -2.388041      0.324642
>
54
-1438.64431301; 31P isotropic shielding: 242.784649 ppm
  O      -2.793197      0.967740      2.765609
  P      -2.150123      1.519633      1.349897
  O      -2.700375      2.846917      0.946020
  C      -0.367624      1.456917      1.776218
  C       0.638205      1.129243      0.646741
  C       0.383043      1.876193     -0.651768
  C       0.376600      1.175256     -1.867085
  C       0.162918      1.837028     -3.080150
  C      -0.051502      3.219097     -3.093641
  C      -0.049103      3.928682     -1.887772
  C       0.168608      3.262444     -0.679277
  C       2.079939      1.362222      1.165206
  C       3.174568      0.796265      0.235904
  C       3.066774     -0.698540     -0.010529
  C       3.053217     -1.210604     -1.316783
  C       2.953946     -2.586095     -1.555121
  C       2.859542     -3.479592     -0.484072
  C       2.873481     -2.984291      0.824428
  C       2.978040     -1.609809      1.055789
  C      -2.538313      0.221719      0.094251
  N      -1.743891     -1.002783      0.157459
  C      -2.056608     -1.874409      1.302025
  C      -1.090437     -3.060217      1.316280
  O      -1.149683     -3.809221      0.090844
  C      -0.863454     -2.959485     -1.034610
  C      -1.825049     -1.773358     -1.095788
  H      -3.617926      1.455696      2.950798
  H      -0.247156      0.726766      2.586593
  H      -0.169776      2.446866      2.214303
  H       0.523558      0.062892      0.429652
  H       0.543619      0.100494     -1.855260
  H       0.161341      1.274152     -4.012801
  H      -0.224987      3.738485     -4.034662
  H      -0.229463      5.002303     -1.886549
  H       0.142403      3.827155      0.250169
  H       2.247943      2.440550      1.303204
  H       2.171965      0.904661      2.161153
  H       3.143398      1.320629     -0.727915
  H       4.156160      1.022741      0.680565
  H       3.120518     -0.520994     -2.157374
  H       2.944752     -2.958294     -2.578637
  H       2.769737     -4.548971     -0.664860
  H       2.802839     -3.670890      1.666700
  H       2.992693     -1.242730      2.081475
  H      -3.633806      0.045163      0.158160
  H      -2.349243      0.714111     -0.867581
  H      -1.958570     -1.309754      2.235982
  H      -3.102237     -2.246507      1.247878
  H      -0.060363     -2.697829      1.481120
  H      -1.355172     -3.762510      2.115730
  H       0.175367     -2.596618     -0.973509
  H      -0.968464     -3.589003     -1.926370
  H      -2.857646     -2.140611     -1.277259
  H      -1.549107     -1.116904     -1.931278
>
54
-1438.64169374; 31P isotropic shielding: 215.460199 ppm
  O      -3.162181      1.446663      2.104386
  P      -2.281295      1.728950      0.738128
  O      -2.706277      2.969623      0.025828
  C      -0.591625      1.718464      1.449298
  C       0.565135      1.209663      0.556119
  C       0.543082      1.756827     -0.861475
  C       0.403468      3.127845     -1.124546
  C       0.399933      3.608013     -2.436323
  C       0.540188      2.723510     -3.511379
  C       0.681020      1.354462     -3.262905
  C       0.680700      0.879644     -1.947608
  C       1.915191      1.497484      1.260151
  C       3.120806      0.784536      0.612081
  C       2.998977     -0.728534      0.573497
  C       3.159861     -1.430719     -0.630546
  C       3.057227     -2.825734     -0.674882
  C       2.782349     -3.547325      0.490570
  C       2.616537     -2.861056      1.698568
  C       2.726138     -1.468184      1.737101
  C      -2.518093      0.230398     -0.315394
  N      -1.788607     -0.968526      0.090604
  C      -1.699182     -1.954444     -1.000555
  C      -0.794698     -3.110969     -0.576454
  O      -1.274126     -3.738903      0.626608
  C      -1.382912     -2.777564      1.689706
  C      -2.301925     -1.615317      1.309366
  H      -3.974929      1.986158      2.073716
  H      -0.623464      1.120765      2.369159
  H      -0.429711      2.761996      1.758847
  H       0.445921      0.124244      0.482258
  H       0.268081      3.828234     -0.303114
  H       0.274798      4.673779     -2.619886
  H       0.533280      3.098059     -4.533646
  H       0.788271      0.656235     -4.092130
  H       0.790344     -0.185218     -1.754025
  H       2.099845      2.581855      1.266994
  H       1.831499      1.191211      2.313154
  H       3.262933      1.159165     -0.409899
  H       4.027240      1.062168      1.172328
  H       3.367520     -0.874870     -1.544088
  H       3.187543     -3.347864     -1.621805
  H       2.690511     -4.631284      0.458725
  H       2.401380     -3.412723      2.612395
  H       2.600875     -0.950796      2.687819
  H      -3.615828      0.078514     -0.398924
  H      -2.160754      0.539636     -1.305405
  H      -2.702279     -2.346505     -1.272571
  H      -1.277422     -1.462494     -1.886873
  H      -0.781928     -3.893948     -1.344155
  H       0.232773     -2.744709     -0.422297
  H      -1.785774     -3.321249      2.552494
  H      -0.381054     -2.387887      1.942968
  H      -2.333524     -0.889193      2.129354
  H      -3.336436     -1.991386      1.158263
>
54
-1438.64179526; 31P isotropic shielding: 215.378498 ppm
  O      -1.205491     -1.565456     -0.340365
  P      -1.559567      0.026782     -0.478015
  O      -1.591337      0.793626      0.804659
  C      -0.330580      0.719515     -1.666972
  C       1.026767      1.027661     -0.978706
  C       1.640455     -0.256115     -0.429124
  C       2.125364     -1.253554     -1.289716
  C       2.646611     -2.446820     -0.786767
  C       2.688489     -2.667556      0.594500
  C       2.198192     -1.686758      1.462038
  C       1.674399     -0.493547      0.952561
  C       1.978306      1.798231     -1.929357
  C       3.030871      2.667765     -1.195484
  C       3.841059      1.930068     -0.148842
  C       3.715210      2.252483      1.209171
  C       4.405767      1.531307      2.188970
  C       5.234313      0.468734      1.820421
  C       5.378872      0.144176      0.466303
  C       4.694252      0.873831     -0.506321
  C      -3.172981     -0.079777     -1.401582
  N      -4.381813     -0.323804     -0.627585
  C      -4.798846      0.786213      0.252226
  C      -6.204401      0.493949      0.779972
  O      -6.251756     -0.762048      1.480132
  C      -5.836179     -1.837218      0.621266
  C      -4.420229     -1.609569      0.088672
  H      -0.390046     -1.701558      0.184540
  H      -0.762476      1.651835     -2.059081
  H      -0.204285      0.027732     -2.511051
  H       0.799740      1.677081     -0.122445
  H       2.097245     -1.100115     -2.367584
  H       3.018313     -3.206806     -1.472432
  H       3.098515     -3.595240      0.989811
  H       2.226305     -1.845551      2.538634
  H       1.284322      0.262242      1.629684
  H       2.481280      1.091443     -2.603117
  H       1.385068      2.463819     -2.572896
  H       3.701899      3.104681     -1.950942
  H       2.514244      3.509983     -0.714093
  H       3.055513      3.068444      1.503769
  H       4.288006      1.794635      3.239096
  H       5.763988     -0.103604      2.580068
  H       6.021257     -0.683345      0.169878
  H       4.804955      0.603833     -1.555927
  H      -3.283755      0.877730     -1.931683
  H      -3.059460     -0.866232     -2.162965
  H      -4.101235      0.930648      1.094285
  H      -4.815120      1.713842     -0.338362
  H      -6.512013      1.257974      1.503925
  H      -6.924558      0.478698     -0.059051
  H      -5.880199     -2.748641      1.229481
  H      -6.540168     -1.932034     -0.226100
  H      -4.150470     -2.413726     -0.609893
  H      -3.704111     -1.640884      0.931096
>
54
-1438.64068593; 31P isotropic shielding: 222.873506 ppm
  O      -1.214868     -1.548107     -0.352082
  P      -1.578720      0.045768     -0.427904
  O      -1.594028      0.767182      0.881046
  C      -0.373285      0.788965     -1.610152
  C       1.004655      1.053546     -0.944961
  C       1.626844     -0.259931     -0.482579
  C       2.071324     -1.216283     -1.409018
  C       2.603633     -2.435155     -0.985385
  C       2.697180     -2.723719      0.380758
  C       2.247308     -1.784462      1.313592
  C       1.712010     -0.565330      0.883486
  C       1.933734      1.867731     -1.882377
  C       3.013119      2.692816     -1.136824
  C       3.850057      1.898934     -0.153907
  C       4.679601      0.852819     -0.589009
  C       5.388844      0.072195      0.324501
  C       5.294188      0.334625      1.696372
  C       4.490620      1.386776      2.142023
  C       3.774578      2.159085      1.221093
  C      -3.206460     -0.042243     -1.329941
  N      -4.404874     -0.277681     -0.536977
  C      -4.808303      0.843649      0.334947
  C      -6.202993      0.555639      0.893109
  O      -6.234185     -0.689984      1.612053
  C      -5.832406     -1.776440      0.760922
  C      -4.427612     -1.553739      0.197898
  H      -0.387229     -1.699229      0.149182
  H      -0.809344      1.742663     -1.941323
  H      -0.273939      0.141344     -2.492067
  H       0.808636      1.658182     -0.049208
  H       2.003820     -1.009480     -2.476111
  H       2.943937     -3.162405     -1.721024
  H       3.116041     -3.671525      0.714151
  H       2.316569     -1.995329      2.379293
  H       1.356844      0.159593      1.611796
  H       2.410863      1.193950     -2.606698
  H       1.325667      2.568704     -2.472183
  H       3.664583      3.164545     -1.888448
  H       2.516982      3.511302     -0.596747
  H       4.750719      0.630501     -1.653090
  H       6.011079     -0.746855     -0.032140
  H       5.843299     -0.277237      2.410007
  H       4.412091      1.602481      3.206572
  H       3.135148      2.967021      1.576392
  H      -3.318324      0.916314     -1.857553
  H      -3.109891     -0.829216     -2.093003
  H      -4.095133      1.001580      1.161380
  H      -4.839488      1.762338     -0.269065
  H      -6.499166      1.329593      1.611252
  H      -6.938353      0.526581      0.067716
  H      -5.862234     -2.679113      1.382855
  H      -6.552406     -1.885143     -0.071199
  H      -4.169976     -2.367070     -0.494542
  H      -3.695059     -1.571044      1.026423
>
54
-1438.64058443; 31P isotropic shielding: 223.211525 ppm
  O      -3.200463      0.985908      2.126311
  P      -2.208475      1.405321      0.876221
  O      -2.537019      2.740371      0.298106
  C      -0.578479      1.198818      1.677460
  C       0.614988      1.017334      0.708050
  C       0.697210      2.118318     -0.338651
  C       0.633765      1.808625     -1.703576
  C       0.702654      2.811050     -2.676613
  C       0.838313      4.147636     -2.292865
  C       0.904220      4.470335     -0.932601
  C       0.834726      3.464294      0.032198
  C       1.926951      0.890962      1.520410
  C       3.162180      0.528995      0.664833
  C       3.039735     -0.812015     -0.032450
  C       2.935719     -0.898048     -1.428968
  C       2.799819     -2.135971     -2.067991
  C       2.772258     -3.314563     -1.316662
  C       2.883242     -3.244514      0.077041
  C       3.012370     -2.005326      0.709325
  C      -2.357960      0.039347     -0.353787
  N      -1.902678     -1.260586      0.145939
  C      -2.956579     -2.002977      0.860427
  C      -2.385809     -3.302410      1.426148
  O      -1.806043     -4.118547      0.395277
  C      -0.770247     -3.394732     -0.291918
  C      -1.307466     -2.103194     -0.907815
  H      -3.973204      1.582186      2.123960
  H      -0.646337      0.329623      2.343292
  H      -0.447723      2.090665      2.306562
  H       0.464937      0.065405      0.185026
  H       0.534283      0.768162     -2.008356
  H       0.646011      2.547779     -3.731888
  H       0.886441      4.932874     -3.045319
  H       1.000025      5.509993     -0.623599
  H       0.871095      3.735678      1.086160
  H       2.121079      1.836578      2.047177
  H       1.784688      0.124334      2.296405
  H       3.333191      1.316176     -0.080675
  H       4.044290      0.519397      1.322161
  H       2.963423      0.016169     -2.019249
  H       2.722951     -2.178635     -3.153665
  H       2.671196     -4.279470     -1.810518
  H       2.868689     -4.157155      0.670931
  H       3.100560     -1.963885      1.795053
  H      -3.399821      0.031858     -0.731033
  H      -1.725626      0.354316     -1.192733
  H      -3.342961     -1.381937      1.676258
  H      -3.802406     -2.238990      0.179506
  H      -1.623166     -3.068995      2.191745
  H      -3.178782     -3.904380      1.885300
  H       0.050062     -3.157116      0.405493
  H      -0.387702     -4.064720     -1.069713
  H      -2.048849     -2.351115     -1.696280
  H      -0.478875     -1.557525     -1.378248
