41
-1206.28201034; 31P isotropic shielding: 239.387757 ppm
  C       0.499892     -0.601294     -2.983549
  C       1.779820     -0.162154     -2.265315
  N       2.232062     -1.102219     -1.220901
  C       1.240859     -1.468085     -0.215301
  P       0.822293     -0.240532      1.123983
  O       1.894284     -0.032801      2.132938
  O      -0.555027     -0.904536      1.769006
  C      -1.709362     -0.957449      0.994643
  C      -2.551110     -2.051632      1.207815
  C      -3.720899     -2.184800      0.461070
  C      -4.042031     -1.224140     -0.506626
  C      -3.206450     -0.126020     -0.697074
  C      -2.029351      0.054617      0.057830
  C      -1.184668      1.260075     -0.079436
  C       0.146833      1.263996      0.399724
  C       0.938256      2.417034      0.335183
  C       0.432917      3.582889     -0.239463
  C      -0.879019      3.592005     -0.730233
  C      -1.680108      2.453847     -0.639312
  C       3.564198     -0.740350     -0.697179
  C       4.182219     -1.811549      0.206005
  H      -0.389046     -0.523174     -2.347218
  H       0.586615     -1.638000     -3.334569
  H       0.331515      0.044612     -3.854685
  H       1.649407      0.866359     -1.879394
  H       2.597986     -0.114157     -2.997884
  H       0.306204     -1.755629     -0.709402
  H       1.585033     -2.351473      0.340040
  H      -2.262338     -2.788154      1.954170
  H      -4.370094     -3.043255      0.622296
  H      -4.939937     -1.333134     -1.111219
  H      -3.462208      0.607174     -1.458011
  H       1.946889      2.387636      0.742642
  H       1.047613      4.479202     -0.294942
  H      -1.288766      4.500500     -1.168747
  H      -2.710685      2.504877     -0.981347
  H       4.205719     -0.593611     -1.577616
  H       3.544597      0.224750     -0.152768
  H       5.229714     -1.555352      0.410271
  H       3.669686     -1.875161      1.171862
  H       4.158986     -2.794215     -0.284088
>
41
-1206.28235167; 31P isotropic shielding: 245.552472 ppm
  C       4.123246     -1.945306      0.199698
  C       3.548892     -0.824345     -0.671546
  N       2.212660     -1.126741     -1.221578
  C       1.199706     -1.500601     -0.241168
  P       0.802530     -0.312718      1.139391
  O       1.864492     -0.181553      2.171325
  O      -0.607658     -0.952696      1.737191
  C      -1.747418     -0.937802      0.939323
  C      -2.628333     -2.010969      1.093627
  C      -3.785713     -2.077442      0.319115
  C      -4.055218     -1.071250     -0.617576
  C      -3.181106      0.005329     -0.749122
  C      -2.015422      0.118693      0.035730
  C      -1.130264      1.300516     -0.038132
  C       0.190421      1.241906      0.466711
  C       1.019112      2.370288      0.465141
  C       0.562752      3.574192     -0.071000
  C      -0.737285      3.645391     -0.587617
  C      -1.575661      2.530930     -0.559250
  C       1.798648     -0.138288     -2.236771
  C       0.521618     -0.522775     -2.990691
  H       3.598498     -2.024834      1.157782
  H       5.176267     -1.730534      0.422411
  H       4.073385     -2.909336     -0.324277
  H       4.204781     -0.666511     -1.539357
  H       3.552640      0.120984     -0.093043
  H       0.262817     -1.741520     -0.755337
  H       1.511041     -2.414095      0.284226
  H      -2.379087     -2.784542      1.816425
  H      -4.465201     -2.919710      0.434436
  H      -4.943253     -1.127933     -1.243600
  H      -3.397350      0.774080     -1.486982
  H       2.017801      2.292205      0.890383
  H       1.206416      4.451694     -0.077184
  H      -1.108671      4.583475     -0.997042
  H      -2.596555      2.629053     -0.919728
  H       1.683862      0.877707     -1.814307
  H       2.629816     -0.081025     -2.953736
  H       0.591018     -1.549053     -3.374661
  H      -0.376117     -0.445376     -2.366667
  H       0.382294      0.155312     -3.842348
>
41
-1206.28240389; 31P isotropic shielding: 245.404289 ppm
  C       4.160517     -1.918685      0.220280
  C       3.641740     -0.819615     -0.710845
  N       2.292577     -1.086502     -1.252538
  C       1.262850     -1.374380     -0.260654
  P       0.855254     -0.082249      1.018038
  O       1.973668      0.261303      1.935152
  O      -0.430792     -0.787932      1.794191
  C      -1.625479     -0.967485      1.103981
  C      -2.373883     -2.098032      1.439880
  C      -3.574974     -2.357096      0.780902
  C      -4.021469     -1.486261     -0.221331
  C      -3.278565     -0.349948     -0.533635
  C      -2.073371     -0.042722      0.130155
  C      -1.325425      1.204704     -0.134390
  C       0.031481      1.324754      0.249732
  C       0.734336      2.521149      0.063825
  C       0.111670      3.614454     -0.537667
  C      -1.227634      3.508184     -0.934095
  C      -1.939228      2.327221     -0.724047
  C       1.928102     -0.107814     -2.294645
  C       0.617302     -0.428321     -3.018989
  H       4.057321     -2.907586     -0.246514
  H       3.638066     -1.916875      1.183236
  H       5.224387     -1.747622      0.428466
  H       4.305246     -0.740465     -1.583815
  H       3.686017      0.152329     -0.182749
  H       0.329290     -1.647166     -0.766440
  H       1.559059     -2.248461      0.334994
  H      -1.989112     -2.763764      2.209095
  H      -4.151191     -3.244177      1.036787
  H      -4.944802     -1.694309     -0.757875
  H      -3.632147      0.312945     -1.319651
  H       1.766961      2.584237      0.401588
  H       0.657481      4.544279     -0.685526
  H      -1.728158      4.360048     -1.391630
  H      -2.991311      2.289307     -0.995107
  H       1.887570      0.926298     -1.900950
  H       2.750472     -0.125270     -3.023891
  H      -0.262779     -0.272222     -2.385106
  H       0.509910      0.231831     -3.889023
  H       0.612538     -1.467685     -3.372790
>
41
-1206.28261831; 31P isotropic shielding: 245.471410 ppm
  C       0.647162     -0.438125     -2.875118
  C       1.952187     -0.325921     -2.078088
  N       2.160266     -1.436667     -1.139018
  C       1.104173     -1.747466     -0.196530
  P       0.745010     -0.612264      1.244256
  O       1.746025     -0.622893      2.343482
  O      -0.738341     -1.173527      1.732208
  C      -1.840422     -1.010895      0.900663
  C      -2.815209     -2.009965      0.960859
  C      -3.944478     -1.929740      0.147413
  C      -4.092385     -0.850319     -0.733208
  C      -3.125627      0.151806     -0.769569
  C      -1.983917      0.117199      0.057378
  C      -0.998094      1.218782      0.082913
  C       0.291995      1.020502      0.631507
  C       1.213275      2.071707      0.716217
  C       0.883746      3.334661      0.224708
  C      -0.384826      3.544583     -0.330508
  C      -1.316157      2.507994     -0.387023
  C       3.548538     -1.628800     -0.697086
  C       4.210477     -0.480611      0.091961
  H      -0.238796     -0.297584     -2.246011
  H       0.572684     -1.417774     -3.365050
  H       0.621675      0.340381     -3.648306
  H       1.993937      0.666256     -1.593501
  H       2.800450     -0.360591     -2.777568
  H       0.153621     -1.865277     -0.733953
  H       1.319564     -2.714868      0.282324
  H      -2.660099     -2.843320      1.642333
  H      -4.697292     -2.714599      0.188400
  H      -4.957690     -0.791963     -1.390084
  H      -3.248460      0.978952     -1.464325
  H       2.183355      1.888002      1.172480
  H       1.600490      4.151338      0.284923
  H      -0.658634      4.530285     -0.703290
  H      -2.310456      2.713124     -0.775388
  H       3.576313     -2.547938     -0.094996
  H       4.142995     -1.825148     -1.604056
  H       3.718456     -0.321269      1.056978
  H       5.264484     -0.727284      0.282991
  H       4.191302      0.457336     -0.478817
>
41
-1206.28097391; 31P isotropic shielding: 240.823093 ppm
  C       0.467944     -0.675316     -2.922725
  C       1.782251     -0.347005     -2.204017
  N       2.140950     -1.328070     -1.170891
  C       1.165126     -1.628872     -0.142226
  P       0.776575     -0.381382      1.196105
  O       1.813892     -0.224168      2.249632
  O      -0.650601     -0.982201      1.793181
  C      -1.783884     -0.975120      0.987795
  C      -2.684964     -2.026547      1.173113
  C      -3.838399     -2.099118      0.393471
  C      -4.084294     -1.120903     -0.578671
  C      -3.190445     -0.064874     -0.740727
  C      -2.027674      0.054821      0.047518
  C      -1.119416      1.216170     -0.063425
  C       0.197757      1.153631      0.451306
  C       1.046967      2.266128      0.406794
  C       0.616423      3.454105     -0.183664
  C      -0.680337      3.528872     -0.707377
  C      -1.539781      2.432771     -0.635275
  C       3.560349     -1.350219     -0.791992
  C       4.148167     -0.072738     -0.158042
  H      -0.404931     -0.562201     -2.270105
  H       0.481376     -1.703472     -3.307410
  H       0.330526      0.010651     -3.768519
  H       1.735515      0.688322     -1.821676
  H       2.602406     -0.367283     -2.936528
  H       0.205443     -1.889484     -0.608283
  H       1.495106     -2.515655      0.420064
  H      -2.453971     -2.778911      1.923828
  H      -4.533376     -2.924972      0.532793
  H      -4.969061     -1.183714     -1.208679
  H      -3.388168      0.681351     -1.506265
  H       2.041263      2.189839      0.840806
  H       1.277171      4.317868     -0.224134
  H      -1.032658      4.456032     -1.156579
  H      -2.557734      2.535226     -1.002579
  H       3.701851     -2.195667     -0.104037
  H       4.127658     -1.586896     -1.706680
  H       5.228624     -0.203447     -0.004089
  H       4.012769      0.796537     -0.815258
  H       3.689984      0.139108      0.813646
>
41
-1206.28100725; 31P isotropic shielding: 240.642941 ppm
  C       0.716030     -0.385368     -2.883828
  C       2.010950     -0.321182     -2.062773
  N       2.173386     -1.458811     -1.146455
  C       1.091390     -1.748392     -0.225477
  P       0.732734     -0.629529      1.228990
  O       1.728173     -0.654255      2.332688
  O      -0.749928     -1.197941      1.706846
  C      -1.857050     -1.020818      0.885720
  C      -2.833533     -2.018744      0.933064
  C      -3.966455     -1.921841      0.126260
  C      -4.116734     -0.826798     -0.734852
  C      -3.147879      0.174290     -0.758182
  C      -2.003251      0.122588      0.063671
  C      -1.013910      1.221497      0.102148
  C       0.281182      1.011581      0.635154
  C       1.208508      2.057810      0.720713
  C       0.878090      3.328630      0.249928
  C      -0.397570      3.551687     -0.283947
  C      -1.333013      2.518907     -0.345062
  C       3.548496     -1.685281     -0.676677
  C       4.218519     -0.563962      0.147198
  H       0.762600      0.345185     -3.701345
  H      -0.169862     -0.147905     -2.284525
  H       0.582143     -1.383491     -3.321281
  H       2.062093      0.656702     -1.551410
  H       2.871329     -0.355646     -2.746575
  H       0.147556     -1.828660     -0.781977
  H       1.267342     -2.728299      0.244293
  H      -2.676474     -2.864385      1.598742
  H      -4.720580     -2.705756      0.157437
  H      -4.984005     -0.756575     -1.387745
  H      -3.271225      1.013471     -1.438013
  H       2.184977      1.863839      1.158724
  H       1.597662      4.142342      0.314488
  H      -0.672754      4.543932     -0.637603
  H      -2.330430      2.732199     -0.720463
  H       3.543870     -2.614254     -0.089351
  H       4.158322     -1.880001     -1.573215
  H       5.279671     -0.805690      0.301227
  H       4.176348      0.396157     -0.383708
  H       3.745879     -0.449031      1.127471
>
41
-1206.28085839; 31P isotropic shielding: 241.013715 ppm
  C       0.463991     -0.678933     -2.923438
  C       1.778596     -0.347777     -2.206566
  N       2.139749     -1.326807     -1.172426
  C       1.165344     -1.628061     -0.142582
  P       0.776151     -0.379566      1.194611
  O       1.814433     -0.219220      2.246721
  O      -0.649307     -0.981951      1.794096
  C      -1.783572     -0.977977      0.990123
  C      -2.682683     -2.030597      1.178115
  C      -3.836914     -2.106245      0.399955
  C      -4.085571     -1.129895     -0.573364
  C      -3.193678     -0.072625     -0.738045
  C      -2.030180      0.050184      0.048641
  C      -1.123992      1.212868     -0.065082
  C       0.193890      1.153360      0.448180
  C       1.041176      2.267200      0.400876
  C       0.607947      3.453519     -0.190945
  C      -0.689576      3.525292     -0.713177
  C      -1.547088      2.427874     -0.638304
  C       3.559533     -1.346447     -0.794945
  C       4.146151     -0.067235     -0.163352
  H       0.478443     -1.707586     -3.306742
  H       0.324770      0.005728     -3.769989
  H      -0.408344     -0.566102     -2.270046
  H       1.730801      0.688055     -1.825707
  H       2.598033     -0.367969     -2.939887
  H       0.205630     -1.890696     -0.607450
  H       1.497246     -2.513712      0.420367
  H      -2.449532     -2.781417      1.929704
  H      -4.530358     -2.933033      0.541352
  H      -4.970939     -1.195158     -1.202270
  H      -3.393529      0.672157     -1.504431
  H       2.036124      2.193247      0.833799
  H       1.267194      4.318323     -0.233596
  H      -1.044002      4.451150     -1.163409
  H      -2.565652      2.528047     -1.004535
  H       3.702938     -2.190697     -0.105914
  H       4.126273     -1.583605     -1.709864
  H       4.008893      0.800935     -0.821645
  H       3.688579      0.145265      0.808480
  H       5.226934     -0.196192     -0.010209
>
41
-1206.28100524; 31P isotropic shielding: 240.663235 ppm
  C       2.018687     -0.545551     -3.680492
  C       1.452252     -0.248093     -2.285108
  N       2.037652     -1.119836     -1.248024
  C       1.124026     -1.514974     -0.181967
  P       0.766049     -0.281749      1.170043
  O       1.866333     -0.100492      2.152778
  O      -0.615605     -0.898213      1.851439
  C      -1.789287     -0.919125      1.104984
  C      -2.663191     -1.980540      1.353648
  C      -3.855650     -2.082153      0.638725
  C      -4.167620     -1.122702     -0.333424
  C      -3.299145     -0.057563     -0.559889
  C      -2.096914      0.091485      0.162265
  C      -1.216362      1.266213     -0.011975
  C       0.124312      1.234137      0.440227
  C       0.952863      2.357467      0.337026
  C       0.474831      3.530119     -0.247654
  C      -0.846698      3.575699     -0.709319
  C      -1.683573      2.467056     -0.581129
  C       3.382848     -0.694369     -0.816900
  C       4.114353     -1.743272      0.025713
  H       1.531955      0.093770     -4.429872
  H       1.847543     -1.595400     -3.949346
  H       3.097460     -0.352791     -3.734775
  H       0.368772     -0.421888     -2.296895
  H       1.591842      0.823127     -2.049153
  H       0.166826     -1.811804     -0.629360
  H       1.515129     -2.393484      0.350350
  H      -2.381204     -2.716957      2.102746
  H      -4.530183     -2.914986      0.827964
  H      -5.084331     -1.206979     -0.913340
  H      -3.549879      0.674743     -1.323427
  H       1.968289      2.301349      0.724310
  H       1.118329      4.403643     -0.332696
  H      -1.235486      4.490112     -1.154628
  H      -2.719118      2.548170     -0.901789
  H       3.959702     -0.503156     -1.730093
  H       3.346880      0.261744     -0.257470
  H       4.119357     -2.715762     -0.484462
  H       5.154986     -1.429796      0.179027
  H       3.659865     -1.856198      1.016043
>
41
-1206.28225563; 31P isotropic shielding: 244.578784 ppm
  C       4.055714     -1.867881      0.260248
  C       3.431497     -0.777665     -0.615718
  N       2.103935     -1.139087     -1.149684
  C       1.102708     -1.517993     -0.159494
  P       0.690585     -0.298714      1.189155
  O       1.740067     -0.145710      2.230594
  O      -0.732056     -0.907899      1.787006
  C      -1.866742     -0.901375      0.982338
  C      -2.766100     -1.954044      1.169197
  C      -3.921662     -2.027609      0.392817
  C      -4.170865     -1.049293     -0.578615
  C      -3.278025      0.007153     -0.743321
  C      -2.112993      0.128109      0.041917
  C      -1.209664      1.293551     -0.067516
  C       0.106048      1.236189      0.450757
  C       0.952307      2.350318      0.408593
  C       0.518462      3.538977     -0.178247
  C      -0.777813      3.610044     -0.703857
  C      -1.633275      2.510176     -0.637581
  C       1.629290     -0.219881     -2.202179
  C       2.286730     -0.504396     -3.559984
  H       4.053794     -2.833851     -0.262269
  H       3.529257     -1.971408      1.215234
  H       5.095914     -1.602924      0.489223
  H       4.080636     -0.600542     -1.482002
  H       3.395013      0.171656     -0.045064
  H       0.169616     -1.773404     -0.678255
  H       1.424608     -2.418894      0.381836
  H      -2.532670     -2.705915      1.919668
  H      -4.615894     -2.853698      0.534341
  H      -5.057748     -1.112177     -1.205680
  H      -3.479451      0.754311     -1.507078
  H       1.946345      2.274881      0.844971
  H       1.176047      4.405313     -0.215577
  H      -1.132944      4.537241     -1.150803
  H      -2.650583      2.610173     -1.007463
  H       0.543781     -0.350098     -2.297353
  H       1.792047      0.838785     -1.927074
  H       1.881532      0.171940     -4.325160
  H       3.372654     -0.352133     -3.527569
  H       2.097496     -1.539825     -3.869352
>
41
-1206.28235146; 31P isotropic shielding: 245.060524 ppm
  C       4.407520     -2.567759     -1.410078
  C       3.292900     -2.076949     -0.477638
  N       2.175007     -1.445319     -1.214230
  C       0.899140     -1.510368     -0.513658
  P       0.680331     -0.480254      1.028717
  O       1.793813     -0.570899      2.008461
  O      -0.756170     -1.072349      1.610344
  C      -1.928833     -0.858905      0.892896
  C      -2.895028     -1.864720      0.968682
  C      -4.092160     -1.732679      0.266236
  C      -4.316858     -0.594401     -0.518730
  C      -3.355873      0.412945     -0.569771
  C      -2.145283      0.324870      0.147717
  C      -1.160562      1.427096      0.169600
  C       0.172845      1.194772      0.585501
  C       1.096304      2.242990      0.672494
  C       0.724308      3.539075      0.316695
  C      -0.587682      3.783402     -0.108320
  C      -1.519035      2.747173     -0.168207
  C       2.521307     -0.121517     -1.761460
  C       1.461995      0.447725     -2.710947
  H       4.001722     -3.232279     -2.183681
  H       5.157229     -3.122649     -0.830442
  H       4.929520     -1.741322     -1.907977
  H       3.705511     -1.400225      0.292133
  H       2.876917     -2.935597      0.064318
  H       0.076263     -1.255357     -1.194370
  H       0.726946     -2.543730     -0.181314
  H      -2.681332     -2.743183      1.573335
  H      -4.839256     -2.522335      0.318253
  H      -5.237607     -0.494036     -1.089487
  H      -3.539533      1.287453     -1.189112
  H       2.102622      2.030635      1.028082
  H       1.442739      4.353954      0.381409
  H      -0.893312      4.793608     -0.375883
  H      -2.543305      2.974006     -0.452762
  H       2.734793      0.609588     -0.955534
  H       3.457684     -0.242406     -2.318059
  H       1.214650     -0.282260     -3.492504
  H       0.539305      0.729083     -2.191125
  H       1.849658      1.353525     -3.194088
>
41
-1206.28202031; 31P isotropic shielding: 240.508092 ppm
  C       1.441929      0.176533     -2.779940
  C       2.536082     -0.098246     -1.743399
  N       2.335991     -1.348596     -0.989713
  C       1.066910     -1.446891     -0.281305
  P       0.715355     -0.217076      1.078837
  O       1.822136     -0.023052      2.051006
  O      -0.649917     -0.870803      1.758263
  C      -1.829578     -0.911380      1.021442
  C      -2.673233     -1.998845      1.259841
  C      -3.868774     -2.119244      0.552593
  C      -4.214187     -1.151865     -0.399958
  C      -3.376087     -0.059943     -0.614283
  C      -2.172323      0.107400      0.100699
  C      -1.322393      1.306235     -0.056968
  C       0.023814      1.297833      0.381630
  C       0.818404      2.447224      0.298894
  C       0.302973      3.620168     -0.251955
  C      -1.023054      3.640960     -0.702454
  C      -1.827190      2.506762     -0.594518
  C       3.512306     -1.721351     -0.171995
  C       4.661065     -2.277503     -1.022988
  H       1.729426      1.033354     -3.402462
  H       0.477863      0.421899     -2.319810
  H       1.305162     -0.694923     -3.433248
  H       2.639893      0.773140     -1.065805
  H       3.495112     -0.192518     -2.265864
  H       0.229377     -1.397509     -0.989796
  H       1.007758     -2.427720      0.210866
  H      -2.366405     -2.740383      1.993945
  H      -4.519600     -2.972765      0.732482
  H      -5.133226     -1.250262     -0.973877
  H      -3.652163      0.679022     -1.362515
  H       1.837981      2.411796      0.677678
  H       0.921289      4.513244     -0.318869
  H      -1.440289      4.554630     -1.122759
  H      -2.867307      2.565568     -0.904976
  H       3.862599     -0.872927      0.442770
  H       3.185382     -2.493270      0.535638
  H       5.081144     -1.523722     -1.700718
  H       5.476358     -2.618561     -0.370908
  H       4.317921     -3.126715     -1.627598
>
41
-1206.28200034; 31P isotropic shielding: 240.378414 ppm
  C       0.445615     -0.699734     -2.928441
  C       1.761565     -0.355135     -2.220419
  N       2.134661     -1.324418     -1.181430
  C       1.167042     -1.626111     -0.145363
  P       0.773944     -0.371157      1.184727
  O       1.817349     -0.192195      2.228751
  O      -0.640980     -0.983381      1.798453
  C      -1.781420     -0.996183      1.003360
  C      -2.668969     -2.055768      1.206744
  C      -3.828728     -2.148265      0.438661
  C      -4.094379     -1.181723     -0.539981
  C      -3.213845     -0.117446     -0.720012
  C      -2.045080      0.022391      0.056109
  C      -1.150877      1.192623     -0.073667
  C       0.171300      1.149835      0.430235
  C       1.007666      2.271187      0.367273
  C       0.558933      3.448394     -0.231150
  C      -0.743105      3.503570     -0.744188
  C      -1.589619      2.398819     -0.653724
  C       3.556255     -1.329999     -0.809897
  C       4.135527     -0.041016     -0.191543
  H       0.298302     -0.022407     -3.779483
  H      -0.424223     -0.587075     -2.271658
  H       0.464399     -1.731181     -3.304032
  H       1.708652      0.682952     -1.846381
  H       2.577481     -0.374714     -2.957705
  H       0.207339     -1.898987     -0.604380
  H       1.507850     -2.505412      0.422187
  H      -2.422635     -2.798452      1.962191
  H      -4.513185     -2.980403      0.591991
  H      -4.984210     -1.260075     -1.161053
  H      -3.426977      0.619580     -1.490299
  H       2.006419      2.210158      0.793409
  H       1.209686      4.318924     -0.286017
  H      -1.109596      4.422182     -1.199588
  H      -2.611742      2.486292     -1.013253
  H       3.709054     -2.167331     -0.114503
  H       4.121035     -1.570436     -1.725190
  H       3.989907      0.820226     -0.857174
  H       3.679452      0.176832      0.779793
  H       5.217739     -0.160663     -0.040953
>
41
-1206.28099271; 31P isotropic shielding: 240.714069 ppm
  C       1.064174      0.134304     -2.930200
  C       2.303333      0.007222     -2.038836
  N       2.337688     -1.225096     -1.230487
  C       1.154876     -1.477366     -0.415864
  P       0.810285     -0.362503      1.035255
  O       1.915422     -0.264594      2.024844
  O      -0.563558     -1.055789      1.655911
  C      -1.741063     -1.020957      0.915781
  C      -2.599298     -2.113142      1.061935
  C      -3.792214     -2.160406      0.341795
  C      -4.119975     -1.115722     -0.531860
  C      -3.267434     -0.020791     -0.653571
  C      -2.066710      0.073436      0.079238
  C      -1.203219      1.271784      0.024483
  C       0.140283      1.212696      0.466288
  C       0.948706      2.355363      0.479687
  C       0.449089      3.574814      0.023552
  C      -0.874545      3.647273     -0.428605
  C      -1.692167      2.517736     -0.415493
  C       3.635649     -1.373105     -0.536156
  C       3.801401     -2.713493      0.184413
  H       0.151101      0.326520     -2.355611
  H       0.918911     -0.778040     -3.523394
  H       1.194578      0.977184     -3.620542
  H       2.403542      0.917127     -1.414285
  H       3.198318     -0.023661     -2.676354
  H       0.261326     -1.476883     -1.052039
  H       1.218679     -2.480664      0.025156
  H      -2.305314     -2.915763      1.734414
  H      -4.454658     -3.017106      0.449697
  H      -5.036737     -1.156477     -1.116289
  H      -3.529876      0.779105     -1.341627
  H       1.966679      2.277271      0.856550
  H       1.077891      4.463011      0.030443
  H      -1.279445      4.596821     -0.774928
  H      -2.729978      2.613747     -0.724291
  H       4.403385     -1.287503     -1.318743
  H       3.810787     -0.551088      0.182850
  H       3.180933     -2.773479      1.085659
  H       3.552857     -3.551038     -0.481407
  H       4.845296     -2.828248      0.502930
>
41
-1206.28247426; 31P isotropic shielding: 243.826459 ppm
  C       0.511403     -0.628247     -2.909622
  C       1.824412     -0.347734     -2.168581
  N       2.148522     -1.361998     -1.156059
  C       1.154463     -1.665945     -0.146079
  P       0.782676     -0.447046      1.222306
  O       1.809928     -0.346456      2.292416
  O      -0.667509     -1.025983      1.784793
  C      -1.789158     -0.966845      0.965369
  C      -2.719631     -1.998922      1.109562
  C      -3.863384     -2.020119      0.312756
  C      -4.070398     -1.009907     -0.635341
  C      -3.147487      0.026470     -0.756262
  C      -1.993329      0.094195      0.050515
  C      -1.053845      1.234023     -0.016468
  C       0.253856      1.123045      0.514143
  C       1.131693      2.213962      0.512921
  C       0.739965      3.428799     -0.049276
  C      -0.546723      3.551666     -0.588503
  C      -1.434792      2.476566     -0.559437
  C       3.562523     -1.427640     -0.762611
  C       4.172882     -0.181078     -0.089569
  H       0.504816     -1.648033     -3.316136
  H       0.400784      0.078388     -3.742272
  H      -0.366608     -0.507769     -2.265270
  H       1.796913      0.678952     -1.761691
  H       2.652353     -0.369370     -2.892208
  H       0.193521     -1.888391     -0.628746
  H       1.455631     -2.576298      0.394368
  H      -2.519002     -2.777626      1.841931
  H      -4.581355     -2.830987      0.419685
  H      -4.947456     -1.032202     -1.278709
  H      -3.315228      0.798282     -1.503397
  H       2.117378      2.099628      0.958006
  H       1.422963      4.276018     -0.055861
  H      -0.868780      4.499956     -1.015747
  H      -2.444427      2.615786     -0.937419
  H       3.676322     -2.293597     -0.095326
  H       4.134544     -1.654057     -1.676935
  H       3.709694      0.016117      0.882820
  H       5.248408     -0.340675      0.071341
  H       4.063764      0.707774     -0.725008
>
41
-1206.28099350; 31P isotropic shielding: 240.610290 ppm
  C       4.180187     -0.300969     -0.077799
  C       3.534141     -1.506149     -0.791514
  N       2.126645     -1.380463     -1.193984
  C       1.113323     -1.689282     -0.205253
  P       0.772069     -0.513957      1.207109
  O       1.801309     -0.475458      2.279331
  O      -0.690556     -1.079477      1.750411
  C      -1.812143     -0.964242      0.937069
  C      -2.767117     -1.977864      1.048651
  C      -3.912854     -1.944028      0.255147
  C      -4.097405     -0.897021     -0.656968
  C      -3.149979      0.120324     -0.744920
  C      -1.992587      0.132530      0.060187
  C      -1.026123      1.251175      0.029928
  C       0.279018      1.091690      0.554842
  C       1.182673      2.160794      0.588217
  C       0.819592      3.402696      0.067519
  C      -0.464335      3.573999     -0.465060
  C      -1.377751      2.519996     -0.470477
  C       1.846275     -0.321233     -2.172949
  C       0.526324     -0.523514     -2.926936
  H       3.715321     -0.116021      0.896147
  H       4.106480      0.608671     -0.688364
  H       5.248294     -0.501446      0.086713
  H       3.612662     -2.394523     -0.149166
  H       4.106352     -1.724952     -1.707691
  H       0.149431     -1.854873     -0.704322
  H       1.375322     -2.631947      0.299176
  H      -2.583922     -2.786078      1.753081
  H      -4.650158     -2.740440      0.336131
  H      -4.976125     -0.875636     -1.298094
  H      -3.300869      0.921775     -1.463914
  H       2.165659      2.007952      1.027775
  H       1.522605      4.233170      0.087949
  H      -0.764065      4.543432     -0.859906
  H      -2.384053      2.696047     -0.841920
  H       1.857919      0.692117     -1.732608
  H       2.675973     -0.351541     -2.894423
  H      -0.348831     -0.384496     -2.282373
  H       0.450195      0.211769     -3.738321
  H       0.478203     -1.529426     -3.364119
>
41
-1206.28096539; 31P isotropic shielding: 240.750979 ppm
  C       0.802528     -0.170149     -2.977216
  C       2.095401     -0.068273     -2.162634
  N       2.299611     -1.180265     -1.215292
  C       1.187976     -1.461651     -0.313805
  P       0.822290     -0.267252      1.067001
  O       1.921260     -0.096173      2.053135
  O      -0.543510     -0.942053      1.725176
  C      -1.720560     -0.961085      0.984088
  C      -2.565577     -2.054562      1.188763
  C      -3.758050     -2.155362      0.473536
  C      -4.099150     -1.162470     -0.454145
  C      -3.260001     -0.065450     -0.635152
  C      -2.059565      0.082433      0.089706
  C      -1.209102      1.285051     -0.033675
  C       0.136269      1.263415      0.405633
  C       0.935046      2.412020      0.351279
  C       0.422345      3.599456     -0.170402
  C      -0.904026      3.634423     -0.619527
  C      -1.711250      2.499946     -0.540210
  C       3.633068     -1.106014     -0.580947
  C       3.983919     -2.332570      0.265104
  H       0.809291      0.589588     -3.768940
  H      -0.091658      0.005870     -2.368669
  H       0.715670     -1.158135     -3.448237
  H       2.137032      0.919232     -1.662800
  H       2.952223     -0.097688     -2.850848
  H       0.266220     -1.586014     -0.894153
  H       1.362501     -2.416422      0.200074
  H      -2.261277     -2.816200      1.903089
  H      -4.409683     -3.013338      0.627431
  H      -5.015467     -1.245386     -1.034842
  H      -3.532399      0.693196     -1.364819
  H       1.955071      2.363093      0.727418
  H       1.042907      4.492287     -0.216301
  H      -1.319364      4.559540     -1.016073
  H      -2.751040      2.569052     -0.849728
  H       4.353149     -1.017469     -1.407091
  H       3.739769     -0.195683      0.039788
  H       3.405649     -2.365128      1.195037
  H       3.815555     -3.259512     -0.299725
  H       5.044429     -2.290499      0.544471
>
41
-1206.28252173; 31P isotropic shielding: 245.301962 ppm
  C       4.191098     -1.970431     -0.351266
  C       2.795131     -2.412099      0.133236
  N       1.643447     -1.929624     -0.660950
  C       1.433100     -0.487803     -0.600627
  P       0.853248      0.102626      1.046902
  O       1.855821      0.058478      2.142248
  O      -0.469137     -0.827565      1.356699
  C      -1.544958     -0.762667      0.477916
  C      -2.248967     -1.948590      0.265841
  C      -3.334447     -1.962542     -0.608289
  C      -3.705332     -0.788809     -1.277203
  C      -3.007015      0.393679     -1.043779
  C      -1.920265      0.450218     -0.147154
  C      -1.218859      1.715355      0.161226
  C       0.076017      1.696645      0.737043
  C       0.741275      2.883177      1.067587
  C       0.137773      4.117018      0.818183
  C      -1.142591      4.152508      0.252614
  C      -1.815511      2.971042     -0.061903
  C       1.601622     -2.458005     -2.037015
  C       0.184151     -2.486669     -2.622170
  H       4.961735     -2.397986      0.303698
  H       4.306512     -0.879756     -0.319008
  H       4.396302     -2.309086     -1.375194
  H       2.650356     -2.078904      1.167153
  H       2.737631     -3.509642      0.135264
  H       2.322348      0.125897     -0.857187
  H       0.649151     -0.207083     -1.313711
  H      -1.915418     -2.845727      0.781376
  H      -3.876776     -2.889892     -0.782397
  H      -4.536370     -0.796771     -1.979432
  H      -3.299141      1.295339     -1.576815
  H       1.724464      2.826408      1.531087
  H       0.652876      5.041280      1.072624
  H      -1.628702      5.109488      0.069640
  H      -2.825726      3.027272     -0.459805
  H       2.274646     -1.898500     -2.719189
  H       1.988267     -3.485160     -1.991538
  H       0.199633     -2.943739     -3.620856
  H      -0.486633     -3.066675     -1.978149
  H      -0.243156     -1.481906     -2.731702
>
41
-1206.28239004; 31P isotropic shielding: 242.685753 ppm
  C       0.135817     -2.502737     -2.604950
  C       1.568456     -2.456384     -2.059060
  N       1.643083     -1.911383     -0.690916
  C       1.423074     -0.470535     -0.643230
  P       0.896077      0.140074      1.014739
  O       1.940390      0.134185      2.071247
  O      -0.396674     -0.807027      1.390872
  C      -1.503375     -0.779312      0.548978
  C      -2.190844     -1.982048      0.383061
  C      -3.305679     -2.032392     -0.451943
  C      -3.722319     -0.878428     -1.128283
  C      -3.039377      0.321153     -0.940960
  C      -1.923424      0.414537     -0.084247
  C      -1.236124      1.698106      0.176838
  C       0.078434      1.713950      0.706199
  C       0.731960      2.918347      0.992408
  C       0.096257      4.136049      0.743528
  C      -1.203652      4.137476      0.223307
  C      -1.864366      2.938184     -0.046684
  C       2.819827     -2.374794      0.077394
  C       4.198298     -1.920185     -0.443640
  H       0.128312     -2.968818     -3.599537
  H      -0.303231     -1.502752     -2.711661
  H      -0.512056     -3.082697     -1.937821
  H       2.218178     -1.899594     -2.765610
  H       1.964372     -3.479931     -2.012338
  H       2.297735      0.146060     -0.939629
  H       0.612367     -0.206648     -1.332316
  H      -1.822060     -2.863030      0.902430
  H      -3.835579     -2.972840     -0.590400
  H      -4.576981     -0.915130     -1.800592
  H      -3.367135      1.207077     -1.479645
  H       1.731921      2.888192      1.421225
  H       0.602062      5.074216      0.963353
  H      -1.714268      5.081779      0.041237
  H      -2.888914      2.968206     -0.409225
  H       2.697212     -2.036222      1.112529
  H       2.775003     -3.472833      0.088183
  H       4.381984     -2.260646     -1.471111
  H       4.302301     -0.828232     -0.418051
  H       4.989638     -2.336494      0.193621
>
41
-1206.28235835; 31P isotropic shielding: 242.665821 ppm
  C       0.134494     -2.505436     -2.602817
  C       1.567388     -2.458735     -2.057619
  N       1.642606     -1.913048     -0.689780
  C       1.422592     -0.472179     -0.642755
  P       0.896326      0.139322      1.015104
  O       1.940998      0.133725      2.071253
  O      -0.396500     -0.807323      1.392134
  C      -1.503489     -0.779768      0.550611
  C      -2.191281     -1.982432      0.385518
  C      -3.306402     -2.032947     -0.449095
  C      -3.723014     -0.879222     -1.125867
  C      -3.039751      0.320303     -0.939352
  C      -1.923491      0.413861     -0.083058
  C      -1.235821      1.697410      0.177162
  C       0.078919      1.713225      0.706075
  C       0.732808      2.917620      0.991473
  C       0.097290      4.135340      0.742206
  C      -1.202793      4.136797      0.222416
  C      -1.863863      2.937517     -0.046765
  C       2.819687     -2.376051      0.078262
  C       4.197919     -1.921486     -0.443437
  H      -0.513000     -3.085223     -1.935168
  H       0.126565     -2.971885     -3.597229
  H      -0.304709     -1.505536     -2.709678
  H       2.216747     -1.902253     -2.764745
  H       1.963381     -3.482238     -2.010581
  H       2.297096      0.144277     -0.939901
  H       0.611557     -0.208688     -1.331607
  H      -1.822524     -2.863240      0.905204
  H      -3.836547     -2.973350     -0.586919
  H      -4.577901     -0.916070     -1.797882
  H      -3.367497      1.206035     -1.478360
  H       1.732905      2.887450      1.419972
  H       0.603374      5.073505      0.961400
  H      -1.713261      5.081124      0.040050
  H      -2.888526      2.967589     -0.408977
  H       2.697421     -2.037117      1.113320
  H       2.774971     -3.474090      0.089461
  H       4.301838     -0.829517     -0.418199
  H       4.989536     -2.337539      0.193649
  H       4.381253     -2.262227     -1.470879
>
41
-1206.28235713; 31P isotropic shielding: 242.664550 ppm
  C       1.398788      0.253285     -2.887895
  C       2.502561      0.027783     -1.849288
  N       2.342359     -1.219301     -1.080611
  C       1.083521     -1.336297     -0.356805
  P       0.711007     -0.070741      0.966726
  O       1.844757      0.239183      1.875886
  O      -0.577770     -0.774306      1.738797
  C      -1.784082     -0.924885      1.061584
  C      -2.544288     -2.049378      1.390982
  C      -3.759629     -2.279190      0.747417
  C      -4.208465     -1.384675     -0.232602
  C      -3.452934     -0.254772     -0.538027
  C      -2.232372      0.022878      0.110708
  C      -1.469461      1.263403     -0.143077
  C      -0.108087      1.361799      0.233701
  C       0.605259      2.553515      0.060703
  C      -0.008427      3.662638     -0.520723
  C      -1.350770      3.577322     -0.911037
  C      -2.073725      2.401263     -0.713430
  C       3.533288     -1.553341     -0.266136
  C       4.703159     -2.057000     -1.120765
  H       1.292991     -0.629270     -3.531883
  H       1.655485      1.113362     -3.519324
  H       0.426812      0.469076     -2.429602
  H       2.579101      0.909722     -1.181538
  H       3.463422     -0.041578     -2.371769
  H       0.237404     -1.332435     -1.056693
  H       1.059614     -2.303369      0.164324
  H      -2.158350     -2.733021      2.143742
  H      -4.345561     -3.161383      0.998100
  H      -5.143802     -1.568836     -0.756910
  H      -3.809456      0.426676     -1.306596
  H       1.640553      2.601523      0.392621
  H       0.547192      4.588304     -0.657915
  H      -1.844073      4.440638     -1.354691
  H      -3.127694      2.379047     -0.978648
  H       3.849708     -0.698754      0.357821
  H       3.234261     -2.345860      0.431413
  H       5.523259     -2.387742     -0.469513
  H       4.389886     -2.902787     -1.746137
  H       5.106062     -1.276495     -1.778108
