60
-2214.43744252; 31P isotropic shielding: 242.544416 ppm
  C      -1.379746     -0.131011      3.428434
  C      -0.264854     -1.161471      3.311682
  O      -0.426472     -1.958313      2.090348
  P       0.515700     -1.808859      0.796203
  O       0.256633     -2.868679     -0.212577
  C       0.250950     -0.102770      0.103750
  C      -1.201289      0.132555     -0.189038
  C      -2.143390     -0.820025     -0.531709
  N      -3.350979     -0.182229     -0.613953
  N      -3.242264      1.150480     -0.344096
  C      -1.938110      1.353567     -0.091644
  C      -1.449753      2.686972      0.272326
  C      -2.270945      3.592984      0.966425
  C      -1.762068      4.846030      1.307046
  N      -0.511608      5.254254      1.015994
  C       0.264073      4.387080      0.341802
  C      -0.148992      3.111434     -0.051511
  C      -4.613769     -0.756738     -0.937794
  C      -4.801905     -2.142184     -0.826411
  C      -6.039382     -2.697692     -1.158672
  C      -7.091446     -1.881794     -1.587937
  C      -6.896524     -0.499122     -1.683586
  C      -5.662090      0.069765     -1.364221
  N       1.071739      0.071965     -1.110368
  C       2.471798      0.171142     -1.053846
  C       3.247901     -0.386513     -2.088111
  C       4.637203     -0.268160     -2.090586
  C       5.272012      0.405970     -1.045298
  C       4.522235      0.971072     -0.010943
  C       3.132512      0.858614     -0.017666
  Cl      7.030004      0.538887     -1.026854
  O       2.014962     -1.725969      1.379323
  C       3.071157     -2.640388      0.916055
  C       3.076575     -3.919429      1.739110
  H      -1.321957      0.623487      2.636627
  H      -2.360972     -0.616651      3.368697
  H      -1.305220      0.382166      4.396897
  H      -0.305292     -1.885893      4.133667
  H       0.729498     -0.697640      3.319278
  H       0.581828      0.626536      0.851622
  H      -2.020683     -1.878402     -0.711798
  H      -3.286282      3.311283      1.234795
  H      -2.385450      5.561099      1.847086
  H       1.269913      4.732978      0.096160
  H       0.512544      2.478191     -0.637325
  H      -4.000351     -2.781892     -0.467023
  H      -6.181326     -3.773184     -1.069981
  H      -8.054879     -2.319302     -1.841926
  H      -7.709241      0.144057     -2.016233
  H      -5.495310      1.139645     -1.438965
  H       0.748523     -0.543741     -1.853837
  H       2.755242     -0.929793     -2.894100
  H       5.224318     -0.708256     -2.892600
  H       5.022924      1.498317      0.797153
  H       2.567331      1.300879      0.797599
  H       3.996509     -2.067096      1.031806
  H       2.912875     -2.847877     -0.147371
  H       3.914383     -4.556993      1.424198
  H       3.195303     -3.698063      2.807152
  H       2.144802     -4.478180      1.592145
>
60
-2214.43866093; 31P isotropic shielding: 246.044259 ppm
  C      -2.045195     -2.943833     -1.887046
  C      -0.844342     -3.853214     -1.676531
  O      -0.125650     -3.517903     -0.435911
  P       1.265969     -2.710029     -0.455729
  O       1.811294     -2.426301     -1.814431
  C       0.951444     -1.198427      0.564676
  C      -0.383953     -0.577205      0.235274
  C      -1.575594     -0.932589      0.836593
  N      -2.554288     -0.130172      0.319423
  N      -2.047364      0.759064     -0.583547
  C      -0.731450      0.490785     -0.647751
  C       0.132827      1.332446     -1.490976
  C       0.048163      2.729225     -1.401912
  C       0.912337      3.511138     -2.169276
  N       1.834197      3.003631     -3.007459
  C       1.891813      1.662537     -3.102020
  C       1.074029      0.790905     -2.378796
  C      -3.947077     -0.157172      0.605426
  C      -4.519622     -1.284773      1.212472
  C      -5.885266     -1.293278      1.505903
  C      -6.686071     -0.192358      1.185756
  C      -6.108156      0.922310      0.566587
  C      -4.743174      0.949016      0.276500
  N       2.122343     -0.339714      0.398154
  C       2.148563      0.956790      0.923545
  C       1.324634      1.356468      1.991675
  C       1.362202      2.670525      2.464904
  C       2.222747      3.595814      1.876423
  C       3.063402      3.213913      0.826581
  C       3.026117      1.904347      0.359972
  Cl      2.245988      5.263460      2.453979
  O       2.223304     -3.541897      0.531119
  C       3.161332     -4.535896     -0.005762
  C       2.461297     -5.835331     -0.383830
  H      -2.589607     -3.273364     -2.782844
  H      -2.733753     -2.989181     -1.035339
  H      -1.740375     -1.902740     -2.037176
  H      -0.140476     -3.786866     -2.513547
  H      -1.150506     -4.898025     -1.547370
  H       0.912616     -1.562279      1.603530
  H      -1.778319     -1.677161      1.593216
  H      -0.659820      3.191096     -0.718612
  H       0.874150      4.599394     -2.097912
  H       2.633713      1.261426     -3.795235
  H       1.173384     -0.284836     -2.507663
  H      -3.913356     -2.157361      1.440596
  H      -6.324005     -2.171036      1.976958
  H      -7.750226     -0.204788      1.412407
  H      -6.723285      1.783241      0.311193
  H      -4.282396      1.807264     -0.202015
  H       2.545378     -0.412403     -0.523127
  H       0.634644      0.654366      2.449980
  H       0.714713      2.973342      3.284035
  H       3.728225      3.940273      0.366894
  H       3.661297      1.616690     -0.475976
  H       3.880218     -4.688508      0.806027
  H       3.679565     -4.092309     -0.864532
  H       3.211896     -6.584724     -0.670089
  H       1.883250     -6.228421      0.461225
  H       1.786074     -5.691871     -1.235712
>
60
-2214.43947531; 31P isotropic shielding: 242.462884 ppm
  C      -0.463872     -5.927288     -0.926942
  C      -1.063359     -4.544122     -1.140639
  O      -0.519058     -3.565334     -0.188278
  P       0.888428     -2.853432     -0.464213
  O       1.299161     -2.667578     -1.884510
  C       0.670287     -1.254156      0.441111
  C      -0.625362     -0.557935      0.097085
  C      -1.834899     -0.802345      0.719619
  N      -2.747082      0.081842      0.211233
  N      -2.179773      0.911747     -0.711224
  C      -0.895978      0.523846     -0.797376
  C       0.014517      1.253862     -1.694592
  C       0.060023      2.654793     -1.664025
  C       0.963291      3.322255     -2.492252
  N       1.805977      2.698572     -3.335548
  C       1.736732      1.354944     -3.375532
  C       0.868367      0.592236     -2.590509
  C      -4.126250      0.198747      0.539443
  C      -4.792170     -0.861506      1.171997
  C      -6.140588     -0.727165      1.510635
  C      -6.833119      0.450343      1.210551
  C      -6.163854      1.496855      0.565101
  C      -4.813844      1.380730      0.229968
  N       1.895507     -0.494435      0.191097
  C       2.055684      0.794091      0.725306
  C       2.966209      1.676167      0.112431
  C       3.150745      2.966639      0.598243
  C       2.426192      3.392037      1.715623
  C       1.528192      2.531762      2.346060
  C       1.341400      1.238146      1.851917
  Cl      2.641754      5.033742      2.324437
  O       1.892683     -3.741829      0.429751
  C       3.343259     -3.750976      0.184053
  C       4.070245     -3.011579      1.297104
  H      -0.601720     -6.256932      0.109890
  H      -0.961261     -6.647521     -1.591045
  H       0.607938     -5.933429     -1.156199
  H      -2.141229     -4.535495     -0.945966
  H      -0.881093     -4.174696     -2.156731
  H       0.639955     -1.536250      1.504230
  H      -2.088271     -1.514494      1.492121
  H      -0.581624      3.207197     -0.982203
  H       1.025355      4.411608     -2.468913
  H       2.412241      0.860541     -4.076427
  H       0.856012     -0.492556     -2.680165
  H      -4.272179     -1.792505      1.381969
  H      -6.652227     -1.553504      2.000858
  H      -7.884711      0.549155      1.472103
  H      -6.694673      2.416125      0.324147
  H      -4.282746      2.185044     -0.268889
  H       2.198231     -0.555941     -0.778124
  H       3.509700      1.355085     -0.774372
  H       3.841646      3.644686      0.104446
  H       0.967364      2.871034      3.213354
  H       0.620674      0.589144      2.340551
  H       3.537261     -3.313004     -0.802172
  H       3.621305     -4.811292      0.154323
  H       5.155235     -3.082713      1.138505
  H       3.786903     -1.952997      1.307709
  H       3.836568     -3.453467      2.273768
>
60
-2214.43962689; 31P isotropic shielding: 244.553375 ppm
  C      -2.387671     -2.848734     -2.123905
  C      -1.311124     -3.900957     -1.906797
  O      -0.480922     -3.568970     -0.735504
  P       0.929781     -2.833194     -0.905428
  O       1.317844     -2.406690     -2.279850
  C       0.800667     -1.392865      0.258607
  C      -0.507279     -0.658459      0.102682
  C      -1.677706     -1.004671      0.750163
  N      -2.633699     -0.095127      0.391017
  N      -2.130617      0.852393     -0.452595
  C      -0.843388      0.514341     -0.641150
  C       0.010084      1.381625     -1.470519
  C       0.039271      2.764050     -1.238395
  C       0.889823      3.562536     -2.004327
  N       1.694130      3.085052     -2.971272
  C       1.640281      1.760360     -3.202788
  C       0.824971      0.874479     -2.493941
  C      -4.004363     -0.071464      0.769987
  C      -4.603305     -1.214151      1.320977
  C      -5.946364     -1.174840      1.702950
  C      -6.699768     -0.009793      1.527504
  C      -6.096777      1.121164      0.964470
  C      -4.753274      1.099629      0.586822
  N       2.013905     -0.601927      0.051708
  C       2.201617      0.607045      0.740129
  C       3.074437      1.570676      0.199231
  C       3.280011      2.789679      0.837191
  C       2.615573      3.058980      2.037473
  C       1.757916      2.114153      2.599089
  C       1.549875      0.892900      1.952586
  Cl      2.856230      4.611011      2.841109
  O       1.905878     -3.893438     -0.193067
  C       3.366134     -3.834353     -0.366657
  C       4.029744     -3.328996      0.905534
  H      -1.946808     -1.872906     -2.355991
  H      -3.021703     -3.149004     -2.969591
  H      -3.025503     -2.743521     -1.238932
  H      -0.660740     -3.994754     -2.783419
  H      -1.739970     -4.881440     -1.671872
  H       0.829408     -1.838173      1.264449
  H      -1.877505     -1.814820      1.436849
  H      -0.572986      3.199203     -0.452569
  H       0.939551      4.637873     -1.824885
  H       2.284262      1.386194     -4.001055
  H       0.826922     -0.186511     -2.735894
  H      -4.036252     -2.133645      1.439159
  H      -6.405498     -2.064793      2.129578
  H      -7.746818      0.015069      1.822471
  H      -6.674997      2.032228      0.821389
  H      -4.274096      1.969685      0.149614
  H       2.271941     -0.540472     -0.930338
  H       3.571050      1.372273     -0.748892
  H       3.939666      3.533552      0.398625
  H       1.244705      2.331963      3.532359
  H       0.861976      0.177340      2.393083
  H       3.595736     -3.203381     -1.233475
  H       3.665015     -4.863435     -0.597604
  H       5.121816     -3.366146      0.789660
  H       3.738548     -2.292484      1.109822
  H       3.754464     -3.956640      1.762226
>
60
-2214.43998792; 31P isotropic shielding: 244.661856 ppm
  C      -1.205618     -5.218678     -1.472268
  C      -1.340457     -3.890668     -0.744927
  O      -0.223793     -3.701880      0.198374
  P       1.110698     -2.928136     -0.267575
  O       1.348553     -2.830936     -1.729008
  C       0.949819     -1.265479      0.537804
  C      -0.380480     -0.639425      0.184850
  C      -1.557457     -0.876381      0.870253
  N      -2.528586     -0.094551      0.306471
  N      -2.029211      0.665698     -0.710798
  C      -0.729780      0.335643     -0.800449
  C       0.124041      1.033814     -1.775803
  C       0.986478      0.347175     -2.643035
  C       1.798687      1.090263     -3.503320
  N       1.807967      2.434909     -3.558543
  C       0.960550      3.080267     -2.736887
  C       0.106993      2.434143     -1.841945
  C      -3.905469     -0.023036      0.656181
  C      -4.675358      1.064323      0.219464
  C      -6.023981      1.135908      0.572109
  C      -6.611546      0.139040      1.359916
  C      -5.837310     -0.944279      1.787537
  C      -4.489003     -1.034267      1.434051
  N       2.145567     -0.502514      0.195077
  C       2.260201      0.853653      0.525889
  C       3.155062      1.660739     -0.203648
  C       3.274821      3.019982      0.063594
  C       2.503007      3.592921      1.078988
  C       1.630094      2.809332      1.831826
  C       1.508611      1.444447      1.557656
  Cl      2.628133      5.323077      1.401773
  O       2.284285     -3.701212      0.497538
  C       2.301552     -3.914339      1.949056
  C       3.392426     -3.063805      2.583638
  H      -1.148788     -6.050964     -0.759773
  H      -2.081172     -5.374697     -2.117775
  H      -0.307232     -5.222786     -2.099754
  H      -2.239688     -3.852633     -0.119725
  H      -1.363063     -3.049125     -1.445618
  H       0.942839     -1.454730      1.623825
  H      -1.750825     -1.516343      1.719449
  H       1.023957     -0.740268     -2.650229
  H       2.479202      0.577849     -4.186165
  H       0.976457      4.170216     -2.787960
  H      -0.540239      3.005086     -1.181147
  H      -4.208029      1.831071     -0.390042
  H      -6.618401      1.981751      0.231536
  H      -7.662707      0.202979      1.633521
  H      -6.284206     -1.732410      2.390871
  H      -3.905697     -1.895255      1.749789
  H       2.512448     -0.724014     -0.726662
  H       3.734322      1.220916     -1.013324
  H       3.948360      3.636670     -0.525201
  H       1.036521      3.261815      2.622253
  H       0.805571      0.853921      2.137567
  H       2.492196     -4.985403      2.084345
  H       1.310932     -3.694671      2.368223
  H       3.210950     -1.995330      2.418976
  H       3.428245     -3.253234      3.665270
  H       4.370549     -3.313462      2.155711
>
60
-2214.43702853; 31P isotropic shielding: 248.765881 ppm
  C      -1.079461     -5.182565     -1.678873
  C      -1.264643     -3.897016     -0.888647
  O      -0.159733     -3.712964      0.069037
  P       1.161144     -2.896367     -0.361491
  O       1.404994     -2.744389     -1.817302
  C       0.961404     -1.265566      0.498198
  C      -0.378694     -0.653158      0.158159
  C      -1.556079     -0.937258      0.824781
  N      -2.537237     -0.152598      0.282724
  N      -2.045010      0.654158     -0.701569
  C      -0.739056      0.351152     -0.793249
  C       0.108046      1.097350     -1.738364
  C       0.068187      2.498601     -1.756933
  C       0.914994      3.188682     -2.625169
  N       1.776966      2.585737     -3.463727
  C       1.789671      1.239965     -3.454243
  C       0.985576      0.454970     -2.624089
  C      -3.917416     -0.119760      0.624866
  C      -4.699958      0.979103      0.243047
  C      -6.051729      1.012004      0.589374
  C      -6.629639     -0.035072      1.316930
  C      -5.842746     -1.129596      1.689430
  C      -4.491110     -1.180937      1.340954
  N       2.143704     -0.468486      0.188255
  C       2.232839      0.874825      0.574831
  C       3.112423      1.728486     -0.119348
  C       3.207705      3.076933      0.206221
  C       2.426359      3.591749      1.245252
  C       1.567296      2.761190      1.962894
  C       1.470021      1.407550      1.629889
  Cl      2.521707      5.308086      1.642909
  O       2.345765     -3.671024      0.384575
  C       2.361884     -3.930241      1.828273
  C       3.431708     -3.077722      2.495290
  H      -0.178713     -5.124271     -2.300065
  H      -0.996022     -6.045702     -1.006837
  H      -1.946400     -5.337893     -2.336038
  H      -2.166620     -3.923266     -0.266680
  H      -1.316692     -3.023457     -1.547523
  H       0.952676     -1.491331      1.577108
  H      -1.744844     -1.610802      1.648725
  H      -0.591738      3.035781     -1.080524
  H       0.912808      4.279856     -2.639590
  H       2.481868      0.762069     -4.150211
  H       1.040790     -0.630829     -2.668591
  H      -4.239966      1.784914     -0.319942
  H      -6.656247      1.866900      0.291928
  H      -7.683291     -0.001077      1.586290
  H      -6.282235     -1.956384      2.244539
  H      -3.897163     -2.050313      1.610558
  H       2.512901     -0.645043     -0.742298
  H       3.698811      1.334518     -0.947263
  H       3.870001      3.730486     -0.354920
  H       0.965925      3.168684      2.771685
  H       0.777354      0.780041      2.182854
  H       2.575226     -5.000748      1.930090
  H       1.365041     -3.745839      2.249826
  H       3.468981     -3.303559      3.569858
  H       4.416213     -3.290978      2.062328
  H       3.227154     -2.008479      2.366807
>
60
-2214.43696879; 31P isotropic shielding: 248.866107 ppm
  C       2.733105     -3.038568      3.244455
  C       2.566379     -4.064051      2.130247
  O       2.281049     -3.432203      0.834318
  P       0.790831     -2.937026      0.472779
  O      -0.318075     -3.752430      1.033517
  C       0.675304     -1.159264      0.980830
  C      -0.548322     -0.581863      0.304814
  C      -1.847289     -0.892506      0.661947
  N      -2.678153     -0.208136     -0.180921
  N      -1.976738      0.558623     -1.066171
  C      -0.682462      0.325816     -0.788701
  C       0.353005      1.027353     -1.567952
  C       0.339514      2.424883     -1.665875
  C       1.354619      3.065462     -2.378854
  N       2.355734      2.416670     -3.000222
  C       2.346216      1.073865     -2.921619
  C       1.382172      0.340039     -2.227657
  C      -4.099015     -0.258589     -0.231923
  C      -4.781816     -1.348591      0.327597
  C      -6.177587     -1.382532      0.286286
  C      -6.894338     -0.346503     -0.321471
  C      -6.202324      0.728944     -0.891045
  C      -4.808039      0.781962     -0.847563
  N       1.930180     -0.446164      0.794623
  C       2.028965      0.925554      1.038366
  C       3.096660      1.649929      0.471830
  C       3.205129      3.024348      0.650901
  C       2.248730      3.697067      1.417630
  C       1.202449      2.997209      2.015750
  C       1.090845      1.617529      1.827467
  Cl      2.361433      5.446573      1.617159
  O       0.889575     -2.825052     -1.125934
  C       0.071571     -3.685331     -2.001225
  C      -1.324261     -3.111063     -2.192192
  H       3.084696     -3.543899      4.154335
  H       3.463531     -2.270654      2.965755
  H       1.782571     -2.546581      3.484179
  H       1.762622     -4.776853      2.350625
  H       3.495804     -4.616702      1.956053
  H       0.464250     -1.225925      2.060985
  H      -2.215660     -1.543848      1.441444
  H      -0.435797      3.000446     -1.166875
  H       1.372518      4.154347     -2.445341
  H       3.154847      0.557194     -3.442961
  H       1.423957     -0.745618     -2.202708
  H      -4.231540     -2.174648      0.770441
  H      -6.703350     -2.231153      0.720149
  H      -7.981434     -0.379982     -0.356299
  H      -6.751555      1.537868     -1.369440
  H      -4.258410      1.609633     -1.284721
  H       2.510501     -0.776302      0.032252
  H       3.827219      1.131884     -0.146944
  H       4.015500      3.575547      0.181847
  H       0.465853      3.526293      2.615165
  H       0.253098      1.093309      2.276956
  H       0.037978     -4.693388     -1.571936
  H       0.632958     -3.718331     -2.940958
  H      -1.282451     -2.084829     -2.574537
  H      -1.873581     -3.728456     -2.916372
  H      -1.875971     -3.115406     -1.246783
>
60
-2214.43768786; 31P isotropic shielding: 247.207956 ppm
  C       2.606164     -2.984610      3.406620
  C       2.433709     -4.044109      2.325633
  O       2.181801     -3.450926      1.005061
  P       0.709433     -2.931764      0.604700
  O      -0.427777     -3.690438      1.188046
  C       0.639744     -1.130830      1.032514
  C      -0.567392     -0.552333      0.328242
  C      -1.873693     -0.815899      0.696326
  N      -2.687339     -0.147019     -0.175207
  N      -1.967111      0.564626     -1.090922
  C      -0.678957      0.311838     -0.802272
  C       0.373913      0.953279     -1.609508
  C       1.387617      0.212887     -2.234692
  C       2.369828      0.892120     -2.958199
  N       2.411270      2.229388     -3.097146
  C       1.424630      2.928900     -2.508241
  C       0.393540      2.344975     -1.770175
  C      -4.108973     -0.167031     -0.226029
  C      -4.816007     -1.220710      0.371689
  C      -6.212174     -1.224644      0.330545
  C      -6.905408     -0.195157     -0.314519
  C      -6.189391      0.843238     -0.921951
  C      -4.794245      0.866358     -0.879378
  N       1.913803     -0.459813      0.819241
  C       2.047656      0.918916      0.998887
  C       3.133836      1.588163      0.400681
  C       3.277688      2.966190      0.515262
  C       2.338872      3.698528      1.248205
  C       1.275206      3.054438      1.877621
  C       1.127956      1.670788      1.754087
  Cl      2.496119      5.452053      1.364806
  O       0.827128     -2.893249     -0.996269
  C      -0.006533     -3.768480     -1.841132
  C      -1.361402     -3.135041     -2.118429
  H       1.663499     -2.462604      3.611391
  H       2.930096     -3.465602      4.339635
  H       3.359190     -2.243932      3.114309
  H       1.611253     -4.731362      2.557908
  H       3.353084     -4.622572      2.184997
  H       0.424856     -1.143107      2.113858
  H      -2.257634     -1.425147      1.501954
  H       1.404205     -0.871286     -2.161858
  H       3.167177      0.333724     -3.453281
  H       1.468430      4.012979     -2.623478
  H      -0.368925      2.960178     -1.299474
  H      -4.284200     -2.042743      0.843640
  H      -6.756884     -2.045215      0.794025
  H      -7.992993     -0.205369     -0.348849
  H      -6.720380      1.646564     -1.429493
  H      -4.225997      1.665117     -1.345620
  H       2.488005     -0.840693      0.076169
  H       3.850822      1.022920     -0.192077
  H       4.101899      3.473601      0.021563
  H       0.552671      3.629852      2.450938
  H       0.277608      1.189800      2.227744
  H      -0.110438     -4.741057     -1.346568
  H       0.581516     -3.895724     -2.756277
  H      -1.251503     -2.140337     -2.564937
  H      -1.920722     -3.769564     -2.819853
  H      -1.943749     -3.045952     -1.195564
>
60
-2214.43780483; 31P isotropic shielding: 247.016328 ppm
  C       2.082959     -2.851362      3.717305
  C       2.162423     -3.920286      2.634395
  O       2.073301     -3.350809      1.284193
  P       0.659405     -2.855160      0.686464
  O      -0.532323     -3.596427      1.175585
  C       0.550784     -1.036164      0.993066
  C      -0.653082     -0.497545      0.248209
  C      -1.962614     -0.741341      0.619012
  N      -2.768066     -0.061470     -0.252152
  N      -2.039909      0.634989     -1.172771
  C      -0.755187      0.362781     -0.887385
  C       0.305511      0.977700     -1.703702
  C       1.316232      0.212498     -2.303731
  C       2.309303      0.863924     -3.037704
  N       2.362589      2.196788     -3.211659
  C       1.377693      2.919733     -2.648618
  C       0.337760      2.364388     -1.900968
  C      -4.190202     -0.044882     -0.287040
  C      -4.917817     -1.078408      0.321013
  C      -6.313993     -1.043311      0.299704
  C      -6.987469      0.005005     -0.335968
  C      -6.251478      1.022563     -0.954677
  C      -4.855804      1.006745     -0.931764
  N       1.824491     -0.368956      0.764127
  C       1.953251      1.014601      0.919398
  C       3.042853      1.672922      0.315471
  C       3.186155      3.052754      0.405340
  C       2.243144      3.798383      1.119268
  C       1.174927      3.165881      1.752705
  C       1.028025      1.780101      1.653128
  Cl      2.400896      5.553530      1.206340
  O       0.945657     -2.883227     -0.895384
  C       0.487724     -4.016842     -1.714202
  C       1.426257     -5.210198     -1.604267
  H       1.077581     -2.416361      3.774058
  H       2.305732     -3.301849      4.693988
  H       2.805775     -2.048760      3.529374
  H       1.368529     -4.668451      2.747753
  H       3.134477     -4.424847      2.644282
  H       0.325386     -0.987362      2.070889
  H      -2.354139     -1.338546      1.429904
  H       1.320610     -0.869901     -2.203876
  H       3.105249      0.286475     -3.512893
  H       1.430872      3.999842     -2.793473
  H      -0.422047      2.997852     -1.450726
  H      -4.401861     -1.915443      0.784210
  H      -6.874747     -1.848378      0.771192
  H      -8.075309      0.025232     -0.354676
  H      -6.766945      1.840119     -1.455482
  H      -4.272293      1.789265     -1.406617
  H       2.376045     -0.748068      0.002603
  H       3.764068      1.096567     -0.261160
  H       4.013745      3.550925     -0.092144
  H       0.448103      3.751788      2.309725
  H       0.172188      1.309086      2.127092
  H       0.459343     -3.615155     -2.732711
  H      -0.531544     -4.272338     -1.401791
  H       2.453447     -4.926752     -1.863384
  H       1.422197     -5.624512     -0.589459
  H       1.097041     -5.997125     -2.296710
>
60
-2214.43736443; 31P isotropic shielding: 245.863396 ppm
  C      -1.539424     -0.174223      3.428388
  C      -0.401190     -1.182747      3.348846
  O      -0.519360     -1.999094      2.137194
  P       0.475051     -1.861254      0.873941
  O       0.225737     -2.944367     -0.112293
  C       0.266071     -0.160919      0.151743
  C      -1.180132      0.093497     -0.160869
  C      -2.132606     -0.848933     -0.502943
  N      -3.327683     -0.192632     -0.613832
  N      -3.200553      1.142269     -0.364180
  C      -1.897145      1.328105     -0.094640
  C      -1.393064      2.659645      0.254462
  C      -0.080440      3.057984     -0.054330
  C       0.346112      4.333945      0.323163
  N      -0.427239      5.225417      0.967648
  C      -1.688871      4.842007      1.244054
  C      -2.211556      3.590921      0.917706
  C      -4.594546     -0.751611     -0.948740
  C      -4.809559     -2.130687     -0.810890
  C      -6.050283     -2.671409     -1.155224
  C      -7.079001     -1.846668     -1.622549
  C      -6.857470     -0.470065     -1.744130
  C      -5.619310      0.083835     -1.413095
  N       1.094915     -0.016740     -1.055362
  C       2.488553      0.130525     -1.017191
  C       3.254469     -0.325971     -2.108083
  C       4.637082     -0.159638     -2.138001
  C       5.278333      0.468025     -1.067088
  C       4.538971      0.937181      0.020008
  C       3.153949      0.771920      0.044426
  Cl      7.030865      0.661903     -1.085969
  O       1.963953     -1.757294      1.478990
  C       2.815536     -2.957967      1.571358
  C       3.699555     -3.082908      0.340545
  H      -1.478197      0.573016      2.630116
  H      -2.508572     -0.681177      3.350835
  H      -1.498632      0.349988      4.392927
  H      -0.443710     -1.894685      4.182064
  H       0.582629     -0.696090      3.370922
  H       0.600323      0.573491      0.892911
  H      -2.025568     -1.912031     -0.664699
  H       0.581362      2.404932     -0.617243
  H       1.361567      4.659083      0.089268
  H      -2.310175      5.576588      1.759756
  H      -3.235755      3.330125      1.173246
  H      -4.026697     -2.776260     -0.421864
  H      -6.213289     -3.742027     -1.046162
  H      -8.045066     -2.272635     -1.885945
  H      -7.651977      0.179829     -2.106376
  H      -5.431593      1.148654     -1.507872
  H       0.772700     -0.629652     -1.800550
  H       2.758186     -0.831184     -2.936299
  H       5.215971     -0.525922     -2.981963
  H       5.043534      1.427107      0.848918
  H       2.601510      1.134222      0.906014
  H       2.177603     -3.840880      1.699832
  H       3.403367     -2.809588      2.484097
  H       4.320747     -2.190400      0.210199
  H       4.360395     -3.953663      0.454484
  H       3.089217     -3.226790     -0.557178
>
60
-2214.43842970; 31P isotropic shielding: 246.456008 ppm
  C       2.136455     -3.009259      3.576946
  C       2.212422     -4.017307      2.437113
  O       2.132843     -3.371110      1.121244
  P       0.717610     -2.870770      0.530696
  O      -0.465806     -3.652745      0.974803
  C       0.578540     -1.070061      0.918814
  C      -0.648225     -0.520283      0.220416
  C      -1.946758     -0.807377      0.599011
  N      -2.778957     -0.099668     -0.223439
  N      -2.079303      0.656038     -1.119094
  C      -0.785212      0.394313     -0.868201
  C       0.249713      1.068840     -1.669916
  C       0.255568      2.463944     -1.797723
  C       1.272453      3.073716     -2.534750
  N       2.258633      2.397203     -3.150720
  C       2.230505      1.056525     -3.043093
  C       1.261745      0.352501     -2.325482
  C      -4.201606     -0.107961     -0.234678
  C      -4.900431     -1.182159      0.335501
  C      -6.297173     -1.171871      0.338327
  C      -6.999782     -0.107511     -0.236209
  C      -6.292477      0.951416     -0.817867
  C      -4.896545      0.960336     -0.818137
  N       1.835176     -0.368849      0.699191
  C       1.942053      1.006780      0.926056
  C       3.007903      1.717318      0.339176
  C       3.127261      3.092999      0.500411
  C       2.184103      3.781147      1.269808
  C       1.139293      3.095381      1.886585
  C       1.016226      1.714349      1.715302
  Cl      2.311608      5.531796      1.448997
  O       1.017558     -2.822561     -1.048573
  C       0.595188     -3.931806     -1.918712
  C       1.547015     -5.116535     -1.831706
  H       1.136481     -2.564022      3.648701
  H       2.343559     -3.516158      4.529193
  H       2.871862     -2.207578      3.441104
  H       1.412239     -4.764112      2.505396
  H       3.180617     -4.529200      2.422669
  H       0.372468     -1.074387      2.001707
  H      -2.314127     -1.451884      1.384507
  H      -0.506236      3.061261     -1.303536
  H       1.305145      4.160496     -2.625847
  H       3.026854      0.517215     -3.560486
  H       1.285300     -0.733356     -2.279471
  H      -4.362100     -2.030232      0.750663
  H      -6.835562     -2.008341      0.780298
  H      -8.087977     -0.106539     -0.236506
  H      -6.830688      1.781914     -1.271219
  H      -4.335001      1.774900     -1.264737
  H       2.374597     -0.695488     -0.094725
  H       3.729071      1.186454     -0.279645
  H       3.936436      3.633103      0.016542
  H       0.412035      3.636596      2.486596
  H       0.177447      1.202350      2.176995
  H       0.584231     -3.493038     -2.922127
  H      -0.427221     -4.212289     -1.639671
  H       1.244140     -5.880121     -2.561322
  H       2.576161     -4.810969     -2.055447
  H       1.524374     -5.569947     -0.834032
>
60
-2214.43734232; 31P isotropic shielding: 245.822971 ppm
  C      -1.145283     -0.007799      3.401098
  C      -0.239515     -1.230648      3.326384
  O      -0.414793     -1.947776      2.059681
  P       0.545368     -1.787000      0.779984
  O       0.303842     -2.843025     -0.237355
  C       0.282384     -0.082144      0.085444
  C      -1.171382      0.155175     -0.196814
  C      -2.114579     -0.794757     -0.543801
  N      -3.323328     -0.157595     -0.611934
  N      -3.214484      1.172363     -0.328105
  C      -1.909044      1.373759     -0.081196
  C      -1.418490      2.702879      0.294445
  C      -2.232791      3.599947      1.007783
  C      -1.720616      4.848835      1.358669
  N      -0.473247      5.260957      1.059990
  C       0.295789      4.402444      0.367313
  C      -0.121050      3.131605     -0.037350
  C      -4.587414     -0.730125     -0.933874
  C      -4.775519     -2.116031     -0.828098
  C      -6.014312     -2.669751     -1.158494
  C      -7.067686     -1.851574     -1.580157
  C      -6.872809     -0.468504     -1.670066
  C      -5.637035      0.098618     -1.352652
  N       1.096767      0.088718     -1.133645
  C       2.498701      0.168924     -1.079963
  C       3.266532     -0.411091     -2.107907
  C       4.657519     -0.312814     -2.111411
  C       5.301719      0.362954     -1.073044
  C       4.560287      0.950036     -0.044843
  C       3.169120      0.857801     -0.050924
  Cl      7.061571      0.469938     -1.055093
  O       2.035775     -1.701111      1.385428
  C       3.098738     -2.616869      0.939963
  C       3.097859     -3.889058      1.773589
  H      -2.187307     -0.284102      3.201978
  H      -1.088602      0.425951      4.408917
  H      -0.852457      0.767500      2.685123
  H      -0.505571     -1.963115      4.097202
  H       0.818845     -0.970963      3.452084
  H       0.620404      0.645990      0.830907
  H      -1.992470     -1.851247     -0.735362
  H      -3.245290      3.314611      1.282940
  H      -2.338544      5.557064      1.913795
  H       1.298965      4.751789      0.115668
  H       0.534707      2.505281     -0.637137
  H      -3.972809     -2.757291     -0.474026
  H      -6.156306     -3.745592     -1.074118
  H      -8.032172     -2.287658     -1.832624
  H      -7.686619      0.176355     -1.996746
  H      -5.470227      1.168817     -1.422929
  H       0.765877     -0.527205     -1.873687
  H       2.766013     -0.956632     -2.907449
  H       5.238409     -0.770154     -2.908285
  H       5.068632      1.478644      0.757557
  H       2.609918      1.317086      0.759119
  H       4.021729     -2.040748      1.060058
  H       2.950992     -2.833480     -0.123103
  H       3.938759     -4.528778      1.471622
  H       3.206810     -3.659176      2.840905
  H       2.167820     -4.449729      1.622646
>
60
-2214.43835781; 31P isotropic shielding: 246.261254 ppm
  C      -2.410135     -3.169830     -1.821084
  C      -1.272474     -4.150545     -1.582481
  O      -0.340815     -3.643234     -0.556849
  P       0.964346     -2.802723     -0.987843
  O       1.055701     -2.402018     -2.413868
  C       0.898443     -1.367247      0.183045
  C      -0.425617     -0.650603      0.068811
  C      -1.564417     -1.004020      0.766532
  N      -2.542012     -0.103056      0.446014
  N      -2.081307      0.845981     -0.420574
  C      -0.801172      0.517960     -0.662706
  C       0.015944      1.394935     -1.518100
  C       0.798742      0.898095     -2.570773
  C       1.584210      1.794248     -3.300133
  N       1.639657      3.117407     -3.060012
  C       0.866999      3.583877     -2.062445
  C       0.045899      2.775473     -1.275415
  C      -3.894728     -0.085672      0.884522
  C      -4.452131     -1.215557      1.501886
  C      -5.777796     -1.181257      1.940737
  C      -6.556012     -0.033799      1.758249
  C      -5.994915      1.084480      1.130408
  C      -4.669153      1.067827      0.694441
  N       2.096500     -0.568618     -0.058889
  C       2.276559      0.672004      0.566853
  C       3.150923      1.609216     -0.017416
  C       3.337798      2.865264      0.549171
  C       2.654474      3.200236      1.722128
  C       1.801943      2.280950      2.331054
  C       1.612737      1.021118      1.756640
  Cl      2.865508      4.802562      2.429731
  O       2.223309     -3.697114     -0.549015
  C       2.379820     -4.249771      0.800165
  C       3.508083     -3.533879      1.529109
  H      -2.984426     -2.992649     -0.904613
  H      -2.029861     -2.210941     -2.189808
  H      -3.091691     -3.583944     -2.576952
  H      -0.710722     -4.339233     -2.503808
  H      -1.631524     -5.104319     -1.180073
  H       0.953557     -1.798990      1.195969
  H      -1.727010     -1.813697      1.463187
  H       0.793601     -0.161267     -2.819392
  H       2.202366      1.430092     -4.123078
  H       0.919185      4.657710     -1.875102
  H      -0.539908      3.200932     -0.464629
  H      -3.866999     -2.122240      1.629761
  H      -6.203981     -2.061607      2.418476
  H      -7.589472     -0.012822      2.097972
  H      -6.592320      1.982086      0.981245
  H      -4.222909      1.928172      0.206297
  H       2.394824     -0.570980     -1.030492
  H       3.660329      1.359799     -0.946433
  H       3.995558      3.588007      0.074088
  H       1.276682      2.548393      3.244529
  H       0.925579      0.327404      2.231760
  H       2.603588     -5.313537      0.656198
  H       1.427914     -4.178569      1.342978
  H       3.292905     -2.465533      1.646068
  H       3.646684     -3.977906      2.524511
  H       4.447338     -3.632848      0.972147
>
60
-2214.43707388; 31P isotropic shielding: 250.162393 ppm
  C      -1.494654     -0.200197      3.423254
  C      -0.375089     -1.227030      3.318040
  O      -0.529171     -2.034606      2.104533
  P       0.445673     -1.902896      0.825494
  O       0.162726     -2.971448     -0.167677
  C       0.248725     -0.193610      0.122955
  C      -1.196475      0.075884     -0.181789
  C      -2.158169     -0.853558     -0.533707
  N      -3.348130     -0.185656     -0.630312
  N      -3.209068      1.144380     -0.361528
  C      -1.903176      1.315194     -0.094640
  C      -1.386111      2.636831      0.272634
  C      -2.189758      3.561115      0.963022
  C      -1.653663      4.801810      1.307152
  N      -0.392559      5.181211      1.023006
  C       0.366276      4.296785      0.352003
  C      -0.074472      3.031523     -0.044544
  C      -4.620563     -0.729065     -0.969633
  C      -4.847986     -2.107624     -0.847556
  C      -6.094044     -2.632895     -1.196464
  C      -7.115812     -1.793300     -1.652532
  C      -6.881887     -0.417437     -1.758197
  C      -5.638198      0.121117     -1.422620
  N       1.079329     -0.042775     -1.082841
  C       2.471236      0.118397     -1.035688
  C       3.254989     -0.364007     -2.102546
  C       4.635631     -0.176431     -2.124960
  C       5.256315      0.496964     -1.070376
  C       4.499039      0.990905     -0.006927
  C       3.117085      0.804586      0.010292
  Cl      7.005905      0.715356     -1.077650
  O       1.948412     -1.828474      1.398480
  C       2.790021     -3.036875      1.474104
  C       4.121023     -2.756356      0.797030
  H      -1.425517      0.320921      4.387873
  H      -1.437939      0.547887      2.625414
  H      -2.473219     -0.691287      3.364694
  H      -0.414527     -1.942504      4.148379
  H       0.616998     -0.756730      3.324573
  H       0.590197      0.528845      0.872108
  H      -2.060400     -1.915065     -0.710748
  H      -3.212757      3.302960      1.225940
  H      -2.263141      5.530711      1.844554
  H       1.381166      4.619091      0.111833
  H       0.575354      2.384154     -0.627464
  H      -4.070354     -2.764611     -0.467216
  H      -6.266690     -3.703190     -1.099864
  H      -8.086070     -2.207279     -1.919585
  H      -7.670912      0.243931     -2.111538
  H      -5.440847      1.185229     -1.505059
  H       0.768806     -0.665138     -1.825396
  H       2.774707     -0.903480     -2.918550
  H       5.228321     -0.561424     -2.950874
  H       4.987856      1.516557      0.809481
  H       2.549886      1.190316      0.852069
  H       2.257951     -3.865608      0.992924
  H       2.912631     -3.260738      2.541352
  H       3.981014     -2.550301     -0.269252
  H       4.622224     -1.894567      1.251572
  H       4.774661     -3.633400      0.900766
>
60
-2214.43735622; 31P isotropic shielding: 247.943750 ppm
  C      -1.335286     -2.002319      5.236983
  C      -1.758348     -1.385025      3.911621
  O      -0.642841     -0.685723      3.257305
  P       0.483985     -1.500198      2.461670
  O       0.155572     -2.889310      2.031719
  C       0.792935     -0.402894      1.008996
  C      -0.503876     -0.047303      0.333328
  C      -1.267795     -0.905302     -0.433810
  N      -2.324381     -0.183256     -0.920774
  N      -2.280472      1.116726     -0.512824
  C      -1.182106      1.206249      0.258921
  C      -0.807469      2.491417      0.858036
  C      -0.223152      2.580050      2.133483
  C       0.121482      3.838177      2.635169
  N      -0.076387      4.991878      1.974243
  C      -0.651389      4.899973      0.759311
  C      -1.026590      3.695349      0.165377
  C      -3.386543     -0.649284     -1.745792
  C      -4.148013      0.270092     -2.480276
  C      -5.181532     -0.192666     -3.296446
  C      -5.458355     -1.561543     -3.391535
  C      -4.696544     -2.470927     -2.650635
  C      -3.666006     -2.021622     -1.821861
  N       1.734891     -1.148359      0.165640
  C       2.224702     -0.587713     -1.022548
  C       2.785154     -1.434082     -2.000558
  C       3.324225     -0.915593     -3.175525
  C       3.308504      0.465704     -3.390460
  C       2.755927      1.321699     -2.438095
  C       2.213817      0.799459     -1.261212
  Cl      3.984519      1.126110     -4.879536
  O       1.747093     -1.351516      3.447696
  C       2.901982     -2.259288      3.364021
  C       4.087372     -1.554485      2.721917
  H      -0.605190     -2.805205      5.080786
  H      -0.894698     -1.246275      5.897801
  H      -2.214363     -2.432179      5.736679
  H      -2.515488     -0.605904      4.047520
  H      -2.142596     -2.143236      3.219074
  H       1.283987      0.504079      1.380260
  H      -1.115544     -1.945774     -0.680257
  H      -0.083483      1.695029      2.747847
  H       0.573937      3.923595      3.625015
  H      -0.813867      5.842952      0.234093
  H      -1.478127      3.678326     -0.823528
  H      -3.921154      1.328324     -2.399721
  H      -5.770463      0.522939     -3.867318
  H      -6.262892     -1.915892     -4.032754
  H      -4.909886     -3.536857     -2.705745
  H      -3.101650     -2.733597     -1.225412
  H       1.499750     -2.136481      0.095420
  H       2.799106     -2.511057     -1.833292
  H       3.751851     -1.578668     -3.923306
  H       2.740441      2.394191     -2.614482
  H       1.779353      1.483742     -0.538677
  H       2.604120     -3.158045      2.810797
  H       3.113876     -2.543276      4.401492
  H       4.958844     -2.223808      2.726714
  H       3.861275     -1.282862      1.684723
  H       4.348986     -0.646535      3.279320
>
60
-2214.43952283; 31P isotropic shielding: 241.925650 ppm
  C      -1.174458     -2.119684      5.232204
  C      -1.644354     -1.488759      3.929079
  O      -0.557360     -0.766304      3.251706
  P       0.556051     -1.555820      2.413585
  O       0.227321     -2.937794      1.961774
  C       0.821710     -0.424012      0.978850
  C      -0.493918     -0.065023      0.342403
  C      -1.268024     -0.913044     -0.425520
  N      -2.342794     -0.190705     -0.870745
  N      -2.301090      1.100143     -0.434857
  C      -1.185360      1.183424      0.312330
  C      -0.808973      2.458842      0.930900
  C      -1.057664      3.675553      0.271324
  C      -0.680813      4.870647      0.883296
  N      -0.077411      4.941469      2.085860
  C       0.148987      3.775460      2.715246
  C      -0.194269      2.525110      2.193277
  C      -3.420373     -0.649073     -1.679965
  C      -3.685804     -2.022453     -1.783460
  C      -4.732126     -2.463714     -2.596626
  C      -5.523452     -1.545635     -3.294717
  C      -5.260206     -0.176208     -3.172272
  C      -4.211389      0.278782     -2.371355
  N       1.748870     -1.142734      0.096274
  C       2.200036     -0.553001     -1.093185
  C       2.735545     -1.373575     -2.106413
  C       3.235884     -0.825351     -3.285112
  C       3.205491      0.560287     -3.468336
  C       2.677152      1.391167     -2.480504
  C       2.174123      0.839120     -1.299901
  Cl      3.831946      1.258295     -4.961957
  O       1.841976     -1.420313      3.371613
  C       2.996608     -2.324025      3.245950
  C       4.164574     -1.605690      2.587131
  H      -2.032376     -2.570160      5.750165
  H      -0.437680     -2.909138      5.042591
  H      -0.725734     -1.367497      5.891952
  H      -2.406355     -0.721198      4.099132
  H      -2.039876     -2.241711      3.237197
  H       1.314234      0.478455      1.359032
  H      -1.112038     -1.946184     -0.698893
  H      -1.533223      3.675956     -0.706397
  H      -0.866056      5.823333      0.383790
  H       0.624410      3.843539      3.695628
  H      -0.030043      1.628071      2.783654
  H      -3.098019     -2.742194     -1.219890
  H      -4.934351     -3.530496     -2.673012
  H      -6.340193     -1.893773     -3.923807
  H      -5.872050      0.546176     -3.709512
  H      -3.994987      1.337419     -2.269928
  H       1.520468     -2.131330      0.011493
  H       2.760499     -2.453974     -1.964321
  H       3.644437     -1.468716     -4.060279
  H       2.650118      2.467230     -2.631998
  H       1.758494      1.504051     -0.548778
  H       2.687288     -3.214693      2.686062
  H       3.233654     -2.623532      4.273557
  H       4.435788     -0.705082      3.151763
  H       5.038274     -2.271704      2.562139
  H       3.913883     -1.319628      1.559483
>
60
-2214.43940988; 31P isotropic shielding: 241.922779 ppm
  C      -2.222963     -1.836803      4.478672
  C      -1.830815     -0.968146      3.294609
  O      -0.416007     -0.570145      3.405219
  P       0.722669     -1.353461      2.595080
  O       0.463706     -2.777751      2.241412
  C       0.984993     -0.353897      1.055359
  C      -0.338743     -0.024765      0.417939
  C      -1.086098     -0.892941     -0.354947
  N      -2.203477     -0.215318     -0.763067
  N      -2.220995      1.061094     -0.290615
  C      -1.091788      1.188952      0.431823
  C      -0.768163      2.482396      1.045665
  C      -0.072548      2.592142      2.262089
  C       0.203958      3.863589      2.773277
  N      -0.159526      5.011079      2.175818
  C      -0.837953      4.898014      1.017113
  C      -1.159509      3.680244      0.419448
  C      -3.278740     -0.709884     -1.555418
  C      -3.089680     -1.834565     -2.371280
  C      -4.156370     -2.323860     -3.128337
  C      -5.403772     -1.692306     -3.087102
  C      -5.577758     -0.561529     -2.280794
  C      -4.523302     -0.066984     -1.510997
  N       1.878128     -1.159513      0.217886
  C       2.284389     -0.711617     -1.044704
  C       2.785794     -1.643152     -1.976823
  C       3.239475     -1.233862     -3.228666
  C       3.195197      0.121278     -3.569289
  C       2.700311      1.060164     -2.664214
  C       2.244716      0.647577     -1.409823
  Cl      3.761607      0.642786     -5.155955
  O       1.967130     -1.046724      3.558214
  C       3.168461     -1.897666      3.546890
  C       4.296241     -1.217531      2.785490
  H      -2.027331     -1.318102      5.424970
  H      -3.295921     -2.068082      4.425135
  H      -1.663584     -2.779383      4.466212
  H      -2.382835     -0.022443      3.270910
  H      -1.986637     -1.491273      2.345378
  H       1.494449      0.571115      1.352341
  H      -0.908873     -1.926102     -0.615225
  H       0.205480      1.711896      2.832749
  H       0.740188      3.963013      3.718944
  H      -1.133683      5.835153      0.541976
  H      -1.701292      3.648165     -0.522521
  H      -2.115552     -2.312002     -2.435292
  H      -4.004776     -3.195763     -3.761909
  H      -6.230726     -2.074943     -3.681846
  H      -6.544124     -0.061927     -2.244408
  H      -4.645221      0.806266     -0.877980
  H       1.672391     -2.155181      0.271691
  H       2.822919     -2.699830     -1.711815
  H       3.623411     -1.961871     -3.938898
  H       2.662933      2.111653     -2.937403
  H       1.853881      1.393058     -0.723468
  H       2.904680     -2.870704      3.115616
  H       3.419343     -2.038908      4.604243
  H       4.521386     -0.235650      3.219778
  H       5.202851     -1.835552      2.844038
  H       4.030274     -1.087995      1.730010
>
60
-2214.43961678; 31P isotropic shielding: 244.039548 ppm
  C      -1.197365     -2.045632      5.226777
  C      -1.645455     -1.426275      3.910666
  O      -0.552838     -0.692219      3.255592
  P       0.593177     -1.469371      2.450763
  O       0.310384     -2.871498      2.031215
  C       0.848613     -0.369135      0.988249
  C      -0.466375     -0.032563      0.338591
  C      -1.222433     -0.893449     -0.433430
  N      -2.308409     -0.189715     -0.881520
  N      -2.296722      1.097462     -0.434399
  C      -1.183308      1.201448      0.313274
  C      -0.829622      2.486651      0.925926
  C      -1.107697      3.694889      0.262220
  C      -0.752294      4.900298      0.866709
  N      -0.143759      4.989434      2.065468
  C       0.110378      3.831331      2.698740
  C      -0.209337      2.571686      2.184446
  C      -3.380294     -0.665787     -1.688758
  C      -4.597190      0.029680     -1.703420
  C      -5.649022     -0.445497     -2.488723
  C      -5.500927     -1.608886     -3.252713
  C      -4.281315     -2.293586     -3.234826
  C      -3.217143     -1.824657     -2.461572
  N       1.782772     -1.103462      0.126717
  C       2.228191     -0.548384     -1.080712
  C       2.777411     -1.395706     -2.064407
  C       3.272502     -0.881283     -3.260414
  C       3.222864      0.496630     -3.491259
  C       2.680864      1.353361     -2.533407
  C       2.183316      0.835273     -1.335253
  Cl      3.842338      1.151487     -5.007049
  O       1.861273     -1.268836      3.421171
  C       3.048334     -2.132713      3.327036
  C       4.192613     -1.394102      2.649181
  H      -0.447931     -2.827627      5.056902
  H      -0.771961     -1.285203      5.892525
  H      -2.061428     -2.503479      5.727787
  H      -2.420983     -0.667910      4.059786
  H      -2.015462     -2.187083      3.213241
  H       1.333569      0.546467      1.346856
  H      -1.073041     -1.937880     -0.664808
  H      -1.589163      3.680207     -0.712538
  H      -0.960119      5.846591      0.363918
  H       0.589690      3.913913      3.676123
  H      -0.023914      1.681429      2.778389
  H      -4.699450      0.927318     -1.101952
  H      -6.593575      0.095429     -2.497686
  H      -6.325955     -1.976048     -3.859785
  H      -4.149130     -3.192427     -3.834251
  H      -2.264164     -2.346502     -2.479303
  H       1.571283     -2.098267      0.078599
  H       2.818417     -2.469945     -1.884364
  H       3.692443     -1.544939     -4.012050
  H       2.638739      2.423049     -2.722041
  H       1.756197      1.519460     -0.608203
  H       2.773939     -3.051027      2.794145
  H       3.291956     -2.391011      4.364205
  H       3.936123     -1.149626      1.612225
  H       4.429474     -0.467019      3.185808
  H       5.089423     -2.029040      2.647491
>
60
-2214.43941786; 31P isotropic shielding: 242.341683 ppm
  C      -0.875418     -3.194506      1.800605
  C      -0.438604     -2.491011      3.077108
  O      -0.167330     -1.065724      2.841086
  P       1.305078     -0.566795      2.406575
  O       2.382175     -1.558391      2.685544
  C       1.262853     -0.076863      0.606761
  C      -0.132285      0.249952      0.146920
  C      -0.921933     -0.618910     -0.578324
  N      -2.161015     -0.049401     -0.694064
  N      -2.220355      1.156400     -0.068525
  C      -0.990149      1.358426      0.441736
  C      -0.737201      2.598487      1.185808
  C      -1.785949      3.241713      1.867187
  C      -1.525589      4.417769      2.568601
  N      -0.310480      4.994863      2.644440
  C       0.684525      4.385519      1.975508
  C       0.525195      3.208231      1.243218
  C      -3.302270     -0.581747     -1.356490
  C      -4.576585     -0.086946     -1.045461
  C      -5.695723     -0.624028     -1.683668
  C      -5.557062     -1.652346     -2.623343
  C      -4.281128     -2.135510     -2.931434
  C      -3.151304     -1.601243     -2.307776
  N       1.833182     -1.210293     -0.124480
  C       2.311733     -1.063510     -1.433348
  C       2.005699      0.048006     -2.242198
  C       2.471796      0.119956     -3.558786
  C       3.249785     -0.912204     -4.079862
  C       3.572389     -2.021960     -3.291357
  C       3.104057     -2.094681     -1.982755
  Cl      3.833231     -0.822189     -5.741974
  O       1.401515      0.879319      3.076337
  C       1.268650      1.043213      4.535649
  C      -0.065677      1.690041      4.868429
  H      -1.761171     -2.714198      1.369009
  H      -0.071431     -3.187782      1.054693
  H      -1.123757     -4.240548      2.027506
  H       0.461457     -2.949824      3.501585
  H      -1.234596     -2.493939      3.830156
  H       1.914913      0.809969      0.537454
  H      -0.684825     -1.588370     -0.986750
  H      -2.785153      2.814650      1.850881
  H      -2.329632      4.922145      3.107767
  H       1.663831      4.864541      2.029386
  H       1.378686      2.787576      0.719552
  H      -4.670360      0.708893     -0.313564
  H      -6.684015     -0.238368     -1.439839
  H      -6.433843     -2.068760     -3.115094
  H      -4.158289     -2.924960     -3.670582
  H      -2.162435     -1.961726     -2.578089
  H       2.418355     -1.794274      0.471964
  H       1.391656      0.856926     -1.859246
  H       2.227964      0.981571     -4.175263
  H       4.185094     -2.821268     -3.700571
  H       3.352498     -2.961260     -1.370590
  H       2.114452      1.674731      4.828479
  H       1.385402      0.065449      5.019751
  H      -0.151527      2.675187      4.399338
  H      -0.896334      1.062485      4.527448
  H      -0.146850      1.818216      5.956757
>
60
-2214.43744515; 31P isotropic shielding: 242.529074 ppm
  C      -0.983021     -3.186970      1.748753
  C      -0.491321     -2.533591      3.032013
  O      -0.178596     -1.112261      2.824899
  P       1.304290     -0.646915      2.389581
  O       2.354710     -1.674118      2.639848
  C       1.265311     -0.118135      0.600189
  C      -0.124604      0.245993      0.151987
  C      -0.931354     -0.592093     -0.590386
  N      -2.160364      0.001533     -0.689690
  N      -2.196703      1.193954     -0.037282
  C      -0.961708      1.362734      0.473720
  C      -0.684220      2.581534      1.243617
  C      -1.719878      3.230464      1.939504
  C      -1.436726      4.386749      2.664455
  N      -0.210866      4.939279      2.750077
  C       0.771801      4.324836      2.067688
  C       0.589618      3.165756      1.311966
  C      -3.313013     -0.497414     -1.358292
  C      -3.182075     -1.494860     -2.335540
  C      -4.323066     -1.997563     -2.964992
  C      -5.590176     -1.504375     -2.636799
  C      -5.708678     -0.497883     -1.671117
  C      -4.578182      0.007356     -1.026935
  N       1.810203     -1.246679     -0.157461
  C       2.291291     -1.080942     -1.462813
  C       3.063814     -2.114779     -2.035020
  C       3.533228     -2.022599     -3.341974
  C       3.231924     -0.889919     -4.105891
  C       2.473866      0.145294     -3.562036
  C       2.006428      0.053579     -2.247163
  Cl      3.816846     -0.774790     -5.765997
  O       1.445650      0.781446      3.089104
  C       1.319242      0.917080      4.551937
  C       0.015323      1.616419      4.898407
  H      -1.855399     -2.658209      1.347849
  H      -0.194534     -3.196254      0.986653
  H      -1.271869     -4.226639      1.956066
  H       0.402915     -3.032785      3.421691
  H      -1.268705     -2.530552      3.804293
  H       1.935001      0.756618      0.547196
  H      -0.712130     -1.556599     -1.019930
  H      -2.727021      2.822841      1.915643
  H      -2.230525      4.895058      3.214958
  H       1.760020      4.784155      2.129781
  H       1.434609      2.739729      0.779025
  H      -2.199905     -1.862046     -2.621031
  H      -4.215999     -2.770052     -3.724237
  H      -6.475716     -1.896170     -3.133071
  H      -6.689952     -0.104662     -1.411532
  H      -4.656067      0.785902     -0.274831
  H       2.380144     -1.859157      0.424945
  H       3.295955     -2.998886     -1.441803
  H       4.130571     -2.824332     -3.768780
  H       2.246462      1.024570     -4.159581
  H       1.407585      0.865420     -1.846732
  H       2.192878      1.501540      4.860523
  H       1.389298     -0.075914      5.013494
  H      -0.024409      2.615242      4.452801
  H      -0.842376      1.035549      4.542027
  H      -0.062225      1.722314      5.989425
