64
-2138.03629497; 31P isotropic shielding: 221.748932 ppm
  C       4.683866      3.293739      0.704011
  C       4.580312      2.041848      1.568588
  O       3.275086      1.401106      1.419366
  C       3.139147      0.534540      0.363706
  O       4.053042      0.226493     -0.383446
  C       1.753089      0.012076      0.295515
  C       1.509449     -1.342507      0.061806
  N       2.449627     -2.316940     -0.112795
  C       2.171671     -3.404648     -0.760846
  N       3.042070     -4.439055     -0.884385
  C       4.367522     -4.396970     -0.268072
  C       2.691051     -5.635249     -1.638687
  S      -0.220587     -1.670858      0.196511
  C      -0.604791      0.016952      0.484578
  C       0.558704      0.776938      0.521427
  C       0.548659      2.250831      0.657692
  C      -0.069051      2.877910      1.751255
  C      -0.092606      4.270441      1.852113
  C       0.497941      5.059121      0.858154
  C       1.118012      4.443349     -0.234617
  C       1.144915      3.050749     -0.331699
  P      -2.313724      0.677963      0.448095
  C      -3.227212     -0.802286      1.065741
  C      -4.427170     -1.214714      0.461418
  C      -5.180098     -2.259712      1.005453
  C      -4.754161     -2.902808      2.172356
  C      -3.570765     -2.487678      2.794281
  C      -2.816056     -1.447073      2.247745
  N      -2.797034      0.705516     -1.199802
  C      -2.539516     -0.376740     -2.166598
  C      -1.327350     -0.050432     -3.046350
  O      -1.502243      1.213850     -3.715346
  C      -1.688432      2.282474     -2.765456
  C      -2.899753      2.016435     -1.865234
  H       5.642852      3.795212      0.894960
  H       4.638625      3.035150     -0.359886
  H       3.872279      3.993922      0.932214
  H       5.360353      1.314704      1.316525
  H       4.634041      2.284339      2.635527
  H       1.213870     -3.565374     -1.278391
  H       4.519565     -3.406873      0.166678
  H       5.138245     -4.589147     -1.027675
  H       4.451189     -5.163856      0.516707
  H       2.727436     -6.527139     -0.994622
  H       1.677758     -5.535848     -2.041085
  H       3.389389     -5.787982     -2.475475
  H      -0.523089      2.266109      2.526735
  H      -0.572958      4.740925      2.708631
  H       0.477621      6.144862      0.936361
  H       1.581428      5.047828     -1.012792
  H       1.628723      2.574831     -1.182683
  H      -4.768237     -0.709573     -0.439326
  H      -6.101936     -2.571789      0.515932
  H      -5.340240     -3.716910      2.595867
  H      -3.232798     -2.977861      3.706348
  H      -1.895833     -1.138221      2.740267
  H      -3.426979     -0.494421     -2.811747
  H      -2.386083     -1.321212     -1.635081
  H      -1.206517     -0.797083     -3.841750
  H      -0.410318     -0.028565     -2.433163
  H      -0.782523      2.397881     -2.147177
  H      -1.831273      3.193117     -3.360798
  H      -2.984390      2.799338     -1.101486
  H      -3.816319      2.030775     -2.480194
>
64
-2138.04312907; 31P isotropic shielding: 219.318950 ppm
  C       4.343618      3.354652      2.245188
  C       4.523626      2.239607      1.226844
  O       3.280811      1.478360      1.209328
  C       3.141274      0.557192      0.205289
  O       4.042658      0.245470     -0.555420
  C       1.761388      0.015814      0.194807
  C       1.512585     -1.342257     -0.007261
  N       2.449359     -2.318136     -0.187856
  C       2.157900     -3.419749     -0.805950
  N       3.028898     -4.453005     -0.932457
  C       2.663667     -5.664741     -1.654654
  C       4.371622     -4.392158     -0.356096
  S      -0.215017     -1.666234      0.172046
  C      -0.591970      0.027750      0.438431
  C       0.572186      0.786654      0.434647
  C       0.576250      2.261952      0.558896
  C       1.185638      3.049887     -0.433194
  C       1.202940      4.441850     -0.327973
  C       0.609803      5.070272      0.773389
  C       0.000196      4.294308      1.765386
  C      -0.017178      2.901832      1.658006
  P      -2.298865      0.694267      0.423549
  C      -3.205963     -0.763079      1.100300
  C      -4.429508     -1.174919      0.544592
  C      -5.174509     -2.200178      1.135118
  C      -4.716742     -2.823280      2.300889
  C      -3.509392     -2.408029      2.874739
  C      -2.762568     -1.387315      2.281707
  N      -2.819320      0.684072     -1.212847
  C      -2.611347     -0.431401     -2.153493
  C      -1.415923     -0.162158     -3.075616
  O      -1.573379      1.089096     -3.772420
  C      -1.704792      2.185636     -2.846037
  C      -2.902879      1.978199     -1.912967
  H       3.506375      4.004806      1.964371
  H       4.143972      2.944724      3.243130
  H       5.256844      3.962300      2.298308
  H       4.712439      2.625371      0.216838
  H       5.349142      1.563851      1.487283
  H       1.186707     -3.593861     -1.293342
  H       1.638824     -5.578403     -2.029894
  H       2.723546     -6.544373     -0.995709
  H       3.339156     -5.828900     -2.507838
  H       5.119904     -4.604321     -1.132544
  H       4.534460     -3.390385      0.046846
  H       4.480054     -5.136770      0.446931
  H       1.649189      2.564094     -1.290046
  H       1.677938      5.036606     -1.106737
  H       0.624485      6.155600      0.858377
  H      -0.460196      4.774172      2.627631
  H      -0.479804      2.300018      2.436118
  H      -4.795158     -0.685130     -0.355037
  H      -6.115115     -2.512275      0.682744
  H      -5.296763     -3.622054      2.760391
  H      -3.146557     -2.882836      3.785375
  H      -1.823597     -1.078183      2.737134
  H      -3.517988     -0.545929     -2.772041
  H      -2.466775     -1.363772     -1.598545
  H      -1.340867     -0.932508     -3.853849
  H      -0.480293     -0.152462     -2.491008
  H      -0.781942      2.287982     -2.250238
  H      -1.833783      3.085647     -3.460302
  H      -2.949406      2.784074     -1.170203
  H      -3.831758      2.000387     -2.508859
>
64
-2138.04386447; 31P isotropic shielding: 219.062619 ppm
  C       4.057655      2.119382      3.632155
  C       4.554207      1.899827      2.206813
  O       3.468443      1.480535      1.324582
  C       3.186066      0.136513      1.302938
  O       3.830177     -0.699322      1.916649
  C       2.035998     -0.140242      0.411077
  C       2.051401     -1.230623     -0.457852
  N       3.062547     -2.136351     -0.614881
  C       2.832048     -3.334559     -1.048429
  N       3.817628     -4.236061     -1.303879
  C       5.227329     -3.890512     -1.130940
  C       3.509036     -5.572558     -1.792651
  S       0.603186     -1.214136     -1.474433
  C      -0.028364      0.206607     -0.677960
  C       0.854322      0.672969      0.283720
  C       0.530233      1.830695      1.144972
  C       0.534590      1.698808      2.543262
  C       0.148657      2.761574      3.360120
  C      -0.247045      3.978269      2.792172
  C      -0.244804      4.122893      1.401151
  C       0.143014      3.057755      0.584837
  P      -1.579569      0.934406     -1.322530
  C      -2.606175      1.043211      0.217214
  C      -2.387132      0.287847      1.378259
  C      -3.255177      0.392695      2.468141
  C      -4.354322      1.256690      2.411849
  C      -4.577069      2.023047      1.262081
  C      -3.703666      1.918935      0.176752
  N      -2.224862     -0.420110     -2.165014
  C      -2.823963     -0.206767     -3.491614
  C      -4.354793     -0.255384     -3.423560
  O      -4.808181     -1.484640     -2.827947
  C      -4.269987     -1.648202     -1.499909
  C      -2.737285     -1.643100     -1.521134
  H       3.712285      1.176900      4.071983
  H       4.877624      2.507316      4.252520
  H       3.234196      2.842558      3.650615
  H       4.912866      2.832989      1.758678
  H       5.348805      1.146003      2.171720
  H       1.817925     -3.724224     -1.224887
  H       5.739926     -3.857910     -2.104704
  H       5.721174     -4.644590     -0.502172
  H       5.291021     -2.911941     -0.650269
  H       3.900418     -6.339587     -1.107103
  H       2.424138     -5.696520     -1.873360
  H       3.955455     -5.741533     -2.785190
  H       0.826095      0.748811      2.987404
  H       0.148233      2.638863      4.442197
  H      -0.554796      4.805821      3.429136
  H      -0.544864      5.067285      0.949542
  H       0.149608      3.176185     -0.496777
  H      -1.526800     -0.375252      1.432998
  H      -3.071578     -0.197470      3.365049
  H      -5.028779      1.339425      3.262722
  H      -5.424114      2.706028      1.215257
  H      -3.871836      2.523370     -0.714953
  H      -2.470064     -0.997389     -4.175701
  H      -2.489856      0.761642     -3.883993
  H      -4.797600     -0.223840     -4.427277
  H      -4.729604      0.605185     -2.838583
  H      -4.639810     -0.842200     -0.843542
  H      -4.654460     -2.609677     -1.136883
  H      -2.344428     -1.721148     -0.502861
  H      -2.379722     -2.520295     -2.086376
>
64
-2138.04172043; 31P isotropic shielding: 196.771872 ppm
  C       4.339462      3.374384      2.215621
  C       4.521760      2.250086      1.207919
  O       3.278763      1.488964      1.194049
  C       3.140579      0.560804      0.196133
  O       4.043097      0.243516     -0.560915
  C       1.760691      0.019501      0.187500
  C       1.511896     -1.339781     -0.006630
  N       2.448854     -2.316926     -0.179429
  C       2.158696     -3.421910     -0.792081
  N       3.029493     -4.456422     -0.909578
  C       4.370172     -4.392955     -0.328803
  C       2.666095     -5.672232     -1.625761
  S      -0.215968     -1.662422      0.172312
  C      -0.592805      0.033316      0.428461
  C       0.571399      0.791924      0.421471
  C       0.575864      2.267818      0.537395
  C      -0.017910      2.914168      1.632458
  C      -0.000054      4.307241      1.731750
  C       0.610238      5.077189      0.735522
  C       1.203625      4.442250     -0.361936
  C       1.185903      3.049762     -0.459061
  P      -2.299733      0.699578      0.409224
  C      -3.206936     -0.754844      1.092123
  C      -4.428865     -1.170865      0.535931
  C      -5.174057     -2.193797      1.130244
  C      -4.718105     -2.810306      2.300238
  C      -3.512475     -2.390692      2.874516
  C      -2.765455     -1.372297      2.277739
  N      -2.818816      0.681896     -1.227591
  C      -2.607953     -0.437158     -2.163358
  C      -1.411626     -0.169860     -3.084873
  O      -1.570101      1.078246     -3.787080
  C      -1.704552      2.178532     -2.865479
  C      -2.903426      1.973031     -1.933112
  H       4.136620      2.973501      3.216591
  H       5.252921      3.981899      2.266185
  H       3.503531      4.022623      1.926392
  H       4.713101      2.626571      0.194878
  H       5.346531      1.576538      1.476293
  H       1.189149     -3.598269     -1.281916
  H       4.476297     -5.135129      0.476779
  H       4.530887     -3.389828      0.071606
  H       5.121502     -4.606813     -1.101863
  H       2.724087     -6.547952     -0.961467
  H       1.642303     -5.587961     -2.004334
  H       3.343852     -5.841561     -2.476132
  H      -0.481335      2.316993      2.413651
  H      -0.460900      4.792301      2.590838
  H       0.625650      6.162935      0.814514
  H       1.679078      5.032292     -1.144006
  H       1.649592      2.558807     -1.312883
  H      -4.793114     -0.686177     -0.367016
  H      -6.113387     -2.509180      0.677500
  H      -5.298219     -3.607317      2.762668
  H      -3.151105     -2.860260      3.788442
  H      -1.827902     -1.059659      2.733714
  H      -3.513557     -0.555624     -2.782671
  H      -2.462716     -1.367074     -1.604464
  H      -1.334076     -0.943227     -3.859844
  H      -0.476893     -0.156022     -2.498895
  H      -0.782545      2.284877     -2.269108
  H      -1.834230      3.075608     -3.483870
  H      -2.952149      2.781774     -1.193614
  H      -3.831619      1.991394     -2.530190
>
64
-2138.04386206; 31P isotropic shielding: 219.096072 ppm
  C       5.471533      1.471010      2.209392
  C       4.509672      2.284116      1.348561
  O       3.212297      1.622706      1.246164
  C       3.079327      0.696834      0.242568
  O       3.987770      0.374814     -0.506257
  C       1.706223      0.140550      0.222733
  C       1.493960     -1.225211      0.024319
  N       2.455337     -2.179229     -0.146703
  C       2.196750     -3.283431     -0.774444
  N       3.091935     -4.296866     -0.894400
  C       4.423310     -4.211086     -0.295785
  C       2.758983     -5.517048     -1.617853
  S      -0.222451     -1.596183      0.200948
  C      -0.646846      0.087086      0.459654
  C       0.495890      0.879342      0.458404
  C       0.449748      2.354279      0.571568
  C      -0.202006      2.982323      1.644848
  C      -0.260478      4.375409      1.725355
  C       0.331677      5.164177      0.732941
  C       0.988884      4.548137     -0.338331
  C       1.047886      3.155433     -0.416842
  P      -2.376977      0.693544      0.434012
  C      -3.230374     -0.804809      1.091919
  C      -4.415468     -1.281993      0.506681
  C      -5.121152     -2.342719      1.083105
  C      -4.662245     -2.936588      2.263501
  C      -3.493713     -2.456408      2.866578
  C      -2.786167     -1.400396      2.287840
  N      -2.881095      0.676516     -1.208358
  C      -2.591423     -0.410227     -2.161738
  C      -1.389387     -0.060422     -3.047016
  O      -1.601269      1.189673     -3.731894
  C      -1.817441      2.264241     -2.794970
  C      -3.022225      1.974559     -1.893079
  H       5.693614      0.508306      1.735591
  H       6.414518      2.020645      2.336034
  H       5.043335      1.288136      3.203052
  H       4.279238      3.253736      1.803303
  H       4.910168      2.435320      0.339818
  H       1.236959     -3.475413     -1.277392
  H       4.528635     -4.943656      0.518833
  H       4.565458     -3.202300      0.097333
  H       5.187197     -4.422907     -1.056834
  H       1.739750     -5.448356     -2.011526
  H       3.451974     -5.673350     -2.458292
  H       2.820964     -6.393495     -0.954704
  H      -0.655195      2.371578      2.421445
  H      -0.767994      4.845780      2.566157
  H       0.285092      6.250149      0.795689
  H       1.453084      5.152764     -1.116015
  H       1.556236      2.680219     -1.253994
  H      -4.782691     -0.814856     -0.404278
  H      -6.032115     -2.705109      0.608117
  H      -5.211872     -3.762639      2.712013
  H      -3.130904     -2.907905      3.789016
  H      -1.876742     -1.040800      2.765926
  H      -3.475140     -0.560136     -2.805244
  H      -2.412038     -1.343437     -1.618582
  H      -1.247698     -0.813648     -3.832685
  H      -0.472879     -0.003427     -2.435810
  H      -0.915953      2.411493     -2.176991
  H      -1.984526      3.163594     -3.400976
  H      -3.133103      2.765346     -1.140886
  H      -3.937036      1.950534     -2.510035
>
64
-2138.04284135; 31P isotropic shielding: 219.521167 ppm
  C       5.474104      1.473071      2.200803
  C       4.509461      2.285803      1.342771
  O       3.212642      1.622941      1.242414
  C       3.078924      0.697646      0.238335
  O       3.986574      0.376825     -0.511946
  C       1.706190      0.140429      0.219937
  C       1.494697     -1.225354      0.021014
  N       2.456568     -2.178644     -0.151557
  C       2.197996     -3.282535     -0.779896
  N       3.093136     -4.295939     -0.900353
  C       4.424790     -4.210217     -0.302370
  C       2.761086     -5.514633     -1.626706
  S      -0.221268     -1.597655      0.199301
  C      -0.646587      0.085179      0.459387
  C       0.495590      0.878238      0.457328
  C       0.448531      2.353094      0.571348
  C      -0.202723      2.980090      1.645535
  C      -0.262083      4.373091      1.726849
  C       0.328647      5.162804      0.734348
  C       0.985342      4.547810     -0.337831
  C       1.045250      3.155200     -0.417153
  P      -2.377091      0.690588      0.435389
  C      -3.229168     -0.808269      1.093839
  C      -2.783344     -1.404155      2.289005
  C      -3.489871     -2.460599      2.868205
  C      -4.658973     -2.940915      2.266365
  C      -5.119484     -2.346737      1.086745
  C      -4.414814     -1.285600      0.509854
  N      -2.882662      0.673453     -1.206523
  C      -2.594251     -0.413476     -2.160050
  C      -1.393202     -0.064090     -3.046822
  O      -1.605548      1.186000     -3.731567
  C      -1.820314      2.260710     -2.794480
  C      -3.024146      1.971472     -1.891220
  H       5.048244      1.288756      3.195203
  H       5.696357      0.511094      1.725600
  H       6.416707      2.023703      2.325979
  H       4.278778      3.254724      1.798863
  H       4.907643      2.438399      0.333315
  H       1.238164     -3.474336     -1.282821
  H       4.564730     -3.203224      0.096117
  H       5.188804     -4.415858     -1.065034
  H       4.532419     -4.947044      0.508058
  H       2.824893     -6.392619     -0.965812
  H       1.741373     -5.446228     -2.019191
  H       3.453407     -5.667958     -2.468271
  H      -0.654822      2.368619      2.422193
  H      -0.769203      4.842650      2.568345
  H       0.281382      6.248706      0.797748
  H       1.448392      5.153186     -1.115621
  H       1.553168      2.680789     -1.255020
  H      -1.873492     -1.044445      2.766187
  H      -3.125807     -2.912319      3.790036
  H      -5.207791     -3.767323      2.715209
  H      -6.030905     -2.709221      0.612703
  H      -4.783288     -0.818278     -0.400509
  H      -3.478745     -0.563319     -2.802511
  H      -2.414457     -1.346646     -1.616951
  H      -1.252693     -0.817407     -3.832612
  H      -0.475889     -0.007259     -2.436804
  H      -0.918038      2.407662     -2.177570
  H      -1.987784      3.160063     -3.400376
  H      -3.133864      2.762342     -1.138940
  H      -3.939681      1.947763     -2.507113
>
64
-2138.04285089; 31P isotropic shielding: 219.504092 ppm
  C       4.870181      3.077851      0.571946
  C       4.647468      1.968082      1.594128
  O       3.335115      1.347781      1.427468
  C       3.247194      0.356733      0.481849
  O       4.205454     -0.070763     -0.141971
  C       1.853626     -0.130057      0.359444
  C       1.580239     -1.491174      0.191340
  N       2.493148     -2.505385      0.158904
  C       2.245493     -3.605561     -0.480252
  N       3.068962     -4.684078     -0.450345
  C       4.297221     -4.683159      0.343149
  C       2.760597     -5.890278     -1.207244
  S      -0.160779     -1.765251      0.197382
  C      -0.506234     -0.056520      0.365113
  C       0.670816      0.678825      0.445126
  C       0.686653      2.159624      0.459328
  C       0.029366      2.890589      1.461051
  C       0.027274      4.287173      1.434425
  C       0.680848      4.974158      0.405148
  C       1.341639      4.253535     -0.595787
  C       1.344228      2.857947     -0.567335
  P      -2.204169      0.586568      0.285121
  C      -3.106404     -0.913760      0.901942
  C      -3.560714     -1.943839      0.064556
  C      -4.230730     -3.047830      0.601380
  C      -4.450710     -3.136684      1.980274
  C      -4.005182     -2.109812      2.821825
  C      -3.348367     -1.000836      2.282740
  N      -2.538697      0.402424     -1.449172
  C      -1.525376      0.862415     -2.417314
  C      -1.586973      2.375411     -2.657572
  O      -2.908272      2.773908     -3.078695
  C      -3.890530      2.415710     -2.089568
  C      -3.880419      0.904841     -1.825367
  H       4.073615      3.828244      0.631462
  H       5.831829      3.572041      0.768225
  H       4.896583      2.668951     -0.444356
  H       5.417148      1.191795      1.516845
  H       4.624587      2.361700      2.616159
  H       1.355948     -3.740640     -1.113884
  H       4.232016     -5.426259      1.152110
  H       4.438439     -3.687264      0.768182
  H       5.154766     -4.936551     -0.295906
  H       2.663924     -6.757497     -0.536244
  H       1.816563     -5.758865     -1.745786
  H       3.555240     -6.108261     -1.936872
  H      -0.473810      2.357345      2.263282
  H      -0.485574      4.840427      2.219661
  H       0.675009      6.062611      0.383292
  H       1.851293      4.778704     -1.402019
  H       1.853592      2.298126     -1.349715
  H      -3.374185     -1.871245     -1.004723
  H      -4.580078     -3.841994     -0.057816
  H      -4.973524     -3.996431      2.396882
  H      -4.178777     -2.169979      3.895364
  H      -3.016722     -0.194984      2.938137
  H      -1.717138      0.344225     -3.371646
  H      -0.529397      0.568235     -2.070592
  H      -0.908449      2.675604     -3.465973
  H      -1.306056      2.920525     -1.740590
  H      -3.692888      2.963655     -1.150380
  H      -4.859278      2.739272     -2.491655
  H      -4.600592      0.651464     -1.035349
  H      -4.195152      0.375558     -2.739613
>
64
-2138.03659248; 31P isotropic shielding: 223.059572 ppm
  C       3.981830      1.541589      4.012805
  C       4.560923      1.383411      2.610498
  O       3.513470      1.117183      1.627697
  C       3.121473     -0.192769      1.497794
  O       3.644556     -1.116932      2.100118
  C       2.024305     -0.316224      0.510237
  C       2.014062     -1.358146     -0.416417
  N       2.952576     -2.342280     -0.550711
  C       2.653823     -3.491664     -1.066862
  N       3.574461     -4.465900     -1.296179
  C       4.989379     -4.259840     -0.992571
  C       3.192669     -5.739884     -1.889186
  S       0.655715     -1.161624     -1.532655
  C       0.086903      0.267716     -0.704643
  C       0.929229      0.604814      0.344005
  C       0.640797      1.742401      1.243285
  C       0.546640      1.546385      2.631063
  C       0.188380      2.596558      3.476206
  C      -0.080469      3.864946      2.948286
  C       0.021307      4.073135      1.569206
  C       0.381448      3.020469      0.724807
  P      -1.343393      1.157046     -1.423421
  C      -2.466305      1.305356      0.044095
  C      -2.406079      0.492356      1.185189
  C      -3.341962      0.639387      2.212247
  C      -4.351380      1.603128      2.112019
  C      -4.415299      2.426878      0.982444
  C      -3.474120      2.280224     -0.039387
  N      -2.039276     -0.105685     -2.363683
  C      -2.535200      0.207332     -3.713099
  C      -4.066069      0.288233     -3.739982
  O      -4.658440     -0.915232     -3.218787
  C      -4.219680     -1.169142     -1.868380
  C      -2.694433     -1.300364     -1.800664
  H       3.217768      2.327134      4.031579
  H       3.533435      0.602032      4.354760
  H       4.782608      1.815352      4.713756
  H       5.020801      2.313593      2.259216
  H       5.296485      0.572014      2.570864
  H       1.627120     -3.778035     -1.341129
  H       5.094565     -3.328138     -0.432437
  H       5.581106     -4.200965     -1.919206
  H       5.366060     -5.098673     -0.390868
  H       3.455903     -6.575630     -1.223154
  H       2.111903     -5.758264     -2.063684
  H       3.705151     -5.895152     -2.851580
  H       0.738162      0.557432      3.043286
  H       0.109732      2.424140      4.548602
  H      -0.367324      4.683016      3.606868
  H      -0.179457      5.057446      1.148930
  H       0.465820      3.188207     -0.347003
  H      -1.616114     -0.249612      1.275000
  H      -3.280744      0.003683      3.094571
  H      -5.078609      1.717919      2.914301
  H      -5.191696      3.186480      0.902669
  H      -3.518415      2.928809     -0.914680
  H      -2.206660     -0.585881     -4.406774
  H      -2.096683      1.156596     -4.044883
  H      -4.438211      0.387898     -4.767697
  H      -4.406273      1.159860     -3.150365
  H      -4.556609     -0.354909     -1.204674
  H      -4.708519     -2.103532     -1.565173
  H      -2.371145     -1.447901     -0.765830
  H      -2.379801     -2.185478     -2.378839
>
64
-2138.04164315; 31P isotropic shielding: 196.610985 ppm
  C       4.250922      3.409129      2.500299
  C       4.335949      1.891049      2.456509
  O       3.377950      1.442384      1.455046
  C       3.133296      0.094484      1.402748
  O       3.768350     -0.729858      2.040668
  C       2.016430     -0.188917      0.472234
  C       2.049561     -1.280206     -0.393874
  N       3.063660     -2.186147     -0.526871
  C       2.842715     -3.384332     -0.966009
  N       3.833324     -4.286007     -1.199375
  C       5.239007     -3.942057     -0.993213
  C       3.534608     -5.624698     -1.688439
  S       0.618576     -1.267666     -1.435801
  C      -0.029091      0.154421     -0.653389
  C       0.835829      0.623518      0.322464
  C       0.509699      1.790211      1.171229
  C       0.516249      1.675328      2.571690
  C       0.158716      2.756521      3.376872
  C      -0.213251      3.974747      2.795086
  C      -0.218846      4.100134      1.402502
  C       0.141957      3.016491      0.597759
  P      -1.567003      0.882122     -1.327514
  C      -2.612811      1.012711      0.197919
  C      -3.700230      1.899616      0.136716
  C      -4.587373      2.020020      1.209277
  C      -4.388873      1.258558      2.366629
  C      -3.299665      0.383485      2.443691
  C      -2.417639      0.262816      1.366851
  N      -2.204278     -0.479485     -2.165747
  C      -2.803865     -0.271488     -3.493242
  C      -4.334908     -0.311897     -3.423816
  O      -4.793983     -1.535424     -2.820825
  C      -4.255788     -1.694113     -1.492122
  C      -2.723084     -1.696045     -1.514320
  H       3.239119      3.732527      2.772671
  H       4.957112      3.800926      3.244539
  H       4.501722      3.843394      1.524452
  H       5.336244      1.536497      2.173875
  H       4.078916      1.432401      3.420038
  H       1.832689     -3.773255     -1.165900
  H       5.714398     -4.690001     -0.343178
  H       5.292930     -2.958344     -0.521979
  H       5.776446     -3.922162     -1.953745
  H       4.006506     -5.799958     -2.667944
  H       3.906204     -6.388800     -0.988704
  H       2.451928     -5.746792     -1.796904
  H       0.792074      0.725501      3.026541
  H       0.161891      2.648034      4.460510
  H      -0.497302      4.817575      3.422940
  H      -0.501654      5.044662      0.940186
  H       0.147437      3.122085     -0.485217
  H      -3.849608      2.500119     -0.760956
  H      -5.426295      2.711695      1.146575
  H      -5.074238      1.353521      3.207433
  H      -3.134870     -0.202948      3.346676
  H      -1.564367     -0.407845      1.438162
  H      -2.454433     -1.068560     -4.172017
  H      -2.464997      0.692547     -3.892264
  H      -4.778206     -0.283919     -4.427421
  H      -4.704902      0.553973     -2.843679
  H      -4.621910     -0.883357     -0.839703
  H      -4.644056     -2.652060     -1.123827
  H      -2.329358     -1.770351     -0.496083
  H      -2.369932     -2.577805     -2.075107
>
64
-2138.04250029; 31P isotropic shielding: 197.068297 ppm
  C       5.747225      1.779081      1.875825
  C       4.365893      1.869088      2.517508
  O       3.321591      1.479191      1.575718
  C       3.049084      0.136331      1.492744
  O       3.661377     -0.716483      2.115899
  C       1.945690     -0.114920      0.537162
  C       2.019034     -1.165345     -0.375826
  N       3.056114     -2.042862     -0.523920
  C       2.881769     -3.211109     -1.054849
  N       3.901858     -4.078255     -1.293981
  C       5.285638     -3.728295     -0.979337
  C       3.661186     -5.375797     -1.909650
  S       0.611825     -1.132260     -1.448777
  C      -0.078904      0.242826     -0.619805
  C       0.756137      0.685465      0.395290
  C       0.388294      1.806199      1.285829
  C       0.409063      1.644454      2.681822
  C      -0.014901      2.671981      3.524495
  C      -0.466975      3.883084      2.986615
  C      -0.480339      4.058332      1.599478
  C      -0.052478      3.029363      0.757415
  P      -1.614988      0.958959     -1.312721
  C      -2.696614      1.053878      0.190737
  C      -2.520692      0.288833      1.352776
  C      -3.427634      0.386102      2.411044
  C      -4.524096      1.250875      2.321254
  C      -4.704654      2.025980      1.170111
  C      -3.791908      1.930020      0.116822
  N      -2.210977     -0.399941     -2.184733
  C      -2.800618     -0.179215     -3.514673
  C      -4.331374     -0.246821     -3.461631
  O      -4.775170     -1.488593     -2.885014
  C      -4.247467     -1.661661     -1.553717
  C      -2.714849     -1.637216     -1.561026
  H       5.987648      0.740614      1.622666
  H       5.791659      2.387015      0.963306
  H       6.508560      2.150981      2.575504
  H       4.298461      1.230161      3.405542
  H       4.110457      2.900111      2.785801
  H       1.892397     -3.602540     -1.336108
  H       5.874159     -3.603250     -1.901456
  H       5.743799     -4.526930     -0.379298
  H       5.290077     -2.793878     -0.414049
  H       4.010131     -6.189596     -1.255928
  H       2.589387     -5.507353     -2.090737
  H       4.191582     -5.458187     -2.871272
  H       0.739353      0.697139      3.104474
  H      -0.003075      2.524942      4.603536
  H      -0.804998      4.682408      3.643970
  H      -0.823726      4.998569      1.170694
  H      -0.057025      3.174225     -0.321099
  H      -1.662820     -0.374579      1.434574
  H      -3.276587     -0.210683      3.309588
  H      -5.228993      1.327254      3.147685
  H      -5.549564      2.709363      1.097524
  H      -3.926643      2.542329     -0.775182
  H      -2.430803     -0.958814     -4.202825
  H      -2.474081      0.797054     -3.893828
  H      -4.765199     -0.208465     -4.469019
  H      -4.721749      0.601972     -2.869843
  H      -4.633442     -0.868638     -0.891253
  H      -4.623073     -2.632309     -1.206224
  H      -2.327989     -1.724843     -0.541170
  H      -2.341746     -2.501744     -2.135556
>
64
-2138.04152650; 31P isotropic shielding: 196.614235 ppm
  C       4.400109      3.373527      2.034620
  C       4.629315      2.102402      1.231328
  O       3.362816      1.381445      1.208498
  C       3.262810      0.346359      0.316285
  O       4.206931     -0.083824     -0.326436
  C       1.869462     -0.152504      0.259044
  C       1.585290     -1.515009      0.131286
  N       2.493665     -2.532767      0.096090
  C       2.220569     -3.650848     -0.500611
  N       3.042971     -4.729881     -0.469271
  C       4.299904     -4.708598      0.277930
  C       2.704821     -5.957799     -1.177161
  S      -0.157599     -1.777750      0.188908
  C      -0.489090     -0.062819      0.327182
  C       0.693551      0.666282      0.358339
  C       0.727225      2.147027      0.348338
  C       0.099130      2.901995      1.350362
  C       0.136405      4.298237      1.315522
  C       0.801778      4.960922      0.278407
  C       1.431175      4.216164     -0.725777
  C       1.392462      2.821548     -0.690360
  P      -2.184342      0.590095      0.285211
  C      -3.081192     -0.898658      0.936727
  C      -3.564520     -1.930986      0.118699
  C      -4.229894     -3.025280      0.680573
  C      -4.416073     -3.101984      2.065183
  C      -3.941346     -2.072670      2.887559
  C      -3.289268     -0.973243      2.323765
  N      -2.566108      0.398272     -1.437885
  C      -1.573085      0.833044     -2.437847
  C      -1.618296      2.344586     -2.691221
  O      -2.944811      2.759051     -3.079582
  C      -3.904590      2.425441     -2.060116
  C      -3.910180      0.917128     -1.781431
  H       5.330366      3.955032      2.085374
  H       3.625087      3.992265      1.566953
  H       4.084265      3.138244      3.058583
  H       4.932625      2.312146      0.197838
  H       5.395352      1.456393      1.680978
  H       1.308130     -3.802568     -1.096834
  H       4.460590     -3.699827      0.663918
  H       5.131967     -4.987630     -0.383646
  H       4.261802     -5.423997      1.113177
  H       1.742671     -5.839686     -1.685908
  H       3.472820     -6.200576     -1.927090
  H       2.630033     -6.803583     -0.476655
  H      -0.409031      2.388556      2.162216
  H      -0.352797      4.869913      2.102636
  H       0.829371      6.048921      0.252203
  H       1.947383      4.722432     -1.539969
  H       1.878166      2.243192     -1.474513
  H      -3.404352     -1.867444     -0.955437
  H      -4.602308     -3.821395      0.036518
  H      -4.935469     -3.954107      2.501279
  H      -4.088631     -2.123340      3.965518
  H      -2.934978     -0.165157      2.964394
  H      -1.798977      0.309298     -3.381640
  H      -0.572554      0.526412     -2.115938
  H      -0.958126      2.626824     -3.520959
  H      -1.304511      2.894291     -1.787645
  H      -3.672014      2.978774     -1.132119
  H      -4.878996      2.760664     -2.438187
  H      -4.611309      0.682594     -0.968719
  H      -4.259168      0.384050     -2.680885
>
64
-2138.03720709; 31P isotropic shielding: 222.705010 ppm
  C       4.773263      2.821791      0.752909
  C       4.480701      1.662140      1.698952
  O       3.144262      1.116865      1.471041
  C       3.019788      0.189271      0.473429
  O       3.980623     -0.261243     -0.144030
  C       1.611228     -0.216786      0.299210
  C       1.251188     -1.559315      0.092982
  N       1.987017     -2.703050     -0.035466
  C       2.962352     -2.793806     -0.888850
  N       3.751327     -3.891489     -0.980527
  C       3.601472     -5.022163     -0.066896
  C       4.857427     -3.940306     -1.928177
  S      -0.482288     -1.747468      0.248079
  C      -0.741261     -0.033021      0.507352
  C       0.472323      0.639515      0.524738
  C       0.568924      2.113040      0.628000
  C       0.005118      2.806892      1.710395
  C       0.081782      4.199385      1.780157
  C       0.720933      4.921960      0.765982
  C       1.287575      4.239519     -0.316420
  C       1.213431      2.846671     -0.382265
  P      -2.395758      0.757441      0.447194
  C      -3.424331     -0.631888      1.095016
  C      -4.660597     -0.945639      0.504007
  C      -5.496285     -1.915947      1.064752
  C      -5.117736     -2.581507      2.235485
  C      -3.898198     -2.263452      2.844217
  C      -3.061020     -1.297141      2.281104
  N      -2.868604      0.781415     -1.202479
  C      -2.711749     -0.345469     -2.138829
  C      -1.487764     -0.144317     -3.039682
  O      -1.563280      1.112073     -3.741702
  C      -1.653509      2.217776     -2.821374
  C      -2.872688      2.076692     -1.903235
  H       5.748378      3.262439      1.002417
  H       4.809003      2.476544     -0.286644
  H       4.005416      3.598725      0.841295
  H       5.215222      0.856580      1.589054
  H       4.452858      1.992993      2.742736
  H       3.200932     -2.005283     -1.606462
  H       4.462077     -5.085450      0.616387
  H       3.540708     -5.958687     -0.638896
  H       2.687524     -4.884225      0.514832
  H       5.821325     -4.008098     -1.400663
  H       4.763833     -4.815366     -2.588670
  H       4.859529     -3.032815     -2.539599
  H      -0.485208      2.245417      2.501630
  H      -0.358277      4.721899      2.628154
  H       0.778110      6.007905      0.819704
  H       1.786732      4.792337     -1.110844
  H       1.654731      2.317300     -1.224777
  H      -4.963939     -0.424169     -0.401017
  H      -6.445054     -2.153363      0.584886
  H      -5.767432     -3.338852      2.671291
  H      -3.595209     -2.772636      3.758131
  H      -2.113275     -1.065319      2.763480
  H      -3.613361     -0.410816     -2.771714
  H      -2.626559     -1.283838     -1.582250
  H      -1.440163     -0.920381     -3.814181
  H      -0.564943     -0.184533     -2.435747
  H      -0.735217      2.278202     -2.213096
  H      -1.729159      3.120378     -3.440981
  H      -2.883880      2.885165     -1.161890
  H      -3.791372      2.149407     -2.511135
>
64
-2138.04468719; 31P isotropic shielding: 219.868999 ppm
  C       4.773700      2.820173      0.754910
  C       4.477953      1.660858      1.700144
  O       3.141243      1.117613      1.468743
  C       3.018502      0.187701      0.472622
  O       3.980706     -0.264989     -0.140875
  C       1.609798     -0.216216      0.295213
  C       1.248798     -1.558808      0.089465
  N       1.983490     -2.703178     -0.039763
  C       2.959885     -2.792395     -0.892417
  N       3.750344     -3.888789     -0.983705
  C       3.600163     -5.021260     -0.072393
  C       4.851962     -3.939788     -1.936339
  S      -0.484541     -1.746253      0.245722
  C      -0.742448     -0.031238      0.505095
  C       0.471395      0.640576      0.521005
  C       0.567984      2.114055      0.623970
  C       0.001549      2.808251      1.704684
  C       0.077991      4.200789      1.774151
  C       0.719438      4.923066      0.761362
  C       1.288559      4.240284     -0.319535
  C       1.214633      2.847558     -0.385129
  P      -2.398223      0.756603      0.446301
  C      -3.423002     -0.635204      1.094558
  C      -4.656408     -0.957392      0.502809
  C      -5.487512     -1.930575      1.065581
  C      -5.107021     -2.590138      2.238894
  C      -3.890193     -2.263346      2.848582
  C      -3.057633     -1.294374      2.283566
  N      -2.875381      0.780135     -1.203134
  C      -2.709653     -0.344237     -2.141406
  C      -1.480685     -0.139138     -3.034270
  O      -1.555097      1.118468     -3.734637
  C      -1.653295      2.222365     -2.812720
  C      -2.877330      2.076721     -1.902237
  H       5.749743      3.258695      1.004487
  H       4.809156      2.475084     -0.284735
  H       4.007574      3.598816      0.842983
  H       5.211489      0.854237      1.591678
  H       4.447947      1.991267      2.744012
  H       3.198219     -2.003310     -1.609407
  H       2.696293     -4.874690      0.522724
  H       4.470158     -5.096855      0.597420
  H       3.519785     -5.955264     -0.646317
  H       4.856918     -3.029505     -2.543545
  H       5.817341     -4.015703     -1.412839
  H       4.750692     -4.811276     -2.600528
  H      -0.490463      2.247272      2.495181
  H      -0.364194      4.723399      2.620965
  H       0.776654      6.008987      0.815048
  H       1.789381      4.792891     -1.113042
  H       1.657639      2.317872     -1.226534
  H      -4.961239     -0.440083     -0.404069
  H      -6.434175     -2.174756      0.584991
  H      -5.753093     -3.349693      2.676207
  H      -3.586057     -2.767850      3.764688
  H      -2.111915     -1.055491      2.766444
  H      -3.607058     -0.407932     -2.780382
  H      -2.628263     -1.283988     -1.586591
  H      -1.426411     -0.913378     -3.810119
  H      -0.561060     -0.177810     -2.425554
  H      -0.738339      2.283836     -2.199641
  H      -1.727739      3.125624     -3.431514
  H      -2.895198      2.883911     -1.159610
  H      -3.792655      2.147996     -2.515219
>
64
-2138.04469502; 31P isotropic shielding: 219.951910 ppm
  C       4.967502      2.942448      0.800931
  C       4.760531      1.807799      1.798738
  O       3.426847      1.226967      1.668558
  C       3.273148      0.261702      0.703956
  O       4.194576     -0.183400      0.038489
  C       1.859167     -0.169634      0.619284
  C       1.523058     -1.508363      0.402148
  N       2.387146     -2.557808      0.277360
  C       2.061354     -3.610419     -0.405275
  N       2.838452     -4.721228     -0.477637
  C       4.106323     -4.812763      0.244959
  C       2.438688     -5.870841     -1.278480
  S      -0.229552     -1.707363      0.467331
  C      -0.497552      0.006493      0.726621
  C       0.714415      0.681280      0.786759
  C       0.789558      2.159441      0.878256
  C       0.291957      2.845844      1.995931
  C       0.344141      4.240382      2.053199
  C       0.892011      4.968707      0.991220
  C       1.390391      4.291604     -0.127561
  C       1.340000      2.897174     -0.181973
  P      -2.138253      0.815369      0.637881
  C      -3.227505     -0.629770      0.994578
  C      -4.362835     -0.904257      0.213339
  C      -5.241239     -1.933865      0.565411
  C      -5.008479     -2.698638      1.713118
  C      -3.893695     -2.418585      2.512189
  C      -3.014623     -1.392378      2.158934
  N      -2.429851      1.052884     -1.048330
  C      -2.049694      0.048277     -2.056209
  C      -2.817758      0.307832     -3.355589
  O      -2.606037      1.643920     -3.841336
  C      -2.995385      2.614616     -2.851637
  C      -2.213815      2.424078     -1.551027
  H       4.944458      2.563278     -0.227031
  H       4.189864      3.706620      0.913724
  H       5.946573      3.411032      0.972395
  H       5.505720      1.015270      1.666066
  H       4.790285      2.170711      2.831952
  H       1.135360     -3.675182     -0.996484
  H       4.054292     -5.598050      1.014183
  H       4.311088     -3.848926      0.715624
  H       4.917434     -5.061755     -0.453743
  H       3.189165     -6.086012     -2.054138
  H       2.329908     -6.767187     -0.648675
  H       1.479354     -5.668021     -1.765553
  H      -0.131767      2.278543      2.821268
  H      -0.044672      4.759580      2.927874
  H       0.930530      6.055916      1.035300
  H       1.816750      4.850148     -0.959468
  H       1.723927      2.370275     -1.053838
  H      -4.556527     -0.300934     -0.670385
  H      -6.110538     -2.136978     -0.059006
  H      -5.692646     -3.500254      1.986836
  H      -3.707993     -3.001835      3.413075
  H      -2.152998     -1.186543      2.791612
  H      -2.287446     -0.954125     -1.683251
  H      -0.963575      0.084321     -2.258572
  H      -3.897989      0.138962     -3.189332
  H      -2.471677     -0.363755     -4.151078
  H      -2.786225      3.597269     -3.291473
  H      -4.079835      2.530376     -2.652982
  H      -1.143039      2.617772     -1.742306
  H      -2.554773      3.138679     -0.791729
>
64
-2138.04361097; 31P isotropic shielding: 218.678963 ppm
  C       4.328384      3.444553      2.080060
  C       4.582835      2.189509      1.259271
  O       3.331553      1.442728      1.228260
  C       3.252841      0.416369      0.324084
  O       4.205561      0.013365     -0.323579
  C       1.870061     -0.110286      0.260319
  C       1.613759     -1.476657      0.115410
  N       2.543082     -2.474860      0.068286
  C       2.291745     -3.592834     -0.538174
  N       3.137602     -4.653887     -0.520392
  C       4.396996     -4.611547      0.221721
  C       2.821502     -5.883477     -1.235509
  S      -0.123560     -1.775576      0.167757
  C      -0.489864     -0.069505      0.325801
  C       0.677609      0.682939      0.368283
  C       0.680156      2.164081      0.380386
  C       0.039588      2.889406      1.396301
  C       0.047753      4.286419      1.384231
  C       0.695888      4.979445      0.356044
  C       1.337260      4.264355     -0.662074
  C       1.327772      2.868769     -0.649203
  P      -2.196842      0.550888      0.281134
  C      -3.067025     -0.956041      0.926966
  C      -3.530230     -1.994860      0.105526
  C      -4.176245     -3.102719      0.663393
  C      -4.363085     -3.186586      2.047493
  C      -3.908488     -2.150972      2.873320
  C      -3.275780     -1.038290      2.313482
  N      -2.569332      0.354593     -1.443908
  C      -3.920709      0.850757     -1.792243
  C      -3.940060      2.359016     -2.070563
  O      -2.981993      2.709810     -3.085800
  C      -1.650204      2.317635     -2.692584
  C      -1.580172      0.807027     -2.439981
  H       5.246667      4.044121      2.138347
  H       3.540516      4.053854      1.621596
  H       4.018277      3.188761      3.100862
  H       4.879928      2.419598      0.228294
  H       5.363037      1.553762      1.699032
  H       1.380359     -3.758568     -1.132289
  H       4.539960     -3.601323      0.610885
  H       5.231177     -4.872267     -0.444584
  H       4.376348     -5.330532      1.054541
  H       3.590074     -6.104558     -1.991519
  H       2.768627     -6.735719     -0.540850
  H       1.854137     -5.782020     -1.737896
  H      -0.454960      2.351873      2.200954
  H      -0.450556      4.835036      2.181963
  H       0.700970      6.068065      0.347458
  H       1.840210      4.794416     -1.469386
  H       1.822910      2.313291     -1.443927
  H      -3.369811     -1.925542     -0.968218
  H      -4.532997     -3.903724      0.016554
  H      -4.867452     -4.049249      2.480484
  H      -4.056443     -2.207227      3.950906
  H      -2.937371     -0.225593      2.956877
  H      -4.620784      0.604321     -0.982147
  H      -4.257030      0.311962     -2.693126
  H      -3.721785      2.916293     -1.141458
  H      -4.918604      2.676925     -2.452946
  H      -0.991809      2.611526     -3.519732
  H      -1.348846      2.871766     -1.787436
  H      -1.793779      0.280028     -3.384824
  H      -0.575628      0.517361     -2.114833
>
64
-2138.03720750; 31P isotropic shielding: 222.863813 ppm
  C       5.018055      2.861207      0.713206
  C       4.800104      1.752338      1.737319
  O       3.455230      1.193058      1.630434
  C       3.276856      0.207273      0.691028
  O       4.184861     -0.270924      0.030194
  C       1.854417     -0.198960      0.626587
  C       1.491065     -1.535820      0.445992
  N       2.333395     -2.605338      0.343716
  C       1.982996     -3.667381     -0.311614
  N       2.733898     -4.797551     -0.355733
  C       4.001715     -4.899185      0.365566
  C       2.314143     -5.952145     -1.139012
  S      -0.264693     -1.698621      0.525903
  C      -0.497590      0.025902      0.743656
  C       0.727522      0.678169      0.778928
  C       0.831788      2.156482      0.829025
  C       0.355096      2.883468      1.930038
  C       0.434521      4.277772      1.947613
  C       0.989163      4.965300      0.862203
  C       1.467028      4.247589     -0.240055
  C       1.389221      2.853442     -0.254934
  P      -2.122674      0.865152      0.646975
  C      -3.238407     -0.554772      1.022830
  C      -4.373542     -0.824977      0.239902
  C      -5.270552     -1.833710      0.605236
  C      -5.056633     -2.581397      1.767756
  C      -3.941877     -2.305104      2.568190
  C      -3.044440     -1.299565      2.201926
  N      -2.410053      1.087754     -1.041848
  C      -2.182746      2.450083     -1.562524
  C      -2.964866      2.629912     -2.864331
  O      -2.584267      1.643347     -3.841722
  C      -2.806211      0.315235     -3.338845
  C      -2.039690      0.066128     -2.036513
  H       4.254692      3.641050      0.815576
  H       6.006610      3.316085      0.866120
  H       4.979335      2.460152     -0.305965
  H       5.529925      0.943961      1.615567
  H       4.845350      2.137044      2.762058
  H       1.054620     -3.726050     -0.899734
  H       4.218682     -3.934788      0.829514
  H       4.809633     -5.161996     -0.331979
  H       3.940727     -5.678930      1.139588
  H       2.199361     -6.838402     -0.496371
  H       1.353437     -5.743833     -1.621039
  H       3.055721     -6.186964     -1.917697
  H      -0.073509      2.347924      2.773847
  H       0.062031      4.828703      2.809901
  H       1.049024      6.052353      0.875528
  H       1.898892      4.774118     -1.089790
  H       1.757342      2.294946     -1.113864
  H      -4.552299     -0.234349     -0.655418
  H      -6.139647     -2.033959     -0.020395
  H      -5.755326     -3.366684      2.051912
  H      -3.770614     -2.874863      3.480495
  H      -2.183484     -1.096023      2.836303
  H      -1.110797      2.631905     -1.758175
  H      -2.516002      3.177750     -0.812235
  H      -2.748789      3.605070     -3.317296
  H      -4.049628      2.556451     -2.663118
  H      -3.887694      0.156887     -3.170334
  H      -2.465772     -0.369076     -4.125901
  H      -2.286021     -0.928956     -1.649954
  H      -0.953434      0.090112     -2.239834
>
64
-2138.04363036; 31P isotropic shielding: 218.420799 ppm
  C       4.607837      2.823749      2.143318
  C       4.752000      2.171280      0.772325
  O       3.489927      1.576080      0.340560
  C       3.239692      0.296733      0.773254
  O       4.047027     -0.378960      1.391032
  C       1.886371     -0.139972      0.362031
  C       1.643393     -1.453924     -0.049569
  N       2.566835     -2.449562     -0.178039
  C       2.228862     -3.694920     -0.051116
  N       3.086585     -4.722825     -0.271902
  C       4.465371     -4.485908     -0.697954
  C       2.665455     -6.107565     -0.102512
  S      -0.044433     -1.638582     -0.530428
  C      -0.417413      0.027620     -0.127917
  C       0.714920      0.689697      0.322085
  C       0.677648      2.092828      0.801387
  C       0.877880      2.374868      2.161231
  C       0.829040      3.690272      2.627690
  C       0.583913      4.742782      1.738198
  C       0.386925      4.469116      0.380406
  C       0.432504      3.152186     -0.083114
  P      -2.107509      0.691220     -0.180495
  C      -3.006129     -0.677547      0.699584
  C      -3.431967     -1.863180      0.080689
  C      -4.081013     -2.854098      0.822253
  C      -4.307685     -2.674792      2.192429
  C      -3.888990     -1.494107      2.816053
  C      -3.251784     -0.497713      2.069664
  N      -2.538678      0.237729     -1.845491
  C      -1.630131      0.654587     -2.930916
  C      -1.857479      2.105499     -3.371524
  O      -3.231519      2.326680     -3.743239
  C      -4.115180      2.015314     -2.649043
  C      -3.940258      0.560425     -2.197137
  H       4.381429      2.071766      2.907876
  H       5.548847      3.320441      2.417676
  H       3.806442      3.571361      2.135614
  H       4.975782      2.911472     -0.003736
  H       5.526082      1.395793      0.775123
  H       1.224317     -4.011276      0.267440
  H       4.623579     -4.864821     -1.719038
  H       5.158491     -5.005159     -0.021506
  H       4.660187     -3.411749     -0.670272
  H       2.762690     -6.662867     -1.047985
  H       3.281985     -6.612342      0.656437
  H       1.618810     -6.140580      0.216626
  H       1.066313      1.555163      2.852481
  H       0.981137      3.894255      3.686520
  H       0.545613      5.768471      2.101290
  H       0.196718      5.282017     -0.318753
  H       0.294034      2.940100     -1.140695
  H      -3.247544     -1.999440     -0.982913
  H      -4.410980     -3.769376      0.331486
  H      -4.815172     -3.447290      2.768454
  H      -4.068391     -1.345175      3.879960
  H      -2.939153      0.428441      2.552684
  H      -1.813349     -0.008590     -3.792535
  H      -0.591183      0.509718     -2.613779
  H      -1.261069      2.345557     -4.260986
  H      -1.578897      2.799789     -2.557618
  H      -3.917684      2.699289     -1.803822
  H      -5.132244      2.194174     -3.020330
  H      -4.591944      0.349902     -1.339234
  H      -4.246565     -0.110158     -3.016759
>
64
-2138.03528257; 31P isotropic shielding: 219.387563 ppm
  C       4.022196      1.384509      4.029169
  C       4.601536      1.232697      2.626216
  O       3.550569      1.006153      1.637414
  C       3.130148     -0.292257      1.483354
  O       3.631225     -1.238640      2.069570
  C       2.032491     -0.372840      0.491759
  C       2.002539     -1.394027     -0.457174
  N       2.919790     -2.395460     -0.609589
  C       2.596286     -3.528218     -1.147079
  N       3.496367     -4.515274     -1.402197
  C       4.916165     -4.347007     -1.098271
  C       3.081817     -5.779244     -1.994554
  S       0.652218     -1.143745     -1.572508
  C       0.111539      0.279087     -0.714913
  C       0.957586      0.574537      0.343295
  C       0.690417      1.695685      1.269436
  C       0.589881      1.466921      2.651784
  C       0.250985      2.502529      3.522588
  C       0.008057      3.788718      3.026114
  C       0.116396      4.029227      1.652792
  C       0.457234      2.991144      0.782711
  P      -1.294408      1.214869     -1.421934
  C      -2.422532      1.361135      0.041619
  C      -2.387151      0.527832      1.168855
  C      -3.325566      0.678459      2.193124
  C      -4.312859      1.665863      2.103707
  C      -4.352094      2.509551      0.987745
  C      -3.408198      2.359424     -0.031044
  N      -2.012534     -0.013828     -2.390466
  C      -2.491912      0.335995     -3.736797
  C      -4.020435      0.451008     -3.772926
  O      -4.642828     -0.748572     -3.278424
  C      -4.219919     -1.037079     -1.929971
  C      -2.698413     -1.203593     -1.854101
  H       3.273902      2.184814      4.056085
  H       3.554038      0.449793      4.357786
  H       4.826379      1.632960      4.735594
  H       5.084770      2.156489      2.289697
  H       5.317543      0.404496      2.576791
  H       1.562958     -3.788555     -1.422362
  H       5.049758     -3.402737     -0.566112
  H       5.510634     -4.337415     -2.024645
  H       5.264673     -5.178065     -0.468842
  H       3.319438     -6.621826     -1.327138
  H       2.001642     -5.768266     -2.173312
  H       3.593731     -5.948959     -2.954601
  H       0.761138      0.464345      3.039258
  H       0.167181      2.305060      4.590252
  H      -0.263905      4.595618      3.704506
  H      -0.064208      5.027493      1.257000
  H       0.546650      3.184281     -0.284437
  H      -1.614826     -0.233391      1.250533
  H      -3.283224      0.027059      3.065041
  H      -5.042124      1.783343      2.903737
  H      -5.111082      3.287366      0.916365
  H      -3.432913      3.023453     -0.895460
  H      -2.175866     -0.450607     -4.443682
  H      -2.030131      1.281563     -4.046818
  H      -4.382373      0.577511     -4.801328
  H      -4.346493      1.319036     -3.170095
  H      -4.543667     -0.228056     -1.253420
  H      -4.731582     -1.965706     -1.647493
  H      -2.385659     -1.376965     -0.820066
  H      -2.399376     -2.084790     -2.446338
>
64
-2138.04172753; 31P isotropic shielding: 196.469045 ppm
  C       4.354040      3.003774      2.886683
  C       4.326825      1.487166      2.775326
  O       3.406935      1.157820      1.694610
  C       3.071312     -0.164711      1.560770
  O       3.602347     -1.060994      2.196699
  C       2.001607     -0.324917      0.549063
  C       2.018436     -1.375855     -0.365946
  N       2.975788     -2.344097     -0.479926
  C       2.704058     -3.500078     -0.997037
  N       3.645447     -4.454055     -1.226246
  C       5.054073     -4.226037     -0.909383
  C       3.282833     -5.755612     -1.769418
  S       0.661795     -1.217193     -1.492135
  C       0.060782      0.210058     -0.682462
  C       0.890093      0.573970      0.366937
  C       0.590061      1.722567      1.248853
  C       0.515952      1.552265      2.641919
  C       0.180409      2.620349      3.473561
  C      -0.088388      3.881187      2.926705
  C      -0.013135      4.061806      1.542303
  C       0.325800      2.991167      0.711315
  P      -1.381603      1.067247     -1.414802
  C      -2.507007      1.213351      0.051477
  C      -3.527034      2.174716     -0.038932
  C      -4.470146      2.316657      0.981892
  C      -4.396299      1.501498      2.117031
  C      -3.374616      0.551404      2.224252
  C      -2.436489      0.409465      1.198581
  N      -2.055496     -0.216244     -2.342792
  C      -2.562936      0.078025     -3.692292
  C      -4.094997      0.134359     -3.711833
  O      -4.665252     -1.074850     -3.179348
  C      -4.215997     -1.311712     -1.829175
  C      -2.688462     -1.417272     -1.767918
  H       5.036256      3.306273      3.692399
  H       4.701977      3.458832      1.950974
  H       3.353708      3.394004      3.109494
  H       5.314176      1.067507      2.540424
  H       3.971791      1.008880      3.697304
  H       1.684928     -3.806771     -1.277506
  H       5.413012     -4.997621     -0.213073
  H       5.153308     -3.242203     -0.445999
  H       5.664149     -4.270387     -1.824136
  H       3.821556     -5.949984     -2.709598
  H       3.530788     -6.560872     -1.060613
  H       2.207183     -5.786287     -1.971561
  H       0.709750      0.570073      3.069599
  H       0.119522      2.468425      4.550258
  H      -0.355688      4.713965      3.575002
  H      -0.215483      5.039295      1.107112
  H       0.394677      3.139359     -0.364479
  H      -3.579256      2.816601     -0.918716
  H      -5.255970      3.065929      0.896878
  H      -5.125354      1.612476      2.918184
  H      -3.305846     -0.077601      3.110818
  H      -1.636524     -0.321036      1.294271
  H      -2.225113     -0.715427     -4.381149
  H      -2.141360      1.031494     -4.033888
  H      -4.474024      0.221268     -4.738179
  H      -4.445649      1.004320     -3.125939
  H      -4.563283     -0.498282     -1.169913
  H      -4.688039     -2.251765     -1.517009
  H      -2.357721     -1.552310     -0.733707
  H      -2.362207     -2.301081     -2.341582
>
64
-2138.04257867; 31P isotropic shielding: 196.973628 ppm
  C       5.512314      1.398944      2.314069
  C       4.611479      2.165448      1.350602
  O       3.302854      1.528254      1.235639
  C       3.198016      0.520882      0.310366
  O       4.136630      0.113457     -0.355545
  C       1.813490     -0.002012      0.257166
  C       1.570218     -1.373580      0.141995
  N       2.510886     -2.362711      0.111707
  C       2.268049     -3.497031     -0.466866
  N       3.129173     -4.545762     -0.435543
  C       4.397687     -4.467172      0.287452
  C       2.818881     -5.798558     -1.111746
  S      -0.162183     -1.689213      0.214449
  C      -0.545115      0.015404      0.340386
  C       0.614989      0.782148      0.359662
  C       0.600185      2.262173      0.332027
  C      -0.100766      3.007798      1.292907
  C      -0.133713      4.402757      1.223940
  C       0.535490      5.074570      0.195158
  C       1.244108      4.340389     -0.762740
  C       1.275000      2.946730     -0.694234
  P      -2.263449      0.606480      0.287325
  C      -3.107369     -0.913044      0.938928
  C      -3.560797     -1.958187      0.120171
  C      -4.189009     -3.074486      0.681659
  C      -4.367510     -3.160449      2.066683
  C      -3.922746     -2.118396      2.889894
  C      -3.308189     -0.997435      2.326558
  N      -2.628490      0.398264     -1.437042
  C      -1.641500      0.850564     -2.435324
  C      -1.722440      2.358749     -2.698515
  O      -3.056925      2.737833     -3.096218
  C      -4.013455      2.387332     -2.079624
  C      -3.983304      0.881303     -1.790444
  H       5.731312      0.398930      1.923717
  H       6.461962      1.936227      2.443838
  H       5.034786      1.300736      3.297146
  H       4.385672      3.171779      1.719795
  H       5.061212      2.230934      0.353380
  H       1.352693     -3.688565     -1.046875
  H       4.538229     -3.441887      0.636049
  H       5.224400     -4.747749     -0.380007
  H       4.394536     -5.153141      1.148081
  H       1.845118     -5.721875     -1.606065
  H       3.581742     -6.032592     -1.869588
  H       2.783072     -6.631313     -0.392720
  H      -0.615307      2.488437      2.096684
  H      -0.681764      4.966341      1.977439
  H       0.506311      6.161505      0.140819
  H       1.766107      4.853544     -1.568893
  H       1.816831      2.377021     -1.447263
  H      -3.405879     -1.887268     -0.954281
  H      -4.538146     -3.880473      0.036849
  H      -4.857871     -4.029711      2.502561
  H      -4.064229     -2.176362      3.968265
  H      -2.977345     -0.180175      2.968124
  H      -1.850266      0.315221     -3.376572
  H      -0.635224      0.570459     -2.107465
  H      -1.065220      2.651988     -3.526703
  H      -1.426907      2.921683     -1.797091
  H      -3.800095      2.952747     -1.154266
  H      -4.993915      2.695493     -2.465114
  H      -4.682372      0.635442     -0.979235
  H      -4.314828      0.333580     -2.687713
