63
-1794.09220018; 31P isotropic shielding: 242.713785 ppm
  C       3.749861      3.477146     -1.909000
  C       3.714727      2.241004     -1.022460
  O       2.594937      1.362203     -1.390906
  P       1.115704      1.582761     -0.794534
  O       0.955023      2.678649      0.197934
  C       0.710922     -0.082550     -0.064912
  C      -0.765968     -0.210184      0.165178
  C      -1.649501      0.815862      0.444767
  N      -2.903724      0.270659      0.485281
  N      -2.881662     -1.072912      0.249780
  C      -1.585752     -1.375996      0.062060
  C      -1.181013     -2.750668     -0.245633
  C      -2.034463     -3.614622     -0.954150
  C      -1.605223     -4.911240     -1.235915
  N      -0.403554     -5.400870     -0.873629
  C       0.402809     -4.571957     -0.186976
  C       0.068580     -3.258157      0.151536
  C      -4.133220      0.944641      0.735182
  C      -5.262359      0.208195      1.118387
  C      -6.464272      0.874779      1.364421
  C      -6.548094      2.266152      1.238283
  C      -5.416057      2.991779      0.852669
  C      -4.209367      2.338195      0.594011
  N       1.455415     -0.260820      1.199233
  C       2.867325     -0.329272      1.200128
  C       3.543944     -1.160349      0.290380
  C       4.934907     -1.249432      0.307979
  C       5.674452     -0.518818      1.244154
  C       5.000392      0.297413      2.157010
  C       3.604523      0.416495      2.152243
  C       2.900095      1.336135      3.124624
  O       0.175887      1.802926     -2.083101
  C       0.280380      1.018309     -3.317002
  C      -0.833496     -0.017230     -3.400075
  H       2.856918      4.093388     -1.750821
  H       4.633505      4.082356     -1.662695
  H       3.808332      3.199421     -2.968964
  H       4.602656      1.613235     -1.146321
  H       3.617632      2.507694      0.034617
  H       1.032224     -0.853640     -0.774183
  H      -1.458569      1.866972      0.606823
  H      -3.012339     -3.267060     -1.278593
  H      -2.254664     -5.594978     -1.785847
  H       1.367878     -4.982753      0.115715
  H       0.748193     -2.655366      0.749444
  H      -5.182261     -0.869710      1.217174
  H      -7.339739      0.301173      1.663479
  H      -7.486902      2.779979      1.435164
  H      -5.470214      4.073165      0.741075
  H      -3.344034      2.908915      0.267997
  H       1.099540      0.392557      1.892141
  H       2.979517     -1.735305     -0.440036
  H       5.439781     -1.895787     -0.408185
  H       6.760289     -0.585996      1.266022
  H       5.569551      0.872547      2.887395
  H       2.268158      2.069277      2.601037
  H       2.252365      0.780649      3.821341
  H       3.627403      1.889487      3.728727
  H       1.275286      0.559594     -3.374457
  H       0.197756      1.753133     -4.126539
  H      -0.808375     -0.502658     -4.385312
  H      -0.728710     -0.794208     -2.635488
  H      -1.813332      0.458393     -3.273456
>
63
-1794.09259923; 31P isotropic shielding: 243.053556 ppm
  C       3.928641      3.366278     -1.983520
  C       3.715362      2.256616     -0.965505
  O       2.591651      1.400230     -1.374685
  P       1.110546      1.598504     -0.776683
  O       0.935219      2.693183      0.214999
  C       0.722448     -0.067229     -0.041194
  C      -0.754120     -0.208985      0.180659
  C      -1.645834      0.805810      0.475298
  N      -2.896620      0.251808      0.498448
  N      -2.864682     -1.086872      0.236269
  C      -1.565712     -1.377243      0.049653
  C      -1.147984     -2.742075     -0.282312
  C       0.100203     -3.248635      0.120529
  C       0.449695     -4.551874     -0.242489
  N      -0.340721     -5.371403     -0.958343
  C      -1.541546     -4.883273     -1.325569
  C      -1.985048     -3.596679     -1.020814
  C      -4.131758      0.912695      0.755329
  C      -4.217844      2.307645      0.635037
  C      -5.429895      2.948357      0.900824
  C      -6.557401      2.208595      1.272663
  C      -6.463677      0.816088      1.377685
  C      -5.256271      0.162160      1.124520
  N       1.465450     -0.235797      1.224896
  C       2.877813     -0.291886      1.225261
  C       3.560996     -1.121311      0.318622
  C       4.952849     -1.197859      0.334950
  C       5.687046     -0.456386      1.266886
  C       5.006603      0.358747      2.176095
  C       3.609795      0.465384      2.172386
  C       2.898622      1.384770      3.139760
  O       0.168231      1.802127     -2.065684
  C       0.319460      1.082607     -3.332566
  C      -0.582891     -0.143881     -3.392698
  H       3.057972      4.032378     -2.020701
  H       4.806584      3.963843     -1.700995
  H       4.102043      2.953530     -2.985300
  H       4.572276      1.579142     -0.897432
  H       3.503228      2.661695      0.028836
  H       1.054307     -0.836158     -0.747300
  H      -1.462759      1.855271      0.656369
  H       0.767064     -2.653947      0.740648
  H       1.413900     -4.961873      0.064065
  H      -2.178013     -5.559658     -1.899258
  H      -2.961324     -3.249588     -1.350570
  H      -3.356006      2.889260      0.319146
  H      -5.491918      4.030876      0.805392
  H      -7.500449      2.712446      1.475046
  H      -7.335634      0.231627      1.665811
  H      -5.168426     -0.916544      1.206958
  H       1.103898      0.416636      1.915721
  H       3.001307     -1.705388     -0.408170
  H       5.462588     -1.843124     -0.378741
  H       6.773466     -0.513649      1.287636
  H       5.571435      0.942875      2.902689
  H       2.259958      2.109231      2.612283
  H       2.255951      0.828201      3.840325
  H       3.621781      1.947672      3.739994
  H       1.375889      0.825050     -3.476777
  H       0.036370      1.814156     -4.098236
  H      -1.621640      0.125565     -3.168770
  H      -0.546451     -0.572085     -4.403879
  H      -0.269321     -0.921957     -2.688595
>
63
-1794.09352708; 31P isotropic shielding: 243.725222 ppm
  C       4.397662      1.987751     -1.652612
  C       3.791951      2.843636     -0.550838
  O       2.361374      3.062747     -0.813430
  P       1.225228      2.423948      0.134980
  O       1.571284      2.363591      1.582544
  C       0.813698      0.784293     -0.609464
  C      -0.546704      0.264757     -0.215149
  C      -1.723335      0.514646     -0.894870
  N      -2.705528     -0.237094     -0.308024
  N      -2.215523     -0.983029      0.725099
  C      -0.909865     -0.675176      0.796274
  C      -0.078580     -1.319816      1.828227
  C       0.701081     -0.569190      2.721685
  C       1.440634     -1.243092      3.697146
  N       1.465877     -2.581986      3.831966
  C       0.716644     -3.290653      2.967261
  C      -0.066321     -2.715128      1.964654
  C      -4.081088     -0.306610     -0.661492
  C      -4.660394      0.704790     -1.442027
  C      -6.006540      0.614044     -1.803382
  C      -6.783073     -0.469589     -1.380388
  C      -6.200033     -1.465919     -0.588532
  C      -4.853364     -1.393881     -0.228670
  N       1.938125     -0.096579     -0.305267
  C       2.006398     -1.383279     -0.873290
  C       1.208315     -1.754810     -1.969469
  C       1.322550     -3.028478     -2.533281
  C       2.227444     -3.952483     -2.009181
  C       3.023275     -3.579956     -0.919456
  C       2.936044     -2.311742     -0.338495
  C       3.814778     -1.931084      0.828675
  O      -0.067185      3.277552     -0.277689
  C      -0.487072      4.435673      0.522903
  C       0.291519      5.688867      0.146503
  H       4.247726      2.454609     -2.634011
  H       5.478404      1.881951     -1.483986
  H       3.946745      0.989362     -1.658939
  H       3.906963      2.388147      0.439584
  H       4.239063      3.844855     -0.525167
  H       0.808875      0.977859     -1.691970
  H      -1.909406      1.137143     -1.758654
  H       0.731694      0.516594      2.662985
  H       2.046848     -0.677078      4.406750
  H       0.748600     -4.375676      3.081369
  H      -0.648448     -3.336399      1.288524
  H      -4.074947      1.567051     -1.750321
  H      -6.450393      1.402277     -2.408879
  H      -7.832576     -0.534034     -1.660387
  H      -6.796230     -2.311901     -0.251189
  H      -4.388793     -2.160773      0.382842
  H       2.205519     -0.069411      0.674666
  H       0.482081     -1.060329     -2.380306
  H       0.691381     -3.294697     -3.379793
  H       2.316384     -4.947922     -2.439514
  H       3.736474     -4.292227     -0.504658
  H       4.509986     -2.742196      1.070117
  H       4.408055     -1.030086      0.610757
  H       3.230794     -1.724034      1.735656
  H      -0.365441      4.185189      1.583497
  H      -1.554825      4.541536      0.302059
  H       1.353001      5.585544      0.399344
  H       0.206920      5.893467     -0.927625
  H      -0.111425      6.549459      0.698138
>
63
-1794.09480188; 31P isotropic shielding: 245.553957 ppm
  C       4.306627      2.752571     -0.436008
  C       3.450281      2.594155     -1.682632
  O       2.517832      1.463081     -1.533408
  P       1.037895      1.692064     -0.943341
  O       0.855815      2.826608     -0.000199
  C       0.709789      0.040385     -0.154902
  C      -0.757339     -0.121985      0.120173
  C      -1.668746      0.887030      0.369216
  N      -2.901144      0.301910      0.474284
  N      -2.837112     -1.050792      0.311298
  C      -1.536779     -1.320023      0.103039
  C      -1.093165     -2.695514     -0.142386
  C       0.188668     -3.136708      0.230454
  C       0.557677     -4.455320     -0.048006
  N      -0.244250     -5.349743     -0.652510
  C      -1.476837     -4.923395     -0.990460
  C      -1.941727     -3.628135     -0.764864
  C      -4.147070      0.946789      0.719958
  C      -4.274765      2.327330      0.506819
  C      -5.496809      2.953312      0.761516
  C      -6.593348      2.212201      1.214446
  C      -6.458337      0.833235      1.412249
  C      -5.240277      0.194808      1.170962
  N       1.489363     -0.076640      1.087671
  C       2.882058     -0.275810      1.098916
  C       3.520206     -1.058858      0.120636
  C       4.895089     -1.286281      0.177614
  C       5.658360     -0.741259      1.214050
  C       5.021990      0.032211      2.190474
  C       3.646160      0.282734      2.154777
  C       2.988696      1.150119      3.202883
  O       0.063750      1.857345     -2.220849
  C       0.132862      0.998647     -3.405845
  C      -1.049113      0.038803     -3.446458
  H       5.045079      3.549822     -0.601409
  H       3.685991      3.028857      0.422778
  H       4.839716      1.824113     -0.206014
  H       2.878529      3.505328     -1.898444
  H       4.052790      2.337834     -2.561273
  H       1.029776     -0.743905     -0.849227
  H      -1.510782      1.951067      0.471267
  H       0.869534     -2.480704      0.766532
  H       1.549014     -4.813222      0.235974
  H      -2.122446     -5.659733     -1.472819
  H      -2.944157     -3.334674     -1.067034
  H      -3.437857      2.907993      0.128470
  H      -5.591316      4.024621      0.593823
  H      -7.544400      2.704281      1.407995
  H      -7.305871      0.247739      1.764026
  H      -5.120341     -0.872871      1.324974
  H       1.170321      0.603178      1.771644
  H       2.945871     -1.483043     -0.698278
  H       5.368433     -1.891940     -0.593545
  H       6.731451     -0.913788      1.262974
  H       5.608860      0.468250      2.998919
  H       2.474687      2.013987      2.752668
  H       2.239447      0.594959      3.789087
  H       3.733349      1.537841      3.906371
  H       1.094168      0.468590     -3.420882
  H       0.112694      1.686053     -4.260293
  H      -1.045125     -0.507836     -4.399393
  H      -1.008832     -0.692764     -2.632608
  H      -1.994283      0.588891     -3.366950
>
63
-1794.09373208; 31P isotropic shielding: 244.882883 ppm
  C       3.895669      3.205147     -2.037240
  C       3.638245      2.103363     -1.020906
  O       2.501623      1.272798     -1.449112
  P       1.019997      1.490000     -0.857688
  O       0.839697      2.637263      0.070867
  C       0.628818     -0.138477     -0.043062
  C      -0.845317     -0.260802      0.209034
  C      -1.729701      0.773705      0.454864
  N      -2.977774      0.223489      0.560698
  N      -2.951076     -1.131063      0.400268
  C      -1.658634     -1.436439      0.192982
  C      -1.253203     -2.826999     -0.034532
  C       0.007457     -3.303588      0.366179
  C       0.339462     -4.636438      0.109937
  N      -0.479375     -5.512802     -0.498353
  C      -1.691915     -5.052151     -0.862901
  C      -2.119864     -3.740507     -0.660168
  C      -4.205497      0.901746      0.808274
  C      -4.291403      2.288693      0.616228
  C      -5.495948      2.946600      0.873765
  C      -6.616640      2.231819      1.309370
  C      -6.523368      0.846696      1.486625
  C      -5.323466      0.176033      1.241772
  N       1.389135     -0.247895      1.218402
  C       2.796247     -0.351787      1.213683
  C       3.452130     -1.212907      0.315865
  C       4.840940     -1.334106      0.333269
  C       5.599902     -0.605799      1.255319
  C       4.946542      0.241021      2.155676
  C       3.554258      0.391283      2.152568
  C       2.872900      1.340275      3.112599
  O       0.076409      1.603386     -2.156032
  C       0.191239      0.685832     -3.293218
  C       0.835692      1.395504     -4.474567
  H       3.037805      3.885665     -2.097089
  H       4.777018      3.787612     -1.734666
  H       4.087591      2.786732     -3.033250
  H       4.478396      1.407252     -0.934671
  H       3.418061      2.518096     -0.032444
  H       0.944068     -0.945711     -0.712647
  H      -1.541330      1.832984      0.554283
  H       0.698102     -2.661524      0.907514
  H       1.313420     -5.022534      0.416755
  H      -2.351973     -5.773772     -1.348014
  H      -3.107455     -3.419646     -0.982798
  H      -3.435776      2.850936      0.252334
  H      -5.557301      4.022764      0.722362
  H      -7.553798      2.748974      1.505407
  H      -7.389799      0.281116      1.824782
  H      -5.236436     -0.896934      1.379995
  H       1.047303      0.440503      1.883413
  H       2.874917     -1.786614     -0.405104
  H       5.328665     -2.003591     -0.373464
  H       6.683932     -0.697207      1.275439
  H       5.530440      0.815132      2.875121
  H       2.212239      0.809375      3.816188
  H       3.612891      1.885238      3.708771
  H       2.256812      2.081651      2.581057
  H      -0.834766      0.371025     -3.517755
  H       0.767836     -0.202884     -3.004813
  H       0.851521      0.728031     -5.347141
  H       0.268769      2.296701     -4.737823
  H       1.865466      1.683835     -4.236608
>
63
-1794.09322461; 31P isotropic shielding: 241.839796 ppm
  C       4.495709      2.443823     -1.084905
  C       3.821566      3.088241      0.116552
  O       2.391040      3.298151     -0.156224
  P       1.260671      2.423628      0.580930
  O       1.549636      2.048982      1.994285
  C       0.974373      0.946145     -0.499235
  C      -0.405657      0.369326     -0.308934
  C      -1.532680      0.782163     -0.992902
  N      -2.570795     -0.015740     -0.596985
  N      -2.164137     -0.952700      0.309573
  C      -0.854056     -0.719720      0.496554
  C      -0.098531     -1.591781      1.414204
  C       0.639311     -1.076113      2.489917
  C       1.309790     -1.967861      3.331308
  N       1.307602     -3.303440      3.168428
  C       0.598745     -3.785220      2.131102
  C      -0.117490     -2.982689      1.241534
  C      -3.931476      0.054541     -1.002839
  C      -4.777528     -1.041538     -0.781895
  C      -6.110981     -0.972311     -1.188155
  C      -6.608350      0.175126     -1.817341
  C      -5.758601      1.265342     -2.030057
  C      -4.424340      1.214063     -1.619803
  N       2.092705      0.041248     -0.249872
  C       2.198342     -1.180602     -0.939176
  C       1.439138     -1.453755     -2.090094
  C       1.571344     -2.676299     -2.754286
  C       2.458299     -3.643537     -2.279561
  C       3.225860     -3.362563     -1.142855
  C       3.121480     -2.146559     -0.462819
  C       3.979251     -1.853874      0.744693
  O      -0.039113      3.320797      0.313416
  C      -0.837746      3.846850      1.433075
  C      -2.043557      2.959386      1.702568
  H       4.357720      3.057913     -1.983499
  H       5.574063      2.350476     -0.895079
  H       4.086178      1.443991     -1.267190
  H       3.924256      2.482420      1.024531
  H       4.223526      4.088086      0.318784
  H       1.049936      1.327781     -1.528563
  H      -1.649632      1.561324     -1.732567
  H       0.693951     -0.004432      2.668956
  H       1.882101     -1.588569      4.180031
  H       0.609548     -4.869051      2.003556
  H      -0.665970     -3.423460      0.412901
  H      -4.378754     -1.925037     -0.293813
  H      -6.764621     -1.825487     -1.015741
  H      -7.648195      0.220925     -2.134506
  H      -6.135149      2.167906     -2.508005
  H      -3.781311      2.077806     -1.766667
  H       2.326908     -0.025310      0.736882
  H       0.729222     -0.722104     -2.463035
  H       0.968710     -2.868851     -3.640625
  H       2.558783     -4.600810     -2.787045
  H       3.928981     -4.107175     -0.770016
  H       4.594364     -0.954587      0.589246
  H       3.378241     -1.683188      1.648309
  H       4.650957     -2.692505      0.956357
  H      -1.134392      4.852281      1.114015
  H      -0.195503      3.926891      2.317158
  H      -2.679869      2.872385      0.814313
  H      -1.733530      1.954222      2.009169
  H      -2.642640      3.397650      2.512643
>
63
-1794.09525050; 31P isotropic shielding: 244.384712 ppm
  C       4.842702      2.182912     -1.143981
  C       3.440125      2.712535     -1.386670
  O       2.506159      1.574508     -1.367688
  P       0.997669      1.749335     -0.834716
  O       0.759169      2.849542      0.136878
  C       0.678733      0.071577     -0.101064
  C      -0.789154     -0.112518      0.156215
  C      -1.713917      0.881044      0.419110
  N      -2.941755      0.282021      0.493416
  N      -2.862620     -1.065592      0.296759
  C      -1.557281     -1.316778      0.098750
  C      -1.097504     -2.681826     -0.173472
  C       0.176376     -3.124482      0.223219
  C       0.563275     -4.432142     -0.081095
  N      -0.214400     -5.314497     -0.733337
  C      -1.440189     -4.887208     -1.094210
  C      -1.921291     -3.602067     -0.845531
  C      -4.197068      0.908342      0.739461
  C      -5.290505      0.133188      1.148986
  C      -6.517942      0.753258      1.390727
  C      -6.662396      2.136564      1.234267
  C      -5.565507      2.900940      0.822705
  C      -4.333911      2.293869      0.568151
  N       1.458544     -0.068148      1.140565
  C       2.850620     -0.277383      1.135309
  C       3.458240     -1.121927      0.188833
  C       4.828278     -1.375750      0.237384
  C       5.618835     -0.793198      1.231973
  C       5.015244      0.047891      2.172519
  C       3.643488      0.326231      2.144108
  C       3.019004      1.258093      3.157842
  O       0.067688      1.925287     -2.142221
  C       0.194627      1.085660     -3.336594
  C      -0.957305      0.092765     -3.423208
  H       5.122854      1.447254     -1.907382
  H       5.557647      3.016186     -1.188150
  H       4.919411      1.707023     -0.161136
  H       3.129980      3.425845     -0.614446
  H       3.349360      3.194564     -2.369478
  H       1.013537     -0.688799     -0.814449
  H      -1.566820      1.943333      0.550750
  H       0.836144     -2.477861      0.795773
  H       1.548720     -4.791362      0.221242
  H      -2.066140     -5.614046     -1.615349
  H      -2.917035     -3.306785     -1.167454
  H      -5.163357     -0.937755      1.271217
  H      -7.365575      0.149652      1.710247
  H      -7.620840      2.614118      1.427825
  H      -5.666951      3.976216      0.687497
  H      -3.496413      2.893753      0.222577
  H       1.154563      0.617058      1.826371
  H       2.860344     -1.581677     -0.593606
  H       5.276687     -2.031842     -0.506914
  H       6.688635     -0.986409      1.274732
  H       5.624336      0.514512      2.946803
  H       2.494714      2.095946      2.673030
  H       2.285952      0.740357      3.796640
  H       3.784793      1.680806      3.817239
  H       1.170942      0.583494     -3.331363
  H       0.178514      1.784680     -4.181506
  H      -1.920050      0.614508     -3.367316
  H      -0.908282     -0.443810     -4.380587
  H      -0.920401     -0.645307     -2.615095
>
63
-1794.09377924; 31P isotropic shielding: 246.560683 ppm
  C       4.338901      2.710903     -0.440492
  C       3.469954      2.577027     -1.681090
  O       2.532642      1.448627     -1.539650
  P       1.056831      1.679669     -0.940095
  O       0.886172      2.805960      0.015089
  C       0.723929      0.022452     -0.165191
  C      -0.742729     -0.134924      0.115490
  C      -1.647181      0.876629      0.379046
  N      -2.882467      0.297498      0.483959
  N      -2.826788     -1.053859      0.307023
  C      -1.528989     -1.328255      0.090165
  C      -1.093991     -2.703652     -0.170715
  C      -1.949845     -3.624975     -0.799955
  C      -1.493152     -4.920502     -1.040318
  N      -0.261992     -5.357274     -0.710629
  C       0.546995     -4.473673     -0.099661
  C       0.186474     -3.155842      0.193409
  C      -4.123618      0.946754      0.741992
  C      -4.242317      2.331514      0.552072
  C      -5.459857      2.961402      0.818414
  C      -6.560957      2.220391      1.260285
  C      -6.434933      0.837486      1.435140
  C      -5.221510      0.194914      1.181794
  N       1.508630     -0.108773      1.072740
  C       2.899918     -0.316983      1.076373
  C       3.529182     -1.096094      0.089278
  C       4.902838     -1.332769      0.138883
  C       5.673806     -0.800923      1.176420
  C       5.046265     -0.031269      2.161557
  C       3.671954      0.228174      2.133546
  C       3.024368      1.091214      3.191306
  O       0.076731      1.863029     -2.210373
  C       0.135128      1.016133     -3.404763
  C      -1.047037      0.056590     -3.444835
  H       4.872287      1.777378     -0.232699
  H       5.077371      3.509736     -0.597955
  H       3.727171      2.972568      0.429173
  H       2.900945      3.494416     -1.876651
  H       4.062078      2.331293     -2.569768
  H       1.037038     -0.757147     -0.867791
  H      -1.482524      1.938690      0.490376
  H      -2.951488     -3.322707     -1.095996
  H      -2.144492     -5.648111     -1.528181
  H       1.537185     -4.840043      0.177440
  H       0.873090     -2.509307      0.733645
  H      -3.402062      2.913157      0.182826
  H      -5.547080      4.035989      0.668714
  H      -7.508453      2.715605      1.463057
  H      -7.285959      0.251889      1.778216
  H      -5.108828     -0.875945      1.318069
  H       1.196894      0.567811      1.763266
  H       2.949064     -1.510315     -0.730659
  H       5.369056     -1.935252     -0.639081
  H       6.745922     -0.980825      1.219735
  H       5.639072      0.394560      2.971120
  H       2.272824      0.536614      3.775100
  H       3.774225      1.467091      3.895672
  H       2.515323      1.962793      2.750365
  H       1.096388      0.486595     -3.433427
  H       0.107300      1.712633     -4.251545
  H      -1.991566      0.605557     -3.351151
  H      -1.051528     -0.479978     -4.403488
  H      -0.999411     -0.683645     -2.639297
>
63
-1794.09374593; 31P isotropic shielding: 244.837742 ppm
  C       3.960464      2.158995     -2.159768
  C       2.991580      3.181905     -1.583856
  O       2.753353      2.910110     -0.162586
  P       1.356143      2.345681      0.395728
  O       1.379925      2.219440      1.873874
  C       1.003581      0.772816     -0.509348
  C      -0.394972      0.288100     -0.203864
  C      -1.539463      0.682256     -0.870421
  N      -2.578617     -0.058446     -0.375074
  N      -2.156888     -0.934985      0.583510
  C      -0.836443     -0.721734      0.702601
  C      -0.064877     -1.523021      1.669077
  C      -0.112215     -2.922972      1.628973
  C       0.620374     -3.651159      2.568049
  N       1.370444     -3.087236      3.532271
  C       1.400279     -1.742079      3.567110
  C       0.717550     -0.920971      2.666024
  C      -3.950394      0.006621     -0.742624
  C      -4.448303      1.134895     -1.411351
  C      -5.792914      1.179021     -1.786924
  C      -6.647927      0.113359     -1.487953
  C      -6.145485     -1.001491     -0.806427
  C      -4.801674     -1.064025     -0.434333
  N       2.084878     -0.161239     -0.229303
  C       2.099007     -1.443765     -0.801169
  C       1.263390     -1.785908     -1.879092
  C       1.307404     -3.068608     -2.432750
  C       2.180773     -4.028158     -1.919615
  C       3.022485     -3.680595     -0.855806
  C       3.006494     -2.405430     -0.285858
  C       3.936951     -2.048121      0.847887
  O       0.210881      3.297903     -0.227757
  C      -0.492197      4.265569      0.625740
  C       0.327926      5.532423      0.825295
  H       3.551765      1.144516     -2.097069
  H       4.163990      2.395469     -3.213324
  H       4.909840      2.179796     -1.611333
  H       3.407565      4.196000     -1.620380
  H       2.035605      3.192638     -2.123865
  H       1.037597      1.036991     -1.578910
  H      -1.670009      1.399146     -1.668541
  H      -0.694115     -3.429436      0.863010
  H       0.609569     -4.742266      2.543941
  H       2.005987     -1.295796      4.358079
  H       0.787071      0.162504      2.740333
  H      -3.800526      1.982340     -1.619921
  H      -6.173632      2.057637     -2.304687
  H      -7.695939      0.153881     -1.777869
  H      -6.803519     -1.834516     -0.565657
  H      -4.398865     -1.922644      0.093362
  H       2.414556     -0.133067      0.730385
  H       0.559135     -1.062293     -2.277689
  H       0.645619     -3.313249     -3.262298
  H       2.212746     -5.031134     -2.340315
  H       3.714293     -4.420059     -0.452712
  H       4.583697     -2.895056      1.100255
  H       4.579790     -1.193854      0.586251
  H       3.390169     -1.775466      1.761134
  H      -0.721268      3.780179      1.581319
  H      -1.427706      4.467320      0.092031
  H      -0.254889      6.260494      1.406192
  H       1.251617      5.317360      1.375319
  H       0.586541      5.988414     -0.138603
>
63
-1794.09243616; 31P isotropic shielding: 248.890886 ppm
  C       3.081172      5.200405     -0.187671
  C       3.652986      3.799494     -0.367334
  O       2.640579      2.853116     -0.850588
  P       1.573708      2.212964      0.166977
  O       2.051611      1.981370      1.560405
  C       1.111938      0.674704     -0.750502
  C      -0.294307      0.236499     -0.425122
  C      -1.423156      0.662002     -1.097401
  N      -2.495648      0.007306     -0.557855
  N      -2.111320     -0.851642      0.431847
  C      -0.777399     -0.713056      0.523681
  C      -0.040182     -1.540731      1.493789
  C      -0.210773     -2.932171      1.505267
  C       0.493072     -3.692404      2.440036
  N       1.328148     -3.167143      3.355344
  C       1.475816     -1.830136      3.342186
  C       0.830765     -0.980879      2.439480
  C      -3.869177      0.156387     -0.892603
  C      -4.788724     -0.826138     -0.498930
  C      -6.135527     -0.679017     -0.834288
  C      -6.573999      0.433438     -1.562408
  C      -5.650641      1.410760     -1.947210
  C      -4.301254      1.281866     -1.610061
  N       2.167506     -0.296633     -0.487918
  C       2.093339     -1.606199     -0.982869
  C       1.207557     -1.961850     -2.016054
  C       1.146621     -3.278985     -2.478375
  C       1.966381     -4.261100     -1.920328
  C       2.865177     -3.900048     -0.909284
  C       2.953854     -2.590739     -0.430517
  C       3.951431     -2.221286      0.640435
  O       0.284668      3.171887      0.046570
  C      -0.427122      3.661849      1.238200
  C      -1.716976      2.891225      1.475872
  H       3.891621      5.896857      0.067349
  H       2.602104      5.547797     -1.111063
  H       2.342281      5.229116      0.621722
  H       4.428388      3.778881     -1.140475
  H       4.071555      3.410161      0.568780
  H       1.141281      0.963557     -1.813030
  H      -1.522962      1.357415     -1.918772
  H      -0.864119     -3.408666      0.778946
  H       0.387111     -4.778525      2.453524
  H       2.150587     -1.413828      4.092601
  H       1.007746      0.091760      2.475437
  H      -4.434927     -1.683427      0.064754
  H      -6.846860     -1.443702     -0.527444
  H      -7.625050      0.540032     -1.823060
  H      -5.980053      2.286458     -2.503569
  H      -3.597629      2.061261     -1.890031
  H       2.562974     -0.221403      0.444141
  H       0.551359     -1.215862     -2.453441
  H       0.447723     -3.531996     -3.274434
  H       1.916373     -5.290487     -2.269450
  H       3.519674     -4.655921     -0.475396
  H       3.464195     -1.830958      1.544770
  H       4.537649     -3.095800      0.941977
  H       4.649749     -1.446601      0.288052
  H      -0.625733      4.719530      1.028285
  H       0.246744      3.587588      2.098892
  H      -1.520006      1.839489      1.708476
  H      -2.246692      3.337115      2.329188
  H      -2.377409      2.940045      0.602400
>
63
-1794.09447813; 31P isotropic shielding: 242.191300 ppm
  C       4.892449      0.660353     -1.594247
  C       3.985118      1.509549     -2.471692
  O       2.741137      0.785941     -2.779061
  P       1.364228      1.156979     -2.044780
  O       1.131328      2.590872     -1.711260
  C       1.280709      0.124166     -0.508414
  C      -0.157597     -0.099031     -0.122915
  C      -0.959779      0.828522      0.512720
  N      -2.184651      0.246964      0.702206
  N      -2.217196     -1.028809      0.226644
  C      -0.990671     -1.248195     -0.284618
  C      -0.669907     -2.560958     -0.857004
  C      -1.255672     -3.725891     -0.328201
  C      -0.936104     -4.963261     -0.885149
  N      -0.082355     -5.126246     -1.914664
  C       0.467961     -4.009375     -2.420621
  C       0.211073     -2.721979     -1.940251
  C      -3.339728      0.829676      1.295843
  C      -4.368701      0.003076      1.767576
  C      -5.495710      0.579244      2.356148
  C      -5.603201      1.969106      2.483999
  C      -4.573517      2.786059      2.005901
  C      -3.444670      2.224023      1.405523
  N       2.074563      0.852160      0.482675
  C       2.265086      0.349670      1.778475
  C       2.032157     -1.002349      2.089179
  C       2.275920     -1.484981      3.377267
  C       2.746362     -0.629299      4.375612
  C       2.973521      0.716790      4.065807
  C       2.743985      1.228207      2.784907
  C       3.004839      2.682074      2.467194
  O       0.344765      0.461115     -3.067109
  C      -1.021784      0.984361     -3.235886
  C      -1.080604      1.933520     -4.422189
  H       5.842843      1.187600     -1.431718
  H       4.427544      0.474607     -0.619468
  H       5.111682     -0.300374     -2.076240
  H       3.729693      2.466299     -2.000604
  H       4.439706      1.712039     -3.448256
  H       1.761598     -0.835287     -0.734789
  H      -0.733010      1.825006      0.861724
  H      -1.944752     -3.654281      0.509541
  H      -1.382338     -5.875132     -0.484013
  H       1.147588     -4.148068     -3.263586
  H       0.653330     -1.864908     -2.438356
  H      -4.271716     -1.072926      1.664374
  H      -6.292885     -0.064737      2.723026
  H      -6.482887      2.411530      2.947073
  H      -4.650428      3.868698      2.087853
  H      -2.664903      2.869021      1.009211
  H       1.940581      1.858312      0.422785
  H       1.653558     -1.680465      1.329579
  H       2.088457     -2.534887      3.596496
  H       2.932765     -0.999916      5.381432
  H       3.340427      1.393253      4.838008
  H       3.750126      2.797269      1.665430
  H       2.094476      3.204937      2.130672
  H       3.376843      3.212352      3.350570
  H      -1.335314      1.479937     -2.310980
  H      -1.641291      0.093641     -3.385558
  H      -0.731407      1.437779     -5.336122
  H      -2.117709      2.260962     -4.579958
  H      -0.461233      2.818685     -4.237141
>
63
-1794.09465722; 31P isotropic shielding: 243.001408 ppm
  C       4.839968      0.644988     -1.738329
  C       3.905241      1.478126     -2.602317
  O       2.657684      0.744632     -2.867535
  P       1.297872      1.119592     -2.103611
  O       1.063296      2.558014     -1.791464
  C       1.261500      0.116639     -0.546146
  C      -0.165508     -0.103573     -0.118158
  C      -0.955677      0.835640      0.515451
  N      -2.171793      0.252891      0.751952
  N      -2.209846     -1.034558      0.309241
  C      -0.996159     -1.260331     -0.229181
  C      -0.683071     -2.584816     -0.777974
  C       0.168599     -2.767041     -1.881139
  C       0.420397     -4.064301     -2.337024
  N      -0.108301     -5.171665     -1.788835
  C      -0.934174     -4.988544     -0.740135
  C      -1.246359     -3.739832     -0.204854
  C      -3.313370      0.844430      1.362635
  C      -4.321774      0.024724      1.887711
  C      -5.434868      0.609961      2.493561
  C      -5.548630      2.002111      2.585880
  C      -4.539737      2.812009      2.054437
  C      -3.425222      2.240616      1.436351
  N       2.078734      0.866654      0.408772
  C       2.305907      0.389506      1.708493
  C       2.081677     -0.955826      2.052451
  C       2.361384     -1.412449      3.342734
  C       2.859419     -0.537121      4.310160
  C       3.078605      0.802188      3.967071
  C       2.813748      1.287660      2.682931
  C       3.068335      2.733792      2.327398
  O       0.257724      0.396122     -3.085086
  C      -1.115681      0.907726     -3.232679
  C      -1.200253      1.868069     -4.408506
  H       5.048889     -0.322090     -2.212144
  H       5.792611      1.177620     -1.610418
  H       4.403169      0.472186     -0.748309
  H       3.657327      2.439581     -2.136751
  H       4.333080      1.670660     -3.592908
  H       1.740160     -0.845253     -0.766441
  H      -0.725583      1.841854      0.832892
  H       0.591253     -1.919819     -2.412168
  H       1.077126     -4.219714     -3.195091
  H      -1.363025     -5.892936     -0.304586
  H      -1.912364     -3.651545      0.649782
  H      -4.219937     -1.053108      1.811846
  H      -6.216042     -0.028566      2.902044
  H      -6.417264      2.451612      3.062787
  H      -4.622081      3.896004      2.108337
  H      -2.662457      2.879252      0.998775
  H       1.937381      1.870852      0.334122
  H       1.682490     -1.649010      1.317462
  H       2.180255     -2.457622      3.588356
  H       3.073858     -0.887588      5.317613
  H       3.467800      1.493664      4.714644
  H       3.788880      2.828837      1.500830
  H       2.149674      3.252574      2.007529
  H       3.468478      3.281343      3.187601
  H      -1.423550      1.390014     -2.298821
  H      -1.727116      0.011768     -3.383755
  H      -0.587714      2.757694     -4.222600
  H      -0.858897      1.385319     -5.332290
  H      -2.242869      2.186184     -4.548496
>
63
-1794.09463314; 31P isotropic shielding: 243.118524 ppm
  C       4.832072      0.604000     -1.789605
  C       3.895712      1.397810     -2.688307
  O       2.642364      0.659460     -2.909576
  P       1.296059      1.063338     -2.136074
  O       1.076019      2.510480     -1.855668
  C       1.276174      0.100504     -0.551366
  C      -0.144566     -0.123224     -0.105096
  C      -0.930739      0.816762      0.532650
  N      -2.144057      0.232815      0.780811
  N      -2.187207     -1.051895      0.332581
  C      -0.976303     -1.279932     -0.211088
  C      -0.665836     -2.610589     -0.747226
  C       0.195183     -2.809195     -1.840249
  C       0.442325     -4.112500     -2.281438
  N      -0.098997     -5.211090     -1.728148
  C      -0.933600     -5.012301     -0.689126
  C      -1.242545     -3.756583     -0.168649
  C      -3.284770      0.825670      1.392764
  C      -4.552888      0.267713      1.180222
  C      -5.670223      0.859512      1.772169
  C      -5.535298      2.003757      2.566921
  C      -4.264876      2.549937      2.777417
  C      -3.136961      1.962923      2.199813
  N       2.090335      0.886322      0.378002
  C       2.304913      0.463584      1.698417
  C       2.095460     -0.871089      2.090074
  C       2.358982     -1.273425      3.401499
  C       2.827026     -0.353954      4.342761
  C       3.032503      0.974319      3.952004
  C       2.782303      1.406299      2.645762
  C       3.021348      2.841705      2.239305
  O       0.238444      0.323927     -3.086058
  C      -1.139462      0.829971     -3.211775
  C      -1.247111      1.792173     -4.384313
  H       4.400141      0.481724     -0.789856
  H       5.034598     -0.385941     -2.216657
  H       5.787370      1.138422     -1.692761
  H       3.655496      2.382640     -2.269837
  H       4.317535      1.538025     -3.690126
  H       1.762721     -0.862621     -0.748931
  H      -0.716240      1.841444      0.798012
  H       0.628642     -1.970920     -2.376233
  H       1.106147     -4.280242     -3.131711
  H      -1.372538     -5.909590     -0.248949
  H      -1.915998     -3.655154      0.678686
  H      -4.643484     -0.617353      0.558389
  H      -6.654312      0.425458      1.604731
  H      -6.410705      2.462644      3.022010
  H      -4.144967      3.431618      3.404285
  H      -2.151003      2.375410      2.396310
  H       1.949202      1.886616      0.260516
  H       1.720270     -1.597887      1.375120
  H       2.189180     -2.311008      3.684572
  H       3.029072     -0.662203      5.366448
  H       3.398855      1.699758      4.678694
  H       3.756714      2.916723      1.423814
  H       2.101525      3.332757      1.881349
  H       3.396070      3.428265      3.085136
  H      -1.435841      1.308448     -2.272238
  H      -1.748019     -0.069126     -3.355635
  H      -0.917598      1.312702     -5.314104
  H      -2.293270      2.105500     -4.507350
  H      -0.636045      2.684188     -4.205594
>
63
-1794.09445787; 31P isotropic shielding: 243.260261 ppm
  C       4.884967      0.556959     -1.639674
  C       3.985485      1.369751     -2.558851
  O       2.727879      0.651196     -2.818802
  P       1.366506      1.070781     -2.080928
  O       1.162718      2.518420     -1.791330
  C       1.286105      0.091100     -0.508323
  C      -0.149544     -0.119486     -0.105431
  C      -0.941514      0.820637      0.524627
  N      -2.169379      0.249482      0.727565
  N      -2.216290     -1.027151      0.257047
  C      -0.992970     -1.263125     -0.254529
  C      -0.685005     -2.589409     -0.803182
  C      -1.294358     -3.736150     -0.260701
  C      -0.988013     -4.987714     -0.792747
  N      -0.126164     -5.181834     -1.810226
  C       0.446714     -4.082402     -2.329042
  C       0.205021     -2.782954     -1.873626
  C      -3.319812      0.847643      1.315822
  C      -4.587619      0.306001      1.063027
  C      -5.714058      0.902798      1.632263
  C      -5.588486      2.036008      2.444242
  C      -4.318450      2.565962      2.694841
  C      -3.181797      1.973711      2.140117
  N       2.084156      0.855460      0.451818
  C       2.265364      0.413394      1.770634
  C       2.024704     -0.921525      2.142977
  C       2.257484     -1.343335      3.454178
  C       2.724918     -0.443174      4.414273
  C       2.960929      0.885640      4.042728
  C       2.742258      1.336646      2.737361
  C       3.014572      2.771855      2.351515
  O       0.323990      0.360716     -3.069094
  C      -1.041731      0.890984     -3.224451
  C      -1.108624      1.838898     -4.411451
  H       5.084151     -0.433642     -2.066759
  H       5.845222      1.076222     -1.513800
  H       4.423990      0.435509     -0.652888
  H       3.748172      2.355535     -2.141059
  H       4.436663      1.509422     -3.547848
  H       1.765208     -0.876516     -0.702406
  H      -0.720972      1.837466      0.814068
  H      -1.990855     -3.638874      0.568294
  H      -1.452319     -5.885468     -0.380478
  H       1.132954     -4.245905     -3.162143
  H       0.666046     -1.942586     -2.382542
  H      -4.670989     -0.570602      0.428352
  H      -6.697767      0.481311      1.433447
  H      -6.470862      2.498827      2.881509
  H      -4.205975      3.438826      3.335257
  H      -2.197341      2.373740      2.367299
  H       1.960189      1.858970      0.343137
  H       1.648787     -1.633021      1.413156
  H       2.064009     -2.380811      3.721971
  H       2.902960     -0.766692      5.437699
  H       3.326919      1.596134      4.784204
  H       3.765675      2.842455      1.550103
  H       2.110410      3.283664      1.982872
  H       3.384434      3.342136      3.210525
  H      -1.343818      1.389159     -2.297111
  H      -1.666388      0.002681     -3.366359
  H      -0.482141      2.720520     -4.234167
  H      -0.772988      1.340187     -5.328833
  H      -2.145530      2.172569     -4.557345
>
63
-1794.09454219; 31P isotropic shielding: 243.274570 ppm
  C       3.825709      3.379468     -1.944195
  C       3.771748      2.133568     -1.072601
  O       2.616375      1.296214     -1.428391
  P       1.163402      1.540467     -0.778860
  O       1.057429      2.644100      0.211978
  C       0.741842     -0.119637     -0.045642
  C      -0.739242     -0.243256      0.157815
  C      -1.623592      0.786993      0.422333
  N      -2.878789      0.244629      0.457505
  N      -2.857505     -1.101177      0.233595
  C      -1.560854     -1.408774      0.057909
  C      -1.156497     -2.790270     -0.220967
  C      -2.006341     -3.666820     -0.918214
  C      -1.579635     -4.971128     -1.166051
  N      -0.383902     -5.457283     -0.780192
  C       0.418712     -4.616150     -0.104207
  C       0.086530     -3.293701      0.200988
  C      -4.109026      0.923126      0.691777
  C      -4.184505      2.313692      0.524338
  C      -5.391410      2.972162      0.769339
  C      -6.523971      2.253774      1.166646
  C      -6.440780      0.864937      1.318422
  C      -5.238613      0.193753      1.086647
  N       1.466315     -0.288145      1.231784
  C       2.879853     -0.345270      1.246137
  C       3.569817     -1.185605      0.355302
  C       4.961260     -1.264313      0.385671
  C       5.687603     -0.513128      1.315692
  C       5.000190      0.312617      2.209716
  C       3.603492      0.421300      2.192078
  C       2.885062      1.351300      3.143830
  O       0.185712      1.773542     -2.039361
  C       0.074640      0.797706     -3.124675
  C      -0.692884      1.453109     -4.260913
  H       2.956627      4.021337     -1.757603
  H       4.733617      3.953350     -1.711305
  H       3.850370      3.113781     -3.008533
  H       4.636953      1.480840     -1.224726
  H       3.707521      2.388712     -0.010248
  H       1.075246     -0.895656     -0.743158
  H      -1.433503      1.838995      0.580367
  H      -2.980040     -3.323481     -1.259498
  H      -2.226364     -5.664730     -1.706751
  H       1.378728     -5.023854      0.218098
  H       0.762063     -2.680604      0.792995
  H      -3.318427      2.877612      0.188459
  H      -5.445486      4.051276      0.637644
  H      -7.462959      2.771258      1.352728
  H      -7.316864      0.297226      1.626720
  H      -5.158683     -0.882178      1.205275
  H       1.102603      0.375050      1.911434
  H       3.016114     -1.777423     -0.369838
  H       5.476551     -1.918452     -0.315841
  H       6.773694     -0.571793      1.347425
  H       5.559123      0.903627      2.935296
  H       2.230217      0.802951      3.839528
  H       3.603972      1.913477      3.749807
  H       2.259117      2.076023      2.601935
  H      -0.458364     -0.085002     -2.743743
  H       1.082713      0.498054     -3.440565
  H      -0.157136      2.334882     -4.632168
  H      -0.811971      0.741524     -5.088738
  H      -1.689374      1.764994     -3.925529
>
63
-1794.09369543; 31P isotropic shielding: 242.291353 ppm
  C       4.237378      2.320577     -2.483530
  C       3.849004      1.610358     -1.195786
  O       2.811279      0.605769     -1.471330
  P       1.261459      0.865535     -1.133240
  O       0.912765      2.267966     -0.763342
  C       0.838683     -0.342027      0.219822
  C      -0.654972     -0.402482      0.309922
  C      -1.471603      0.615560      0.766060
  N      -2.764954      0.187381      0.641731
  N      -2.832733     -1.072832      0.127453
  C      -1.555050     -1.436813     -0.087500
  C      -1.266926     -2.760132     -0.654425
  C      -2.057450     -3.869851     -0.307085
  C      -1.768312     -5.114067     -0.866286
  N      -0.759901     -5.332586     -1.732257
  C      -0.014666     -4.265537     -2.068234
  C      -0.223144     -2.976279     -1.570338
  C      -3.951086      0.918282      0.931174
  C      -3.908920      2.317702      1.017725
  C      -5.075702      3.026083      1.313448
  C      -6.285023      2.350988      1.508429
  C      -6.319512      0.955443      1.404460
  C      -5.159183      0.233388      1.119828
  N       1.443721      0.131807      1.476505
  C       2.839325      0.097025      1.670020
  C       3.612336     -0.988046      1.219670
  C       4.988632     -1.020734      1.440283
  C       5.619669      0.024453      2.122510
  C       4.849136      1.096339      2.583207
  C       3.467556      1.160185      2.367050
  C       2.661893      2.344788      2.850685
  O       0.505740      0.243517     -2.411419
  C      -0.309955      1.074001     -3.309967
  C      -1.737958      1.197526     -2.798172
  H       3.394301      2.902265     -2.876297
  H       5.070245      3.010482     -2.288612
  H       4.556429      1.600061     -3.246722
  H       4.681793      1.047158     -0.763004
  H       3.473882      2.317612     -0.449475
  H       1.238356     -1.326986     -0.030433
  H      -1.225352      1.594725      1.149212
  H      -2.880463     -3.752821      0.393630
  H      -2.372251     -5.984909     -0.604655
  H       0.790168     -4.448077     -2.782971
  H       0.382713     -2.151927     -1.934568
  H      -2.982362      2.854667      0.833040
  H      -5.038073      4.112039      1.377232
  H      -7.192703      2.907479      1.733126
  H      -7.256631      0.421440      1.550988
  H      -5.172150     -0.848688      1.036523
  H       1.042041      1.023661      1.748976
  H       3.138385     -1.808936      0.687575
  H       5.567373     -1.868800      1.077891
  H       6.693243      0.003871      2.297960
  H       5.331024      1.916607      3.115410
  H       3.311807      3.085495      3.329248
  H       2.137752      2.847567      2.022594
  H       1.900209      2.050170      3.589855
  H      -0.267049      0.554126     -4.273251
  H       0.164500      2.056928     -3.414739
  H      -2.347952      1.729090     -3.541606
  H      -2.181346      0.209801     -2.628001
  H      -1.766015      1.763812     -1.861595
>
63
-1794.09356706; 31P isotropic shielding: 238.524137 ppm
  C       4.225973      2.202277     -2.614908
  C       3.838172      1.557990     -1.292996
  O       2.791306      0.549491     -1.516609
  P       1.247641      0.829767     -1.166642
  O       0.910709      2.245567     -0.839816
  C       0.840171     -0.327336      0.233960
  C      -0.651982     -0.390140      0.347408
  C      -1.467828      0.636975      0.785367
  N      -2.761227      0.199312      0.688470
  N      -2.828798     -1.070000      0.199180
  C      -1.552438     -1.436229     -0.017546
  C      -1.267172     -2.776076     -0.546143
  C      -2.059223     -3.873638     -0.164741
  C      -1.773135     -5.134274     -0.687609
  N      -0.766722     -5.380038     -1.548770
  C      -0.020354     -4.324753     -1.917477
  C      -0.225677     -3.020973     -1.457352
  C      -3.948824      0.934557      0.962895
  C      -5.167807      0.509648      0.416412
  C      -6.327012      1.244595      0.671170
  C      -6.281550      2.400950      1.458508
  C      -5.061426      2.814717      2.002982
  C      -3.895395      2.083931      1.764851
  N       1.459526      0.194380      1.464716
  C       2.857487      0.165595      1.643142
  C       3.624215     -0.938128      1.228982
  C       5.002880     -0.963981      1.435333
  C       5.642685      0.107323      2.067058
  C       4.878539      1.198308      2.492246
  C       3.494623      1.255299      2.289308
  C       2.695535      2.459238      2.734793
  O       0.471567      0.168455     -2.412498
  C      -0.356423      0.972406     -3.323939
  C      -1.783794      1.087637     -2.808802
  H       3.385640      2.770266     -3.032855
  H       5.064505      2.894772     -2.456986
  H       4.536956      1.443351     -3.343459
  H       4.668805      1.009687     -0.837506
  H       3.470678      2.302191     -0.579623
  H       1.239192     -1.319957      0.014893
  H      -1.223487      1.644308      1.089019
  H      -2.880856     -3.734009      0.533523
  H      -2.377864     -5.995981     -0.399004
  H       0.782644     -4.529546     -2.628224
  H       0.380361     -2.208864     -1.847409
  H      -5.187574     -0.384067     -0.198905
  H      -7.271720      0.913761      0.243408
  H      -7.187907      2.972215      1.648778
  H      -5.013699      3.706297      2.625486
  H      -2.958102      2.400471      2.214467
  H       1.063722      1.098724      1.702747
  H       3.143419     -1.779492      0.736459
  H       5.576555     -1.827036      1.101420
  H       6.718185      0.092454      2.230899
  H       5.367245      2.038860      2.985119
  H       1.946980      2.195216      3.498591
  H       3.352294      3.220179      3.170254
  H       2.156640      2.925901      1.895217
  H      -0.310488      0.435672     -4.277870
  H       0.105187      1.959113     -3.447971
  H      -2.401894      1.602798     -3.557104
  H      -2.215658      0.097264     -2.624649
  H      -1.815502      1.666300     -1.879846
>
63
-1794.09351356; 31P isotropic shielding: 238.903171 ppm
  C       4.263734      2.243198     -2.636108
  C       3.775524      1.661053     -1.318966
  O       2.749285      0.640494     -1.583482
  P       1.202271      0.864579     -1.209444
  O       0.822952      2.266464     -0.868700
  C       0.840906     -0.314028      0.185780
  C      -0.648510     -0.399258      0.320052
  C      -1.470153      0.614431      0.776882
  N      -2.758228      0.159782      0.702128
  N      -2.817825     -1.113137      0.219339
  C      -1.540439     -1.458969     -0.026141
  C      -1.245538     -2.789569     -0.572146
  C      -0.221971     -3.008839     -1.509880
  C      -0.005761     -4.304787     -1.986762
  N      -0.725436     -5.375836     -1.610400
  C      -1.714907     -5.154861     -0.723392
  C      -2.009328     -3.903880     -0.182223
  C      -3.948199      0.874975      1.014096
  C      -5.132635      0.171827      1.272452
  C      -6.296346      0.878830      1.580190
  C      -6.287950      2.277467      1.638656
  C      -5.102242      2.970666      1.374147
  C      -3.932943      2.277009      1.054371
  N       1.471322      0.205354      1.411047
  C       2.869615      0.185453      1.578332
  C       3.646782     -0.895585      1.125117
  C       5.027293     -0.910758      1.321395
  C       5.659035      0.148055      1.981383
  C       4.884646      1.216057      2.445322
  C       3.498961      1.262235      2.253949
  C       2.688921      2.441772      2.742111
  O       0.434350      0.186362     -2.450705
  C      -0.416727      0.973360     -3.356242
  C      -1.840967      1.062890     -2.827633
  H       3.456247      2.778646     -3.150710
  H       5.080797      2.952883     -2.445367
  H       4.640205      1.453039     -3.297414
  H       4.570679      1.141752     -0.775033
  H       3.347692      2.435679     -0.674369
  H       1.251346     -1.298162     -0.049389
  H      -1.231186      1.606470      1.130357
  H       0.361127     -2.183101     -1.906308
  H       0.783459     -4.489621     -2.718118
  H      -2.298259     -6.029177     -0.428761
  H      -2.816300     -3.785209      0.536639
  H      -5.125043     -0.912456      1.224379
  H      -7.215212      0.330948      1.781003
  H      -7.197940      2.822263      1.881928
  H      -5.085884      4.058655      1.402013
  H      -3.026023      2.825997      0.815175
  H       1.066599      1.100402      1.667921
  H       3.173990     -1.727193      0.609089
  H       5.608705     -1.755941      0.956585
  H       6.735842      0.141475      2.136737
  H       5.366630      2.046933      2.960677
  H       2.147246      2.934852      1.919394
  H       1.940892      2.144210      3.493902
  H       3.338304      3.191893      3.206448
  H      -0.369475      0.435784     -4.309560
  H       0.025552      1.968171     -3.486035
  H      -2.475121      1.568086     -3.569288
  H      -2.254957      0.065563     -2.640032
  H      -1.873303      1.639753     -1.897587
>
63
-1794.09354099; 31P isotropic shielding: 239.233842 ppm
  C       4.868827      2.189337     -1.161873
  C       3.460756      2.711727     -1.387906
  O       2.534448      1.567451     -1.357939
  P       1.023210      1.739474     -0.832032
  O       0.777905      2.841425      0.135871
  C       0.708529      0.062122     -0.095895
  C      -0.759570     -0.126799      0.157286
  C      -1.688941      0.864039      0.414358
  N      -2.914782      0.260657      0.486380
  N      -2.829957     -1.087179      0.293871
  C      -1.523097     -1.334103      0.100964
  C      -1.057175     -2.698144     -0.165774
  C      -1.874507     -3.623452     -0.838642
  C      -1.387428     -4.907534     -1.081436
  N      -0.161704     -5.329079     -0.713852
  C       0.609840     -4.441891     -0.060920
  C       0.216648     -3.134789      0.237727
  C      -4.173187      0.882822      0.727237
  C      -5.265963      0.104001      1.131578
  C      -6.496512      0.719945      1.367986
  C      -6.644906      2.102793      1.211175
  C      -5.548701      2.870890      0.804809
  C      -4.313943      2.267968      0.555778
  N       1.484886     -0.071820      1.148815
  C       2.879070     -0.269230      1.146102
  C       3.493164     -1.118565      0.208108
  C       4.865234     -1.360343      0.258203
  C       5.651287     -0.760984      1.246523
  C       5.041237      0.084636      2.178713
  C       3.667130      0.351388      2.148022
  C       3.035380      1.289089      3.151938
  O       0.098044      1.911811     -2.143239
  C       0.230033      1.069151     -3.335113
  C      -0.915719      0.069108     -3.419894
  H       5.144145      1.456137     -1.929467
  H       5.579491      3.025805     -1.212132
  H       4.957645      1.711793     -0.180849
  H       3.155355      3.422043     -0.611058
  H       3.355331      3.194539     -2.368855
  H       1.048540     -0.698929     -0.806123
  H      -1.546038      1.927337      0.542362
  H      -2.870023     -3.333153     -1.165783
  H      -2.008336     -5.638253     -1.603158
  H       1.595225     -4.796474      0.246982
  H       0.871476     -2.483862      0.811085
  H      -5.135945     -0.966550      1.254125
  H      -7.343498      0.113380      1.683568
  H      -7.605815      2.577084      1.400452
  H      -5.653051      3.945853      0.669401
  H      -3.476922      2.870914      0.214448
  H       1.175214      0.614016      1.831523
  H       2.898181     -1.591551     -0.568737
  H       5.318819     -2.020282     -0.479502
  H       6.722691     -0.944773      1.290645
  H       5.646858      0.564326      2.947691
  H       2.501092      2.115166      2.658050
  H       2.309376      0.771611      3.798956
  H       3.798088      1.728041      3.804290
  H       1.209596      0.573405     -3.328435
  H       0.209236      1.766125     -4.181603
  H      -0.863697     -0.468337     -4.376631
  H      -0.874639     -0.668046     -2.611126
  H      -1.881533      0.585219     -3.364650
>
63
-1794.09373312; 31P isotropic shielding: 246.514958 ppm
  C       3.882239      3.290816     -2.018443
  C       3.648288      2.187258     -0.998519
  O       2.511381      1.349378     -1.410701
  P       1.037628      1.551458     -0.796274
  O       0.874592      2.657973      0.182990
  C       0.651127     -0.110748     -0.052373
  C      -0.822470     -0.251065      0.193698
  C      -1.713774      0.770523      0.466798
  N      -2.959032      0.210179      0.552763
  N      -2.923564     -1.138990      0.354015
  C      -1.628855     -1.430992      0.142078
  C      -1.214630     -2.812389     -0.123209
  C       0.050032     -3.291058      0.261751
  C       0.389423     -4.614988     -0.029608
  N      -0.425787     -5.480138     -0.658345
  C      -1.641934     -5.017971     -1.008260
  C      -2.077352     -3.714527     -0.770359
  C      -4.191949      0.874318      0.812198
  C      -4.285392      2.265428      0.657048
  C      -5.495391      2.909210      0.924724
  C      -6.614363      2.176314      1.333970
  C      -6.513646      0.787420      1.474600
  C      -5.308203      0.130788      1.219243
  N       1.413235     -0.270460      1.204143
  C       2.823250     -0.351334      1.186806
  C       3.483132     -1.185696      0.267233
  C       4.873602     -1.286225      0.268876
  C       5.630155     -0.563998      1.197956
  C       4.972982      0.256182      2.119945
  C       3.578439      0.386054      2.131860
  C       2.892371      1.308695      3.114167
  O       0.079821      1.730574     -2.076578
  C       0.180010      0.870738     -3.259961
  C       0.616524      1.703763     -4.455333
  H       4.060245      2.872957     -3.017319
  H       3.019577      3.966474     -2.064666
  H       4.764740      3.879241     -1.731010
  H       4.494191      1.496504     -0.926078
  H       3.439091      2.598500     -0.006126
  H       0.971028     -0.885481     -0.757631
  H      -1.532786      1.827513      0.599034
  H       0.738057     -2.658596      0.817534
  H       1.366474     -5.002861      0.264826
  H      -2.298675     -5.730773     -1.510555
  H      -3.067825     -3.391893     -1.082191
  H      -3.431196      2.842477      0.313483
  H      -5.562329      3.988644      0.801736
  H      -7.555912      2.682364      1.537796
  H      -7.378568      0.207740      1.792072
  H      -5.215682     -0.945030      1.328976
  H       1.069647      0.393322      1.893283
  H       2.906219     -1.754558     -0.457995
  H       5.364693     -1.935148     -0.454487
  H       6.715577     -0.639645      1.206681
  H       5.555083      0.825500      2.844616
  H       2.248690      0.756326      3.817048
  H       3.629985      1.856622      3.710632
  H       2.258423      2.047284      2.600368
  H      -0.818746      0.440847     -3.403297
  H       0.887613      0.052687     -3.073638
  H       1.623247      2.107066     -4.296520
  H       0.627078      1.082893     -5.361649
  H      -0.075525      2.539434     -4.614923
